p cnf 12644 31916
-385 257 0
385 -257 0
-386 258 0
386 -258 0
-387 259 0
387 -259 0
-388 260 0
388 -260 0
-389 261 0
389 -261 0
-390 262 0
390 -262 0
-391 263 0
391 -263 0
-392 264 0
392 -264 0
-393 265 0
393 -265 0
-394 266 0
394 -266 0
-395 267 0
395 -267 0
-396 268 0
396 -268 0
-397 269 0
397 -269 0
-398 270 0
398 -270 0
-399 271 0
399 -271 0
-400 272 0
400 -272 0
-401 273 0
401 -273 0
-402 274 0
402 -274 0
-403 275 0
403 -275 0
-404 276 0
404 -276 0
-405 277 0
405 -277 0
-406 278 0
406 -278 0
-407 279 0
407 -279 0
-408 280 0
408 -280 0
-409 281 0
409 -281 0
-410 282 0
410 -282 0
-411 283 0
411 -283 0
-412 284 0
412 -284 0
-413 285 0
413 -285 0
-414 286 0
414 -286 0
-415 287 0
415 -287 0
-416 288 0
416 -288 0
-417 289 0
417 -289 0
-418 290 0
418 -290 0
-419 291 0
419 -291 0
-420 292 0
420 -292 0
-421 293 0
421 -293 0
-422 294 0
422 -294 0
-423 295 0
423 -295 0
-424 296 0
424 -296 0
-425 297 0
425 -297 0
-426 298 0
426 -298 0
-427 299 0
427 -299 0
-428 300 0
428 -300 0
-429 301 0
429 -301 0
-430 302 0
430 -302 0
-431 303 0
431 -303 0
-432 304 0
432 -304 0
-433 305 0
433 -305 0
-434 306 0
434 -306 0
-435 307 0
435 -307 0
-436 308 0
436 -308 0
-437 309 0
437 -309 0
-438 310 0
438 -310 0
-439 311 0
439 -311 0
-440 312 0
440 -312 0
-441 313 0
441 -313 0
-442 314 0
442 -314 0
-443 315 0
443 -315 0
-444 316 0
444 -316 0
-445 317 0
445 -317 0
-446 318 0
446 -318 0
-447 319 0
447 -319 0
-448 320 0
448 -320 0
-449 321 0
449 -321 0
-450 322 0
450 -322 0
-451 323 0
451 -323 0
-452 324 0
452 -324 0
-453 325 0
453 -325 0
-454 326 0
454 -326 0
-455 327 0
455 -327 0
-456 328 0
456 -328 0
-457 329 0
457 -329 0
-458 330 0
458 -330 0
-459 331 0
459 -331 0
-460 332 0
460 -332 0
-461 333 0
461 -333 0
-462 334 0
462 -334 0
-463 335 0
463 -335 0
-464 336 0
464 -336 0
-465 337 0
465 -337 0
-466 338 0
466 -338 0
-467 339 0
467 -339 0
-468 340 0
468 -340 0
-469 341 0
469 -341 0
-470 342 0
470 -342 0
-471 343 0
471 -343 0
-472 344 0
472 -344 0
-473 345 0
473 -345 0
-474 346 0
474 -346 0
-475 347 0
475 -347 0
-476 348 0
476 -348 0
-477 349 0
477 -349 0
-478 350 0
478 -350 0
-479 351 0
479 -351 0
-480 352 0
480 -352 0
-481 353 0
481 -353 0
-482 354 0
482 -354 0
-483 355 0
483 -355 0
-484 356 0
484 -356 0
-485 357 0
485 -357 0
-486 358 0
486 -358 0
-487 359 0
487 -359 0
-488 360 0
488 -360 0
-489 361 0
489 -361 0
-490 362 0
490 -362 0
-491 363 0
491 -363 0
-492 364 0
492 -364 0
-493 365 0
493 -365 0
-494 366 0
494 -366 0
-495 367 0
495 -367 0
-496 368 0
496 -368 0
-497 369 0
497 -369 0
-498 370 0
498 -370 0
-499 371 0
499 -371 0
-500 372 0
500 -372 0
-501 373 0
501 -373 0
-502 374 0
502 -374 0
-503 375 0
503 -375 0
-504 376 0
504 -376 0
-505 377 0
505 -377 0
-506 378 0
506 -378 0
-507 379 0
507 -379 0
-508 380 0
508 -380 0
-509 381 0
509 -381 0
-510 382 0
510 -382 0
-511 383 0
511 -383 0
-512 384 0
512 -384 0
641 -513 0
-641 513 0
645 -514 0
-645 514 0
649 -515 0
-649 515 0
653 -516 0
-653 516 0
657 -517 0
-657 517 0
661 -518 0
-661 518 0
665 -519 0
-665 519 0
669 -520 0
-669 520 0
673 -521 0
-673 521 0
677 -522 0
-677 522 0
681 -523 0
-681 523 0
685 -524 0
-685 524 0
689 -525 0
-689 525 0
693 -526 0
-693 526 0
697 -527 0
-697 527 0
701 -528 0
-701 528 0
705 -529 0
-705 529 0
709 -530 0
-709 530 0
713 -531 0
-713 531 0
717 -532 0
-717 532 0
721 -533 0
-721 533 0
725 -534 0
-725 534 0
729 -535 0
-729 535 0
733 -536 0
-733 536 0
737 -537 0
-737 537 0
741 -538 0
-741 538 0
745 -539 0
-745 539 0
749 -540 0
-749 540 0
753 -541 0
-753 541 0
757 -542 0
-757 542 0
761 -543 0
-761 543 0
765 -544 0
-765 544 0
642 -545 0
-642 545 0
646 -546 0
-646 546 0
650 -547 0
-650 547 0
654 -548 0
-654 548 0
658 -549 0
-658 549 0
662 -550 0
-662 550 0
666 -551 0
-666 551 0
670 -552 0
-670 552 0
674 -553 0
-674 553 0
678 -554 0
-678 554 0
682 -555 0
-682 555 0
686 -556 0
-686 556 0
690 -557 0
-690 557 0
694 -558 0
-694 558 0
698 -559 0
-698 559 0
702 -560 0
-702 560 0
706 -561 0
-706 561 0
710 -562 0
-710 562 0
714 -563 0
-714 563 0
718 -564 0
-718 564 0
722 -565 0
-722 565 0
726 -566 0
-726 566 0
730 -567 0
-730 567 0
734 -568 0
-734 568 0
738 -569 0
-738 569 0
742 -570 0
-742 570 0
746 -571 0
-746 571 0
750 -572 0
-750 572 0
754 -573 0
-754 573 0
758 -574 0
-758 574 0
762 -575 0
-762 575 0
766 -576 0
-766 576 0
643 -577 0
-643 577 0
647 -578 0
-647 578 0
651 -579 0
-651 579 0
655 -580 0
-655 580 0
659 -581 0
-659 581 0
663 -582 0
-663 582 0
667 -583 0
-667 583 0
671 -584 0
-671 584 0
675 -585 0
-675 585 0
679 -586 0
-679 586 0
683 -587 0
-683 587 0
687 -588 0
-687 588 0
691 -589 0
-691 589 0
695 -590 0
-695 590 0
699 -591 0
-699 591 0
703 -592 0
-703 592 0
707 -593 0
-707 593 0
711 -594 0
-711 594 0
715 -595 0
-715 595 0
719 -596 0
-719 596 0
723 -597 0
-723 597 0
727 -598 0
-727 598 0
731 -599 0
-731 599 0
735 -600 0
-735 600 0
739 -601 0
-739 601 0
743 -602 0
-743 602 0
747 -603 0
-747 603 0
751 -604 0
-751 604 0
755 -605 0
-755 605 0
759 -606 0
-759 606 0
763 -607 0
-763 607 0
767 -608 0
-767 608 0
644 -609 0
-644 609 0
648 -610 0
-648 610 0
652 -611 0
-652 611 0
656 -612 0
-656 612 0
660 -613 0
-660 613 0
664 -614 0
-664 614 0
668 -615 0
-668 615 0
672 -616 0
-672 616 0
676 -617 0
-676 617 0
680 -618 0
-680 618 0
684 -619 0
-684 619 0
688 -620 0
-688 620 0
692 -621 0
-692 621 0
696 -622 0
-696 622 0
700 -623 0
-700 623 0
704 -624 0
-704 624 0
708 -625 0
-708 625 0
712 -626 0
-712 626 0
716 -627 0
-716 627 0
720 -628 0
-720 628 0
724 -629 0
-724 629 0
728 -630 0
-728 630 0
732 -631 0
-732 631 0
736 -632 0
-736 632 0
740 -633 0
-740 633 0
744 -634 0
-744 634 0
748 -635 0
-748 635 0
752 -636 0
-752 636 0
756 -637 0
-756 637 0
760 -638 0
-760 638 0
764 -639 0
-764 639 0
768 -640 0
-768 640 0
897 -769 0
-897 769 0
898 -770 0
-898 770 0
899 -771 0
-899 771 0
900 -772 0
-900 772 0
901 -773 0
-901 773 0
902 -774 0
-902 774 0
903 -775 0
-903 775 0
904 -776 0
-904 776 0
905 -777 0
-905 777 0
906 -778 0
-906 778 0
907 -779 0
-907 779 0
908 -780 0
-908 780 0
909 -781 0
-909 781 0
910 -782 0
-910 782 0
911 -783 0
-911 783 0
912 -784 0
-912 784 0
913 -785 0
-913 785 0
914 -786 0
-914 786 0
915 -787 0
-915 787 0
916 -788 0
-916 788 0
917 -789 0
-917 789 0
918 -790 0
-918 790 0
919 -791 0
-919 791 0
920 -792 0
-920 792 0
921 -793 0
-921 793 0
922 -794 0
-922 794 0
923 -795 0
-923 795 0
924 -796 0
-924 796 0
925 -797 0
-925 797 0
926 -798 0
-926 798 0
927 -799 0
-927 799 0
928 -800 0
-928 800 0
929 -801 0
-929 801 0
930 -802 0
-930 802 0
931 -803 0
-931 803 0
932 -804 0
-932 804 0
933 -805 0
-933 805 0
934 -806 0
-934 806 0
935 -807 0
-935 807 0
936 -808 0
-936 808 0
937 -809 0
-937 809 0
938 -810 0
-938 810 0
939 -811 0
-939 811 0
940 -812 0
-940 812 0
941 -813 0
-941 813 0
942 -814 0
-942 814 0
943 -815 0
-943 815 0
944 -816 0
-944 816 0
945 -817 0
-945 817 0
946 -818 0
-946 818 0
947 -819 0
-947 819 0
948 -820 0
-948 820 0
949 -821 0
-949 821 0
950 -822 0
-950 822 0
951 -823 0
-951 823 0
952 -824 0
-952 824 0
953 -825 0
-953 825 0
954 -826 0
-954 826 0
955 -827 0
-955 827 0
956 -828 0
-956 828 0
957 -829 0
-957 829 0
958 -830 0
-958 830 0
959 -831 0
-959 831 0
960 -832 0
-960 832 0
961 -833 0
-961 833 0
962 -834 0
-962 834 0
963 -835 0
-963 835 0
964 -836 0
-964 836 0
965 -837 0
-965 837 0
966 -838 0
-966 838 0
967 -839 0
-967 839 0
968 -840 0
-968 840 0
969 -841 0
-969 841 0
970 -842 0
-970 842 0
971 -843 0
-971 843 0
972 -844 0
-972 844 0
973 -845 0
-973 845 0
974 -846 0
-974 846 0
975 -847 0
-975 847 0
976 -848 0
-976 848 0
977 -849 0
-977 849 0
978 -850 0
-978 850 0
979 -851 0
-979 851 0
980 -852 0
-980 852 0
981 -853 0
-981 853 0
982 -854 0
-982 854 0
983 -855 0
-983 855 0
984 -856 0
-984 856 0
985 -857 0
-985 857 0
986 -858 0
-986 858 0
987 -859 0
-987 859 0
988 -860 0
-988 860 0
989 -861 0
-989 861 0
990 -862 0
-990 862 0
991 -863 0
-991 863 0
992 -864 0
-992 864 0
993 -865 0
-993 865 0
994 -866 0
-994 866 0
995 -867 0
-995 867 0
996 -868 0
-996 868 0
997 -869 0
-997 869 0
998 -870 0
-998 870 0
999 -871 0
-999 871 0
1000 -872 0
-1000 872 0
1001 -873 0
-1001 873 0
1002 -874 0
-1002 874 0
1003 -875 0
-1003 875 0
1004 -876 0
-1004 876 0
1005 -877 0
-1005 877 0
1006 -878 0
-1006 878 0
1007 -879 0
-1007 879 0
1008 -880 0
-1008 880 0
1009 -881 0
-1009 881 0
1010 -882 0
-1010 882 0
1011 -883 0
-1011 883 0
1012 -884 0
-1012 884 0
1013 -885 0
-1013 885 0
1014 -886 0
-1014 886 0
1015 -887 0
-1015 887 0
1016 -888 0
-1016 888 0
1017 -889 0
-1017 889 0
1018 -890 0
-1018 890 0
1019 -891 0
-1019 891 0
1020 -892 0
-1020 892 0
1021 -893 0
-1021 893 0
1022 -894 0
-1022 894 0
1023 -895 0
-1023 895 0
1024 -896 0
-1024 896 0
-1409 1281 0
1409 -1281 0
-1410 1282 0
1410 -1282 0
-1411 1283 0
1411 -1283 0
-1412 1284 0
1412 -1284 0
-1413 1285 0
1413 -1285 0
-1414 1286 0
1414 -1286 0
-1415 1287 0
1415 -1287 0
-1416 1288 0
1416 -1288 0
-1417 1289 0
1417 -1289 0
-1418 1290 0
1418 -1290 0
-1419 1291 0
1419 -1291 0
-1420 1292 0
1420 -1292 0
-1421 1293 0
1421 -1293 0
-1422 1294 0
1422 -1294 0
-1423 1295 0
1423 -1295 0
-1424 1296 0
1424 -1296 0
-1425 1297 0
1425 -1297 0
-1426 1298 0
1426 -1298 0
-1427 1299 0
1427 -1299 0
-1428 1300 0
1428 -1300 0
-1429 1301 0
1429 -1301 0
-1430 1302 0
1430 -1302 0
-1431 1303 0
1431 -1303 0
-1432 1304 0
1432 -1304 0
-1433 1305 0
1433 -1305 0
-1434 1306 0
1434 -1306 0
-1435 1307 0
1435 -1307 0
-1436 1308 0
1436 -1308 0
-1437 1309 0
1437 -1309 0
-1438 1310 0
1438 -1310 0
-1439 1311 0
1439 -1311 0
-1440 1312 0
1440 -1312 0
-1441 1313 0
1441 -1313 0
-1442 1314 0
1442 -1314 0
-1443 1315 0
1443 -1315 0
-1444 1316 0
1444 -1316 0
-1445 1317 0
1445 -1317 0
-1446 1318 0
1446 -1318 0
-1447 1319 0
1447 -1319 0
-1448 1320 0
1448 -1320 0
-1449 1321 0
1449 -1321 0
-1450 1322 0
1450 -1322 0
-1451 1323 0
1451 -1323 0
-1452 1324 0
1452 -1324 0
-1453 1325 0
1453 -1325 0
-1454 1326 0
1454 -1326 0
-1455 1327 0
1455 -1327 0
-1456 1328 0
1456 -1328 0
-1457 1329 0
1457 -1329 0
-1458 1330 0
1458 -1330 0
-1459 1331 0
1459 -1331 0
-1460 1332 0
1460 -1332 0
-1461 1333 0
1461 -1333 0
-1462 1334 0
1462 -1334 0
-1463 1335 0
1463 -1335 0
-1464 1336 0
1464 -1336 0
-1465 1337 0
1465 -1337 0
-1466 1338 0
1466 -1338 0
-1467 1339 0
1467 -1339 0
-1468 1340 0
1468 -1340 0
-1469 1341 0
1469 -1341 0
-1470 1342 0
1470 -1342 0
-1471 1343 0
1471 -1343 0
-1472 1344 0
1472 -1344 0
-1473 1345 0
1473 -1345 0
-1474 1346 0
1474 -1346 0
-1475 1347 0
1475 -1347 0
-1476 1348 0
1476 -1348 0
-1477 1349 0
1477 -1349 0
-1478 1350 0
1478 -1350 0
-1479 1351 0
1479 -1351 0
-1480 1352 0
1480 -1352 0
-1481 1353 0
1481 -1353 0
-1482 1354 0
1482 -1354 0
-1483 1355 0
1483 -1355 0
-1484 1356 0
1484 -1356 0
-1485 1357 0
1485 -1357 0
-1486 1358 0
1486 -1358 0
-1487 1359 0
1487 -1359 0
-1488 1360 0
1488 -1360 0
-1489 1361 0
1489 -1361 0
-1490 1362 0
1490 -1362 0
-1491 1363 0
1491 -1363 0
-1492 1364 0
1492 -1364 0
-1493 1365 0
1493 -1365 0
-1494 1366 0
1494 -1366 0
-1495 1367 0
1495 -1367 0
-1496 1368 0
1496 -1368 0
-1497 1369 0
1497 -1369 0
-1498 1370 0
1498 -1370 0
-1499 1371 0
1499 -1371 0
-1500 1372 0
1500 -1372 0
-1501 1373 0
1501 -1373 0
-1502 1374 0
1502 -1374 0
-1503 1375 0
1503 -1375 0
-1504 1376 0
1504 -1376 0
-1505 1377 0
1505 -1377 0
-1506 1378 0
1506 -1378 0
-1507 1379 0
1507 -1379 0
-1508 1380 0
1508 -1380 0
-1509 1381 0
1509 -1381 0
-1510 1382 0
1510 -1382 0
-1511 1383 0
1511 -1383 0
-1512 1384 0
1512 -1384 0
-1513 1385 0
1513 -1385 0
-1514 1386 0
1514 -1386 0
-1515 1387 0
1515 -1387 0
-1516 1388 0
1516 -1388 0
-1517 1389 0
1517 -1389 0
-1518 1390 0
1518 -1390 0
-1519 1391 0
1519 -1391 0
-1520 1392 0
1520 -1392 0
-1521 1393 0
1521 -1393 0
-1522 1394 0
1522 -1394 0
-1523 1395 0
1523 -1395 0
-1524 1396 0
1524 -1396 0
-1525 1397 0
1525 -1397 0
-1526 1398 0
1526 -1398 0
-1527 1399 0
1527 -1399 0
-1528 1400 0
1528 -1400 0
-1529 1401 0
1529 -1401 0
-1530 1402 0
1530 -1402 0
-1531 1403 0
1531 -1403 0
-1532 1404 0
1532 -1404 0
-1533 1405 0
1533 -1405 0
-1534 1406 0
1534 -1406 0
-1535 1407 0
1535 -1407 0
-1536 1408 0
1536 -1408 0
1537 1539 1541 1542 1543 -1545 0
1537 -1539 -1540 -1542 -1543 1544 0
1538 -1539 1540 1541 -1542 1544 0
1537 1538 -1540 -1541 -1543 1544 1546 0
1538 -1539 1540 1541 -1542 1543 0
1538 1539 1540 -1541 1543 -1544 1546 0
1537 1540 -1543 -1544 1546 0
1537 1540 1543 1544 1546 1547 0
1537 -1538 1540 1543 1544 0
-1537 -1538 1540 1541 -1542 -1544 0
1539 1540 -1541 -1543 1544 1546 0
1537 1538 -1540 -1542 1543 -1546 0
-1539 1540 1543 -1544 -1546 0
-1538 -1540 -1543 1544 -1546 0
1537 -1538 -1540 1541 -1542 -1543 0
1537 1538 1539 1540 1547 0
1537 -1539 -1543 1544 -1546 0
-1537 1538 1540 -1541 -1543 1544 1546 0
1537 1538 -1540 -1541 1543 -1544 1546 0
-1537 -1538 1540 1541 1542 1544 0
-1537 -1539 1541 -1544 -1546 0
-1537 -1540 1541 1543 -1546 0
1537 -1540 -1542 -1544 -1546 0
1537 -1538 -1539 -1541 -1546 0
-1537 1538 -1539 1540 -1542 -1546 0
1537 1538 -1539 -1540 -1542 1543 -1544 0
-1537 -1540 -1543 -1544 1546 0
-1538 1541 -1543 -1544 1546 0
1537 -1538 1540 -1541 1546 0
-1537 -1540 1543 1544 1546 0
1537 -1538 -1540 1541 1542 -1544 0
-1537 -1538 1539 -1540 1546 0
-1538 1539 -1540 -1541 1543 -1544 0
-1537 1538 1539 -1540 -1543 -1544 0
-1541 1542 -1543 -1544 -1546 0
-1537 -1538 1540 -1541 -1546 0
-1537 1538 1539 1544 -1546 0
1539 1540 -1543 -1544 -1546 0
-1537 1539 1540 1541 1542 1544 0
-1541 -1542 -1543 -1544 1546 0
1537 1542 1543 1544 -1546 0
1538 1541 -1544 1545 0
-1538 -1547 0
1537 1538 1539 1542 1544 1547 0
1538 1539 1540 1542 1543 1547 0
-1538 -1541 -1542 1543 1544 0
-1539 -1540 -1541 -1543 1544 0
-1537 -1539 -1541 1543 -1544 0
1537 1539 1540 -1545 0
1541 1543 1544 -1545 0
1538 -1539 1542 1543 1544 0
1538 1539 -1540 1543 1545 0
-1541 -1547 0
1537 1538 1540 1541 1547 0
1541 -1543 1544 1545 0
1541 1543 -1544 1545 0
-1542 -1547 0
-1545 -1547 0
-1545 -1546 0
1545 1546 1547 0
1548 1550 1552 1553 1554 -1556 0
1548 -1550 -1551 -1553 -1554 1555 0
1549 -1550 1551 1552 -1553 1555 0
1548 1549 -1551 -1552 -1554 1555 1557 0
1549 -1550 1551 1552 -1553 1554 0
1549 1550 1551 -1552 1554 -1555 1557 0
1548 1551 -1554 -1555 1557 0
1548 1551 1554 1555 1557 1558 0
1548 -1549 1551 1554 1555 0
-1548 -1549 1551 1552 -1553 -1555 0
1550 1551 -1552 -1554 1555 1557 0
1548 1549 -1551 -1553 1554 -1557 0
-1550 1551 1554 -1555 -1557 0
-1549 -1551 -1554 1555 -1557 0
1548 -1549 -1551 1552 -1553 -1554 0
1548 1549 1550 1551 1558 0
1548 -1550 -1554 1555 -1557 0
-1548 1549 1551 -1552 -1554 1555 1557 0
1548 1549 -1551 -1552 1554 -1555 1557 0
-1548 -1549 1551 1552 1553 1555 0
-1548 -1550 1552 -1555 -1557 0
-1548 -1551 1552 1554 -1557 0
1548 -1551 -1553 -1555 -1557 0
1548 -1549 -1550 -1552 -1557 0
-1548 1549 -1550 1551 -1553 -1557 0
1548 1549 -1550 -1551 -1553 1554 -1555 0
-1548 -1551 -1554 -1555 1557 0
-1549 1552 -1554 -1555 1557 0
1548 -1549 1551 -1552 1557 0
-1548 -1551 1554 1555 1557 0
1548 -1549 -1551 1552 1553 -1555 0
-1548 -1549 1550 -1551 1557 0
-1549 1550 -1551 -1552 1554 -1555 0
-1548 1549 1550 -1551 -1554 -1555 0
-1552 1553 -1554 -1555 -1557 0
-1548 -1549 1551 -1552 -1557 0
-1548 1549 1550 1555 -1557 0
1550 1551 -1554 -1555 -1557 0
-1548 1550 1551 1552 1553 1555 0
-1552 -1553 -1554 -1555 1557 0
1548 1553 1554 1555 -1557 0
1549 1552 -1555 1556 0
-1549 -1558 0
1548 1549 1550 1553 1555 1558 0
1549 1550 1551 1553 1554 1558 0
-1549 -1552 -1553 1554 1555 0
-1550 -1551 -1552 -1554 1555 0
-1548 -1550 -1552 1554 -1555 0
1548 1550 1551 -1556 0
1552 1554 1555 -1556 0
1549 -1550 1553 1554 1555 0
1549 1550 -1551 1554 1556 0
-1552 -1558 0
1548 1549 1551 1552 1558 0
1552 -1554 1555 1556 0
1552 1554 -1555 1556 0
-1553 -1558 0
-1556 -1558 0
-1556 -1557 0
1556 1557 1558 0
1559 1561 1563 1564 1565 -1567 0
1559 -1561 -1562 -1564 -1565 1566 0
1560 -1561 1562 1563 -1564 1566 0
1559 1560 -1562 -1563 -1565 1566 1568 0
1560 -1561 1562 1563 -1564 1565 0
1560 1561 1562 -1563 1565 -1566 1568 0
1559 1562 -1565 -1566 1568 0
1559 1562 1565 1566 1568 1569 0
1559 -1560 1562 1565 1566 0
-1559 -1560 1562 1563 -1564 -1566 0
1561 1562 -1563 -1565 1566 1568 0
1559 1560 -1562 -1564 1565 -1568 0
-1561 1562 1565 -1566 -1568 0
-1560 -1562 -1565 1566 -1568 0
1559 -1560 -1562 1563 -1564 -1565 0
1559 1560 1561 1562 1569 0
1559 -1561 -1565 1566 -1568 0
-1559 1560 1562 -1563 -1565 1566 1568 0
1559 1560 -1562 -1563 1565 -1566 1568 0
-1559 -1560 1562 1563 1564 1566 0
-1559 -1561 1563 -1566 -1568 0
-1559 -1562 1563 1565 -1568 0
1559 -1562 -1564 -1566 -1568 0
1559 -1560 -1561 -1563 -1568 0
-1559 1560 -1561 1562 -1564 -1568 0
1559 1560 -1561 -1562 -1564 1565 -1566 0
-1559 -1562 -1565 -1566 1568 0
-1560 1563 -1565 -1566 1568 0
1559 -1560 1562 -1563 1568 0
-1559 -1562 1565 1566 1568 0
1559 -1560 -1562 1563 1564 -1566 0
-1559 -1560 1561 -1562 1568 0
-1560 1561 -1562 -1563 1565 -1566 0
-1559 1560 1561 -1562 -1565 -1566 0
-1563 1564 -1565 -1566 -1568 0
-1559 -1560 1562 -1563 -1568 0
-1559 1560 1561 1566 -1568 0
1561 1562 -1565 -1566 -1568 0
-1559 1561 1562 1563 1564 1566 0
-1563 -1564 -1565 -1566 1568 0
1559 1564 1565 1566 -1568 0
1560 1563 -1566 1567 0
-1560 -1569 0
1559 1560 1561 1564 1566 1569 0
1560 1561 1562 1564 1565 1569 0
-1560 -1563 -1564 1565 1566 0
-1561 -1562 -1563 -1565 1566 0
-1559 -1561 -1563 1565 -1566 0
1559 1561 1562 -1567 0
1563 1565 1566 -1567 0
1560 -1561 1564 1565 1566 0
1560 1561 -1562 1565 1567 0
-1563 -1569 0
1559 1560 1562 1563 1569 0
1563 -1565 1566 1567 0
1563 1565 -1566 1567 0
-1564 -1569 0
-1567 -1569 0
-1567 -1568 0
1567 1568 1569 0
1570 1572 1574 1575 1576 -1578 0
1570 -1572 -1573 -1575 -1576 1577 0
1571 -1572 1573 1574 -1575 1577 0
1570 1571 -1573 -1574 -1576 1577 1579 0
1571 -1572 1573 1574 -1575 1576 0
1571 1572 1573 -1574 1576 -1577 1579 0
1570 1573 -1576 -1577 1579 0
1570 1573 1576 1577 1579 1580 0
1570 -1571 1573 1576 1577 0
-1570 -1571 1573 1574 -1575 -1577 0
1572 1573 -1574 -1576 1577 1579 0
1570 1571 -1573 -1575 1576 -1579 0
-1572 1573 1576 -1577 -1579 0
-1571 -1573 -1576 1577 -1579 0
1570 -1571 -1573 1574 -1575 -1576 0
1570 1571 1572 1573 1580 0
1570 -1572 -1576 1577 -1579 0
-1570 1571 1573 -1574 -1576 1577 1579 0
1570 1571 -1573 -1574 1576 -1577 1579 0
-1570 -1571 1573 1574 1575 1577 0
-1570 -1572 1574 -1577 -1579 0
-1570 -1573 1574 1576 -1579 0
1570 -1573 -1575 -1577 -1579 0
1570 -1571 -1572 -1574 -1579 0
-1570 1571 -1572 1573 -1575 -1579 0
1570 1571 -1572 -1573 -1575 1576 -1577 0
-1570 -1573 -1576 -1577 1579 0
-1571 1574 -1576 -1577 1579 0
1570 -1571 1573 -1574 1579 0
-1570 -1573 1576 1577 1579 0
1570 -1571 -1573 1574 1575 -1577 0
-1570 -1571 1572 -1573 1579 0
-1571 1572 -1573 -1574 1576 -1577 0
-1570 1571 1572 -1573 -1576 -1577 0
-1574 1575 -1576 -1577 -1579 0
-1570 -1571 1573 -1574 -1579 0
-1570 1571 1572 1577 -1579 0
1572 1573 -1576 -1577 -1579 0
-1570 1572 1573 1574 1575 1577 0
-1574 -1575 -1576 -1577 1579 0
1570 1575 1576 1577 -1579 0
1571 1574 -1577 1578 0
-1571 -1580 0
1570 1571 1572 1575 1577 1580 0
1571 1572 1573 1575 1576 1580 0
-1571 -1574 -1575 1576 1577 0
-1572 -1573 -1574 -1576 1577 0
-1570 -1572 -1574 1576 -1577 0
1570 1572 1573 -1578 0
1574 1576 1577 -1578 0
1571 -1572 1575 1576 1577 0
1571 1572 -1573 1576 1578 0
-1574 -1580 0
1570 1571 1573 1574 1580 0
1574 -1576 1577 1578 0
1574 1576 -1577 1578 0
-1575 -1580 0
-1578 -1580 0
-1578 -1579 0
1578 1579 1580 0
1581 1583 1585 1586 1587 -1589 0
1581 -1583 -1584 -1586 -1587 1588 0
1582 -1583 1584 1585 -1586 1588 0
1581 1582 -1584 -1585 -1587 1588 1590 0
1582 -1583 1584 1585 -1586 1587 0
1582 1583 1584 -1585 1587 -1588 1590 0
1581 1584 -1587 -1588 1590 0
1581 1584 1587 1588 1590 1591 0
1581 -1582 1584 1587 1588 0
-1581 -1582 1584 1585 -1586 -1588 0
1583 1584 -1585 -1587 1588 1590 0
1581 1582 -1584 -1586 1587 -1590 0
-1583 1584 1587 -1588 -1590 0
-1582 -1584 -1587 1588 -1590 0
1581 -1582 -1584 1585 -1586 -1587 0
1581 1582 1583 1584 1591 0
1581 -1583 -1587 1588 -1590 0
-1581 1582 1584 -1585 -1587 1588 1590 0
1581 1582 -1584 -1585 1587 -1588 1590 0
-1581 -1582 1584 1585 1586 1588 0
-1581 -1583 1585 -1588 -1590 0
-1581 -1584 1585 1587 -1590 0
1581 -1584 -1586 -1588 -1590 0
1581 -1582 -1583 -1585 -1590 0
-1581 1582 -1583 1584 -1586 -1590 0
1581 1582 -1583 -1584 -1586 1587 -1588 0
-1581 -1584 -1587 -1588 1590 0
-1582 1585 -1587 -1588 1590 0
1581 -1582 1584 -1585 1590 0
-1581 -1584 1587 1588 1590 0
1581 -1582 -1584 1585 1586 -1588 0
-1581 -1582 1583 -1584 1590 0
-1582 1583 -1584 -1585 1587 -1588 0
-1581 1582 1583 -1584 -1587 -1588 0
-1585 1586 -1587 -1588 -1590 0
-1581 -1582 1584 -1585 -1590 0
-1581 1582 1583 1588 -1590 0
1583 1584 -1587 -1588 -1590 0
-1581 1583 1584 1585 1586 1588 0
-1585 -1586 -1587 -1588 1590 0
1581 1586 1587 1588 -1590 0
1582 1585 -1588 1589 0
-1582 -1591 0
1581 1582 1583 1586 1588 1591 0
1582 1583 1584 1586 1587 1591 0
-1582 -1585 -1586 1587 1588 0
-1583 -1584 -1585 -1587 1588 0
-1581 -1583 -1585 1587 -1588 0
1581 1583 1584 -1589 0
1585 1587 1588 -1589 0
1582 -1583 1586 1587 1588 0
1582 1583 -1584 1587 1589 0
-1585 -1591 0
1581 1582 1584 1585 1591 0
1585 -1587 1588 1589 0
1585 1587 -1588 1589 0
-1586 -1591 0
-1589 -1591 0
-1589 -1590 0
1589 1590 1591 0
1592 1594 1596 1597 1598 -1600 0
1592 -1594 -1595 -1597 -1598 1599 0
1593 -1594 1595 1596 -1597 1599 0
1592 1593 -1595 -1596 -1598 1599 1601 0
1593 -1594 1595 1596 -1597 1598 0
1593 1594 1595 -1596 1598 -1599 1601 0
1592 1595 -1598 -1599 1601 0
1592 1595 1598 1599 1601 1602 0
1592 -1593 1595 1598 1599 0
-1592 -1593 1595 1596 -1597 -1599 0
1594 1595 -1596 -1598 1599 1601 0
1592 1593 -1595 -1597 1598 -1601 0
-1594 1595 1598 -1599 -1601 0
-1593 -1595 -1598 1599 -1601 0
1592 -1593 -1595 1596 -1597 -1598 0
1592 1593 1594 1595 1602 0
1592 -1594 -1598 1599 -1601 0
-1592 1593 1595 -1596 -1598 1599 1601 0
1592 1593 -1595 -1596 1598 -1599 1601 0
-1592 -1593 1595 1596 1597 1599 0
-1592 -1594 1596 -1599 -1601 0
-1592 -1595 1596 1598 -1601 0
1592 -1595 -1597 -1599 -1601 0
1592 -1593 -1594 -1596 -1601 0
-1592 1593 -1594 1595 -1597 -1601 0
1592 1593 -1594 -1595 -1597 1598 -1599 0
-1592 -1595 -1598 -1599 1601 0
-1593 1596 -1598 -1599 1601 0
1592 -1593 1595 -1596 1601 0
-1592 -1595 1598 1599 1601 0
1592 -1593 -1595 1596 1597 -1599 0
-1592 -1593 1594 -1595 1601 0
-1593 1594 -1595 -1596 1598 -1599 0
-1592 1593 1594 -1595 -1598 -1599 0
-1596 1597 -1598 -1599 -1601 0
-1592 -1593 1595 -1596 -1601 0
-1592 1593 1594 1599 -1601 0
1594 1595 -1598 -1599 -1601 0
-1592 1594 1595 1596 1597 1599 0
-1596 -1597 -1598 -1599 1601 0
1592 1597 1598 1599 -1601 0
1593 1596 -1599 1600 0
-1593 -1602 0
1592 1593 1594 1597 1599 1602 0
1593 1594 1595 1597 1598 1602 0
-1593 -1596 -1597 1598 1599 0
-1594 -1595 -1596 -1598 1599 0
-1592 -1594 -1596 1598 -1599 0
1592 1594 1595 -1600 0
1596 1598 1599 -1600 0
1593 -1594 1597 1598 1599 0
1593 1594 -1595 1598 1600 0
-1596 -1602 0
1592 1593 1595 1596 1602 0
1596 -1598 1599 1600 0
1596 1598 -1599 1600 0
-1597 -1602 0
-1600 -1602 0
-1600 -1601 0
1600 1601 1602 0
1603 1605 1607 1608 1609 -1611 0
1603 -1605 -1606 -1608 -1609 1610 0
1604 -1605 1606 1607 -1608 1610 0
1603 1604 -1606 -1607 -1609 1610 1612 0
1604 -1605 1606 1607 -1608 1609 0
1604 1605 1606 -1607 1609 -1610 1612 0
1603 1606 -1609 -1610 1612 0
1603 1606 1609 1610 1612 1613 0
1603 -1604 1606 1609 1610 0
-1603 -1604 1606 1607 -1608 -1610 0
1605 1606 -1607 -1609 1610 1612 0
1603 1604 -1606 -1608 1609 -1612 0
-1605 1606 1609 -1610 -1612 0
-1604 -1606 -1609 1610 -1612 0
1603 -1604 -1606 1607 -1608 -1609 0
1603 1604 1605 1606 1613 0
1603 -1605 -1609 1610 -1612 0
-1603 1604 1606 -1607 -1609 1610 1612 0
1603 1604 -1606 -1607 1609 -1610 1612 0
-1603 -1604 1606 1607 1608 1610 0
-1603 -1605 1607 -1610 -1612 0
-1603 -1606 1607 1609 -1612 0
1603 -1606 -1608 -1610 -1612 0
1603 -1604 -1605 -1607 -1612 0
-1603 1604 -1605 1606 -1608 -1612 0
1603 1604 -1605 -1606 -1608 1609 -1610 0
-1603 -1606 -1609 -1610 1612 0
-1604 1607 -1609 -1610 1612 0
1603 -1604 1606 -1607 1612 0
-1603 -1606 1609 1610 1612 0
1603 -1604 -1606 1607 1608 -1610 0
-1603 -1604 1605 -1606 1612 0
-1604 1605 -1606 -1607 1609 -1610 0
-1603 1604 1605 -1606 -1609 -1610 0
-1607 1608 -1609 -1610 -1612 0
-1603 -1604 1606 -1607 -1612 0
-1603 1604 1605 1610 -1612 0
1605 1606 -1609 -1610 -1612 0
-1603 1605 1606 1607 1608 1610 0
-1607 -1608 -1609 -1610 1612 0
1603 1608 1609 1610 -1612 0
1604 1607 -1610 1611 0
-1604 -1613 0
1603 1604 1605 1608 1610 1613 0
1604 1605 1606 1608 1609 1613 0
-1604 -1607 -1608 1609 1610 0
-1605 -1606 -1607 -1609 1610 0
-1603 -1605 -1607 1609 -1610 0
1603 1605 1606 -1611 0
1607 1609 1610 -1611 0
1604 -1605 1608 1609 1610 0
1604 1605 -1606 1609 1611 0
-1607 -1613 0
1603 1604 1606 1607 1613 0
1607 -1609 1610 1611 0
1607 1609 -1610 1611 0
-1608 -1613 0
-1611 -1613 0
-1611 -1612 0
1611 1612 1613 0
1614 1616 1618 1619 1620 -1622 0
1614 -1616 -1617 -1619 -1620 1621 0
1615 -1616 1617 1618 -1619 1621 0
1614 1615 -1617 -1618 -1620 1621 1623 0
1615 -1616 1617 1618 -1619 1620 0
1615 1616 1617 -1618 1620 -1621 1623 0
1614 1617 -1620 -1621 1623 0
1614 1617 1620 1621 1623 1624 0
1614 -1615 1617 1620 1621 0
-1614 -1615 1617 1618 -1619 -1621 0
1616 1617 -1618 -1620 1621 1623 0
1614 1615 -1617 -1619 1620 -1623 0
-1616 1617 1620 -1621 -1623 0
-1615 -1617 -1620 1621 -1623 0
1614 -1615 -1617 1618 -1619 -1620 0
1614 1615 1616 1617 1624 0
1614 -1616 -1620 1621 -1623 0
-1614 1615 1617 -1618 -1620 1621 1623 0
1614 1615 -1617 -1618 1620 -1621 1623 0
-1614 -1615 1617 1618 1619 1621 0
-1614 -1616 1618 -1621 -1623 0
-1614 -1617 1618 1620 -1623 0
1614 -1617 -1619 -1621 -1623 0
1614 -1615 -1616 -1618 -1623 0
-1614 1615 -1616 1617 -1619 -1623 0
1614 1615 -1616 -1617 -1619 1620 -1621 0
-1614 -1617 -1620 -1621 1623 0
-1615 1618 -1620 -1621 1623 0
1614 -1615 1617 -1618 1623 0
-1614 -1617 1620 1621 1623 0
1614 -1615 -1617 1618 1619 -1621 0
-1614 -1615 1616 -1617 1623 0
-1615 1616 -1617 -1618 1620 -1621 0
-1614 1615 1616 -1617 -1620 -1621 0
-1618 1619 -1620 -1621 -1623 0
-1614 -1615 1617 -1618 -1623 0
-1614 1615 1616 1621 -1623 0
1616 1617 -1620 -1621 -1623 0
-1614 1616 1617 1618 1619 1621 0
-1618 -1619 -1620 -1621 1623 0
1614 1619 1620 1621 -1623 0
1615 1618 -1621 1622 0
-1615 -1624 0
1614 1615 1616 1619 1621 1624 0
1615 1616 1617 1619 1620 1624 0
-1615 -1618 -1619 1620 1621 0
-1616 -1617 -1618 -1620 1621 0
-1614 -1616 -1618 1620 -1621 0
1614 1616 1617 -1622 0
1618 1620 1621 -1622 0
1615 -1616 1619 1620 1621 0
1615 1616 -1617 1620 1622 0
-1618 -1624 0
1614 1615 1617 1618 1624 0
1618 -1620 1621 1622 0
1618 1620 -1621 1622 0
-1619 -1624 0
-1622 -1624 0
-1622 -1623 0
1622 1623 1624 0
1625 1627 1629 1630 1631 -1633 0
1625 -1627 -1628 -1630 -1631 1632 0
1626 -1627 1628 1629 -1630 1632 0
1625 1626 -1628 -1629 -1631 1632 1634 0
1626 -1627 1628 1629 -1630 1631 0
1626 1627 1628 -1629 1631 -1632 1634 0
1625 1628 -1631 -1632 1634 0
1625 1628 1631 1632 1634 1635 0
1625 -1626 1628 1631 1632 0
-1625 -1626 1628 1629 -1630 -1632 0
1627 1628 -1629 -1631 1632 1634 0
1625 1626 -1628 -1630 1631 -1634 0
-1627 1628 1631 -1632 -1634 0
-1626 -1628 -1631 1632 -1634 0
1625 -1626 -1628 1629 -1630 -1631 0
1625 1626 1627 1628 1635 0
1625 -1627 -1631 1632 -1634 0
-1625 1626 1628 -1629 -1631 1632 1634 0
1625 1626 -1628 -1629 1631 -1632 1634 0
-1625 -1626 1628 1629 1630 1632 0
-1625 -1627 1629 -1632 -1634 0
-1625 -1628 1629 1631 -1634 0
1625 -1628 -1630 -1632 -1634 0
1625 -1626 -1627 -1629 -1634 0
-1625 1626 -1627 1628 -1630 -1634 0
1625 1626 -1627 -1628 -1630 1631 -1632 0
-1625 -1628 -1631 -1632 1634 0
-1626 1629 -1631 -1632 1634 0
1625 -1626 1628 -1629 1634 0
-1625 -1628 1631 1632 1634 0
1625 -1626 -1628 1629 1630 -1632 0
-1625 -1626 1627 -1628 1634 0
-1626 1627 -1628 -1629 1631 -1632 0
-1625 1626 1627 -1628 -1631 -1632 0
-1629 1630 -1631 -1632 -1634 0
-1625 -1626 1628 -1629 -1634 0
-1625 1626 1627 1632 -1634 0
1627 1628 -1631 -1632 -1634 0
-1625 1627 1628 1629 1630 1632 0
-1629 -1630 -1631 -1632 1634 0
1625 1630 1631 1632 -1634 0
1626 1629 -1632 1633 0
-1626 -1635 0
1625 1626 1627 1630 1632 1635 0
1626 1627 1628 1630 1631 1635 0
-1626 -1629 -1630 1631 1632 0
-1627 -1628 -1629 -1631 1632 0
-1625 -1627 -1629 1631 -1632 0
1625 1627 1628 -1633 0
1629 1631 1632 -1633 0
1626 -1627 1630 1631 1632 0
1626 1627 -1628 1631 1633 0
-1629 -1635 0
1625 1626 1628 1629 1635 0
1629 -1631 1632 1633 0
1629 1631 -1632 1633 0
-1630 -1635 0
-1633 -1635 0
-1633 -1634 0
1633 1634 1635 0
1636 1638 1640 1641 1642 -1644 0
1636 -1638 -1639 -1641 -1642 1643 0
1637 -1638 1639 1640 -1641 1643 0
1636 1637 -1639 -1640 -1642 1643 1645 0
1637 -1638 1639 1640 -1641 1642 0
1637 1638 1639 -1640 1642 -1643 1645 0
1636 1639 -1642 -1643 1645 0
1636 1639 1642 1643 1645 1646 0
1636 -1637 1639 1642 1643 0
-1636 -1637 1639 1640 -1641 -1643 0
1638 1639 -1640 -1642 1643 1645 0
1636 1637 -1639 -1641 1642 -1645 0
-1638 1639 1642 -1643 -1645 0
-1637 -1639 -1642 1643 -1645 0
1636 -1637 -1639 1640 -1641 -1642 0
1636 1637 1638 1639 1646 0
1636 -1638 -1642 1643 -1645 0
-1636 1637 1639 -1640 -1642 1643 1645 0
1636 1637 -1639 -1640 1642 -1643 1645 0
-1636 -1637 1639 1640 1641 1643 0
-1636 -1638 1640 -1643 -1645 0
-1636 -1639 1640 1642 -1645 0
1636 -1639 -1641 -1643 -1645 0
1636 -1637 -1638 -1640 -1645 0
-1636 1637 -1638 1639 -1641 -1645 0
1636 1637 -1638 -1639 -1641 1642 -1643 0
-1636 -1639 -1642 -1643 1645 0
-1637 1640 -1642 -1643 1645 0
1636 -1637 1639 -1640 1645 0
-1636 -1639 1642 1643 1645 0
1636 -1637 -1639 1640 1641 -1643 0
-1636 -1637 1638 -1639 1645 0
-1637 1638 -1639 -1640 1642 -1643 0
-1636 1637 1638 -1639 -1642 -1643 0
-1640 1641 -1642 -1643 -1645 0
-1636 -1637 1639 -1640 -1645 0
-1636 1637 1638 1643 -1645 0
1638 1639 -1642 -1643 -1645 0
-1636 1638 1639 1640 1641 1643 0
-1640 -1641 -1642 -1643 1645 0
1636 1641 1642 1643 -1645 0
1637 1640 -1643 1644 0
-1637 -1646 0
1636 1637 1638 1641 1643 1646 0
1637 1638 1639 1641 1642 1646 0
-1637 -1640 -1641 1642 1643 0
-1638 -1639 -1640 -1642 1643 0
-1636 -1638 -1640 1642 -1643 0
1636 1638 1639 -1644 0
1640 1642 1643 -1644 0
1637 -1638 1641 1642 1643 0
1637 1638 -1639 1642 1644 0
-1640 -1646 0
1636 1637 1639 1640 1646 0
1640 -1642 1643 1644 0
1640 1642 -1643 1644 0
-1641 -1646 0
-1644 -1646 0
-1644 -1645 0
1644 1645 1646 0
1647 1649 1651 1652 1653 -1655 0
1647 -1649 -1650 -1652 -1653 1654 0
1648 -1649 1650 1651 -1652 1654 0
1647 1648 -1650 -1651 -1653 1654 1656 0
1648 -1649 1650 1651 -1652 1653 0
1648 1649 1650 -1651 1653 -1654 1656 0
1647 1650 -1653 -1654 1656 0
1647 1650 1653 1654 1656 1657 0
1647 -1648 1650 1653 1654 0
-1647 -1648 1650 1651 -1652 -1654 0
1649 1650 -1651 -1653 1654 1656 0
1647 1648 -1650 -1652 1653 -1656 0
-1649 1650 1653 -1654 -1656 0
-1648 -1650 -1653 1654 -1656 0
1647 -1648 -1650 1651 -1652 -1653 0
1647 1648 1649 1650 1657 0
1647 -1649 -1653 1654 -1656 0
-1647 1648 1650 -1651 -1653 1654 1656 0
1647 1648 -1650 -1651 1653 -1654 1656 0
-1647 -1648 1650 1651 1652 1654 0
-1647 -1649 1651 -1654 -1656 0
-1647 -1650 1651 1653 -1656 0
1647 -1650 -1652 -1654 -1656 0
1647 -1648 -1649 -1651 -1656 0
-1647 1648 -1649 1650 -1652 -1656 0
1647 1648 -1649 -1650 -1652 1653 -1654 0
-1647 -1650 -1653 -1654 1656 0
-1648 1651 -1653 -1654 1656 0
1647 -1648 1650 -1651 1656 0
-1647 -1650 1653 1654 1656 0
1647 -1648 -1650 1651 1652 -1654 0
-1647 -1648 1649 -1650 1656 0
-1648 1649 -1650 -1651 1653 -1654 0
-1647 1648 1649 -1650 -1653 -1654 0
-1651 1652 -1653 -1654 -1656 0
-1647 -1648 1650 -1651 -1656 0
-1647 1648 1649 1654 -1656 0
1649 1650 -1653 -1654 -1656 0
-1647 1649 1650 1651 1652 1654 0
-1651 -1652 -1653 -1654 1656 0
1647 1652 1653 1654 -1656 0
1648 1651 -1654 1655 0
-1648 -1657 0
1647 1648 1649 1652 1654 1657 0
1648 1649 1650 1652 1653 1657 0
-1648 -1651 -1652 1653 1654 0
-1649 -1650 -1651 -1653 1654 0
-1647 -1649 -1651 1653 -1654 0
1647 1649 1650 -1655 0
1651 1653 1654 -1655 0
1648 -1649 1652 1653 1654 0
1648 1649 -1650 1653 1655 0
-1651 -1657 0
1647 1648 1650 1651 1657 0
1651 -1653 1654 1655 0
1651 1653 -1654 1655 0
-1652 -1657 0
-1655 -1657 0
-1655 -1656 0
1655 1656 1657 0
1658 1660 1662 1663 1664 -1666 0
1658 -1660 -1661 -1663 -1664 1665 0
1659 -1660 1661 1662 -1663 1665 0
1658 1659 -1661 -1662 -1664 1665 1667 0
1659 -1660 1661 1662 -1663 1664 0
1659 1660 1661 -1662 1664 -1665 1667 0
1658 1661 -1664 -1665 1667 0
1658 1661 1664 1665 1667 1668 0
1658 -1659 1661 1664 1665 0
-1658 -1659 1661 1662 -1663 -1665 0
1660 1661 -1662 -1664 1665 1667 0
1658 1659 -1661 -1663 1664 -1667 0
-1660 1661 1664 -1665 -1667 0
-1659 -1661 -1664 1665 -1667 0
1658 -1659 -1661 1662 -1663 -1664 0
1658 1659 1660 1661 1668 0
1658 -1660 -1664 1665 -1667 0
-1658 1659 1661 -1662 -1664 1665 1667 0
1658 1659 -1661 -1662 1664 -1665 1667 0
-1658 -1659 1661 1662 1663 1665 0
-1658 -1660 1662 -1665 -1667 0
-1658 -1661 1662 1664 -1667 0
1658 -1661 -1663 -1665 -1667 0
1658 -1659 -1660 -1662 -1667 0
-1658 1659 -1660 1661 -1663 -1667 0
1658 1659 -1660 -1661 -1663 1664 -1665 0
-1658 -1661 -1664 -1665 1667 0
-1659 1662 -1664 -1665 1667 0
1658 -1659 1661 -1662 1667 0
-1658 -1661 1664 1665 1667 0
1658 -1659 -1661 1662 1663 -1665 0
-1658 -1659 1660 -1661 1667 0
-1659 1660 -1661 -1662 1664 -1665 0
-1658 1659 1660 -1661 -1664 -1665 0
-1662 1663 -1664 -1665 -1667 0
-1658 -1659 1661 -1662 -1667 0
-1658 1659 1660 1665 -1667 0
1660 1661 -1664 -1665 -1667 0
-1658 1660 1661 1662 1663 1665 0
-1662 -1663 -1664 -1665 1667 0
1658 1663 1664 1665 -1667 0
1659 1662 -1665 1666 0
-1659 -1668 0
1658 1659 1660 1663 1665 1668 0
1659 1660 1661 1663 1664 1668 0
-1659 -1662 -1663 1664 1665 0
-1660 -1661 -1662 -1664 1665 0
-1658 -1660 -1662 1664 -1665 0
1658 1660 1661 -1666 0
1662 1664 1665 -1666 0
1659 -1660 1663 1664 1665 0
1659 1660 -1661 1664 1666 0
-1662 -1668 0
1658 1659 1661 1662 1668 0
1662 -1664 1665 1666 0
1662 1664 -1665 1666 0
-1663 -1668 0
-1666 -1668 0
-1666 -1667 0
1666 1667 1668 0
1669 1671 1673 1674 1675 -1677 0
1669 -1671 -1672 -1674 -1675 1676 0
1670 -1671 1672 1673 -1674 1676 0
1669 1670 -1672 -1673 -1675 1676 1678 0
1670 -1671 1672 1673 -1674 1675 0
1670 1671 1672 -1673 1675 -1676 1678 0
1669 1672 -1675 -1676 1678 0
1669 1672 1675 1676 1678 1679 0
1669 -1670 1672 1675 1676 0
-1669 -1670 1672 1673 -1674 -1676 0
1671 1672 -1673 -1675 1676 1678 0
1669 1670 -1672 -1674 1675 -1678 0
-1671 1672 1675 -1676 -1678 0
-1670 -1672 -1675 1676 -1678 0
1669 -1670 -1672 1673 -1674 -1675 0
1669 1670 1671 1672 1679 0
1669 -1671 -1675 1676 -1678 0
-1669 1670 1672 -1673 -1675 1676 1678 0
1669 1670 -1672 -1673 1675 -1676 1678 0
-1669 -1670 1672 1673 1674 1676 0
-1669 -1671 1673 -1676 -1678 0
-1669 -1672 1673 1675 -1678 0
1669 -1672 -1674 -1676 -1678 0
1669 -1670 -1671 -1673 -1678 0
-1669 1670 -1671 1672 -1674 -1678 0
1669 1670 -1671 -1672 -1674 1675 -1676 0
-1669 -1672 -1675 -1676 1678 0
-1670 1673 -1675 -1676 1678 0
1669 -1670 1672 -1673 1678 0
-1669 -1672 1675 1676 1678 0
1669 -1670 -1672 1673 1674 -1676 0
-1669 -1670 1671 -1672 1678 0
-1670 1671 -1672 -1673 1675 -1676 0
-1669 1670 1671 -1672 -1675 -1676 0
-1673 1674 -1675 -1676 -1678 0
-1669 -1670 1672 -1673 -1678 0
-1669 1670 1671 1676 -1678 0
1671 1672 -1675 -1676 -1678 0
-1669 1671 1672 1673 1674 1676 0
-1673 -1674 -1675 -1676 1678 0
1669 1674 1675 1676 -1678 0
1670 1673 -1676 1677 0
-1670 -1679 0
1669 1670 1671 1674 1676 1679 0
1670 1671 1672 1674 1675 1679 0
-1670 -1673 -1674 1675 1676 0
-1671 -1672 -1673 -1675 1676 0
-1669 -1671 -1673 1675 -1676 0
1669 1671 1672 -1677 0
1673 1675 1676 -1677 0
1670 -1671 1674 1675 1676 0
1670 1671 -1672 1675 1677 0
-1673 -1679 0
1669 1670 1672 1673 1679 0
1673 -1675 1676 1677 0
1673 1675 -1676 1677 0
-1674 -1679 0
-1677 -1679 0
-1677 -1678 0
1677 1678 1679 0
1680 1682 1684 1685 1686 -1688 0
1680 -1682 -1683 -1685 -1686 1687 0
1681 -1682 1683 1684 -1685 1687 0
1680 1681 -1683 -1684 -1686 1687 1689 0
1681 -1682 1683 1684 -1685 1686 0
1681 1682 1683 -1684 1686 -1687 1689 0
1680 1683 -1686 -1687 1689 0
1680 1683 1686 1687 1689 1690 0
1680 -1681 1683 1686 1687 0
-1680 -1681 1683 1684 -1685 -1687 0
1682 1683 -1684 -1686 1687 1689 0
1680 1681 -1683 -1685 1686 -1689 0
-1682 1683 1686 -1687 -1689 0
-1681 -1683 -1686 1687 -1689 0
1680 -1681 -1683 1684 -1685 -1686 0
1680 1681 1682 1683 1690 0
1680 -1682 -1686 1687 -1689 0
-1680 1681 1683 -1684 -1686 1687 1689 0
1680 1681 -1683 -1684 1686 -1687 1689 0
-1680 -1681 1683 1684 1685 1687 0
-1680 -1682 1684 -1687 -1689 0
-1680 -1683 1684 1686 -1689 0
1680 -1683 -1685 -1687 -1689 0
1680 -1681 -1682 -1684 -1689 0
-1680 1681 -1682 1683 -1685 -1689 0
1680 1681 -1682 -1683 -1685 1686 -1687 0
-1680 -1683 -1686 -1687 1689 0
-1681 1684 -1686 -1687 1689 0
1680 -1681 1683 -1684 1689 0
-1680 -1683 1686 1687 1689 0
1680 -1681 -1683 1684 1685 -1687 0
-1680 -1681 1682 -1683 1689 0
-1681 1682 -1683 -1684 1686 -1687 0
-1680 1681 1682 -1683 -1686 -1687 0
-1684 1685 -1686 -1687 -1689 0
-1680 -1681 1683 -1684 -1689 0
-1680 1681 1682 1687 -1689 0
1682 1683 -1686 -1687 -1689 0
-1680 1682 1683 1684 1685 1687 0
-1684 -1685 -1686 -1687 1689 0
1680 1685 1686 1687 -1689 0
1681 1684 -1687 1688 0
-1681 -1690 0
1680 1681 1682 1685 1687 1690 0
1681 1682 1683 1685 1686 1690 0
-1681 -1684 -1685 1686 1687 0
-1682 -1683 -1684 -1686 1687 0
-1680 -1682 -1684 1686 -1687 0
1680 1682 1683 -1688 0
1684 1686 1687 -1688 0
1681 -1682 1685 1686 1687 0
1681 1682 -1683 1686 1688 0
-1684 -1690 0
1680 1681 1683 1684 1690 0
1684 -1686 1687 1688 0
1684 1686 -1687 1688 0
-1685 -1690 0
-1688 -1690 0
-1688 -1689 0
1688 1689 1690 0
1691 1693 1695 1696 1697 -1699 0
1691 -1693 -1694 -1696 -1697 1698 0
1692 -1693 1694 1695 -1696 1698 0
1691 1692 -1694 -1695 -1697 1698 1700 0
1692 -1693 1694 1695 -1696 1697 0
1692 1693 1694 -1695 1697 -1698 1700 0
1691 1694 -1697 -1698 1700 0
1691 1694 1697 1698 1700 1701 0
1691 -1692 1694 1697 1698 0
-1691 -1692 1694 1695 -1696 -1698 0
1693 1694 -1695 -1697 1698 1700 0
1691 1692 -1694 -1696 1697 -1700 0
-1693 1694 1697 -1698 -1700 0
-1692 -1694 -1697 1698 -1700 0
1691 -1692 -1694 1695 -1696 -1697 0
1691 1692 1693 1694 1701 0
1691 -1693 -1697 1698 -1700 0
-1691 1692 1694 -1695 -1697 1698 1700 0
1691 1692 -1694 -1695 1697 -1698 1700 0
-1691 -1692 1694 1695 1696 1698 0
-1691 -1693 1695 -1698 -1700 0
-1691 -1694 1695 1697 -1700 0
1691 -1694 -1696 -1698 -1700 0
1691 -1692 -1693 -1695 -1700 0
-1691 1692 -1693 1694 -1696 -1700 0
1691 1692 -1693 -1694 -1696 1697 -1698 0
-1691 -1694 -1697 -1698 1700 0
-1692 1695 -1697 -1698 1700 0
1691 -1692 1694 -1695 1700 0
-1691 -1694 1697 1698 1700 0
1691 -1692 -1694 1695 1696 -1698 0
-1691 -1692 1693 -1694 1700 0
-1692 1693 -1694 -1695 1697 -1698 0
-1691 1692 1693 -1694 -1697 -1698 0
-1695 1696 -1697 -1698 -1700 0
-1691 -1692 1694 -1695 -1700 0
-1691 1692 1693 1698 -1700 0
1693 1694 -1697 -1698 -1700 0
-1691 1693 1694 1695 1696 1698 0
-1695 -1696 -1697 -1698 1700 0
1691 1696 1697 1698 -1700 0
1692 1695 -1698 1699 0
-1692 -1701 0
1691 1692 1693 1696 1698 1701 0
1692 1693 1694 1696 1697 1701 0
-1692 -1695 -1696 1697 1698 0
-1693 -1694 -1695 -1697 1698 0
-1691 -1693 -1695 1697 -1698 0
1691 1693 1694 -1699 0
1695 1697 1698 -1699 0
1692 -1693 1696 1697 1698 0
1692 1693 -1694 1697 1699 0
-1695 -1701 0
1691 1692 1694 1695 1701 0
1695 -1697 1698 1699 0
1695 1697 -1698 1699 0
-1696 -1701 0
-1699 -1701 0
-1699 -1700 0
1699 1700 1701 0
1702 1704 1706 1707 1708 -1710 0
1702 -1704 -1705 -1707 -1708 1709 0
1703 -1704 1705 1706 -1707 1709 0
1702 1703 -1705 -1706 -1708 1709 1711 0
1703 -1704 1705 1706 -1707 1708 0
1703 1704 1705 -1706 1708 -1709 1711 0
1702 1705 -1708 -1709 1711 0
1702 1705 1708 1709 1711 1712 0
1702 -1703 1705 1708 1709 0
-1702 -1703 1705 1706 -1707 -1709 0
1704 1705 -1706 -1708 1709 1711 0
1702 1703 -1705 -1707 1708 -1711 0
-1704 1705 1708 -1709 -1711 0
-1703 -1705 -1708 1709 -1711 0
1702 -1703 -1705 1706 -1707 -1708 0
1702 1703 1704 1705 1712 0
1702 -1704 -1708 1709 -1711 0
-1702 1703 1705 -1706 -1708 1709 1711 0
1702 1703 -1705 -1706 1708 -1709 1711 0
-1702 -1703 1705 1706 1707 1709 0
-1702 -1704 1706 -1709 -1711 0
-1702 -1705 1706 1708 -1711 0
1702 -1705 -1707 -1709 -1711 0
1702 -1703 -1704 -1706 -1711 0
-1702 1703 -1704 1705 -1707 -1711 0
1702 1703 -1704 -1705 -1707 1708 -1709 0
-1702 -1705 -1708 -1709 1711 0
-1703 1706 -1708 -1709 1711 0
1702 -1703 1705 -1706 1711 0
-1702 -1705 1708 1709 1711 0
1702 -1703 -1705 1706 1707 -1709 0
-1702 -1703 1704 -1705 1711 0
-1703 1704 -1705 -1706 1708 -1709 0
-1702 1703 1704 -1705 -1708 -1709 0
-1706 1707 -1708 -1709 -1711 0
-1702 -1703 1705 -1706 -1711 0
-1702 1703 1704 1709 -1711 0
1704 1705 -1708 -1709 -1711 0
-1702 1704 1705 1706 1707 1709 0
-1706 -1707 -1708 -1709 1711 0
1702 1707 1708 1709 -1711 0
1703 1706 -1709 1710 0
-1703 -1712 0
1702 1703 1704 1707 1709 1712 0
1703 1704 1705 1707 1708 1712 0
-1703 -1706 -1707 1708 1709 0
-1704 -1705 -1706 -1708 1709 0
-1702 -1704 -1706 1708 -1709 0
1702 1704 1705 -1710 0
1706 1708 1709 -1710 0
1703 -1704 1707 1708 1709 0
1703 1704 -1705 1708 1710 0
-1706 -1712 0
1702 1703 1705 1706 1712 0
1706 -1708 1709 1710 0
1706 1708 -1709 1710 0
-1707 -1712 0
-1710 -1712 0
-1710 -1711 0
1710 1711 1712 0
1713 1715 1717 1718 1719 -1721 0
1713 -1715 -1716 -1718 -1719 1720 0
1714 -1715 1716 1717 -1718 1720 0
1713 1714 -1716 -1717 -1719 1720 1722 0
1714 -1715 1716 1717 -1718 1719 0
1714 1715 1716 -1717 1719 -1720 1722 0
1713 1716 -1719 -1720 1722 0
1713 1716 1719 1720 1722 1723 0
1713 -1714 1716 1719 1720 0
-1713 -1714 1716 1717 -1718 -1720 0
1715 1716 -1717 -1719 1720 1722 0
1713 1714 -1716 -1718 1719 -1722 0
-1715 1716 1719 -1720 -1722 0
-1714 -1716 -1719 1720 -1722 0
1713 -1714 -1716 1717 -1718 -1719 0
1713 1714 1715 1716 1723 0
1713 -1715 -1719 1720 -1722 0
-1713 1714 1716 -1717 -1719 1720 1722 0
1713 1714 -1716 -1717 1719 -1720 1722 0
-1713 -1714 1716 1717 1718 1720 0
-1713 -1715 1717 -1720 -1722 0
-1713 -1716 1717 1719 -1722 0
1713 -1716 -1718 -1720 -1722 0
1713 -1714 -1715 -1717 -1722 0
-1713 1714 -1715 1716 -1718 -1722 0
1713 1714 -1715 -1716 -1718 1719 -1720 0
-1713 -1716 -1719 -1720 1722 0
-1714 1717 -1719 -1720 1722 0
1713 -1714 1716 -1717 1722 0
-1713 -1716 1719 1720 1722 0
1713 -1714 -1716 1717 1718 -1720 0
-1713 -1714 1715 -1716 1722 0
-1714 1715 -1716 -1717 1719 -1720 0
-1713 1714 1715 -1716 -1719 -1720 0
-1717 1718 -1719 -1720 -1722 0
-1713 -1714 1716 -1717 -1722 0
-1713 1714 1715 1720 -1722 0
1715 1716 -1719 -1720 -1722 0
-1713 1715 1716 1717 1718 1720 0
-1717 -1718 -1719 -1720 1722 0
1713 1718 1719 1720 -1722 0
1714 1717 -1720 1721 0
-1714 -1723 0
1713 1714 1715 1718 1720 1723 0
1714 1715 1716 1718 1719 1723 0
-1714 -1717 -1718 1719 1720 0
-1715 -1716 -1717 -1719 1720 0
-1713 -1715 -1717 1719 -1720 0
1713 1715 1716 -1721 0
1717 1719 1720 -1721 0
1714 -1715 1718 1719 1720 0
1714 1715 -1716 1719 1721 0
-1717 -1723 0
1713 1714 1716 1717 1723 0
1717 -1719 1720 1721 0
1717 1719 -1720 1721 0
-1718 -1723 0
-1721 -1723 0
-1721 -1722 0
1721 1722 1723 0
1724 1726 1728 1729 1730 -1732 0
1724 -1726 -1727 -1729 -1730 1731 0
1725 -1726 1727 1728 -1729 1731 0
1724 1725 -1727 -1728 -1730 1731 1733 0
1725 -1726 1727 1728 -1729 1730 0
1725 1726 1727 -1728 1730 -1731 1733 0
1724 1727 -1730 -1731 1733 0
1724 1727 1730 1731 1733 1734 0
1724 -1725 1727 1730 1731 0
-1724 -1725 1727 1728 -1729 -1731 0
1726 1727 -1728 -1730 1731 1733 0
1724 1725 -1727 -1729 1730 -1733 0
-1726 1727 1730 -1731 -1733 0
-1725 -1727 -1730 1731 -1733 0
1724 -1725 -1727 1728 -1729 -1730 0
1724 1725 1726 1727 1734 0
1724 -1726 -1730 1731 -1733 0
-1724 1725 1727 -1728 -1730 1731 1733 0
1724 1725 -1727 -1728 1730 -1731 1733 0
-1724 -1725 1727 1728 1729 1731 0
-1724 -1726 1728 -1731 -1733 0
-1724 -1727 1728 1730 -1733 0
1724 -1727 -1729 -1731 -1733 0
1724 -1725 -1726 -1728 -1733 0
-1724 1725 -1726 1727 -1729 -1733 0
1724 1725 -1726 -1727 -1729 1730 -1731 0
-1724 -1727 -1730 -1731 1733 0
-1725 1728 -1730 -1731 1733 0
1724 -1725 1727 -1728 1733 0
-1724 -1727 1730 1731 1733 0
1724 -1725 -1727 1728 1729 -1731 0
-1724 -1725 1726 -1727 1733 0
-1725 1726 -1727 -1728 1730 -1731 0
-1724 1725 1726 -1727 -1730 -1731 0
-1728 1729 -1730 -1731 -1733 0
-1724 -1725 1727 -1728 -1733 0
-1724 1725 1726 1731 -1733 0
1726 1727 -1730 -1731 -1733 0
-1724 1726 1727 1728 1729 1731 0
-1728 -1729 -1730 -1731 1733 0
1724 1729 1730 1731 -1733 0
1725 1728 -1731 1732 0
-1725 -1734 0
1724 1725 1726 1729 1731 1734 0
1725 1726 1727 1729 1730 1734 0
-1725 -1728 -1729 1730 1731 0
-1726 -1727 -1728 -1730 1731 0
-1724 -1726 -1728 1730 -1731 0
1724 1726 1727 -1732 0
1728 1730 1731 -1732 0
1725 -1726 1729 1730 1731 0
1725 1726 -1727 1730 1732 0
-1728 -1734 0
1724 1725 1727 1728 1734 0
1728 -1730 1731 1732 0
1728 1730 -1731 1732 0
-1729 -1734 0
-1732 -1734 0
-1732 -1733 0
1732 1733 1734 0
1735 1737 1739 1740 1741 -1743 0
1735 -1737 -1738 -1740 -1741 1742 0
1736 -1737 1738 1739 -1740 1742 0
1735 1736 -1738 -1739 -1741 1742 1744 0
1736 -1737 1738 1739 -1740 1741 0
1736 1737 1738 -1739 1741 -1742 1744 0
1735 1738 -1741 -1742 1744 0
1735 1738 1741 1742 1744 1745 0
1735 -1736 1738 1741 1742 0
-1735 -1736 1738 1739 -1740 -1742 0
1737 1738 -1739 -1741 1742 1744 0
1735 1736 -1738 -1740 1741 -1744 0
-1737 1738 1741 -1742 -1744 0
-1736 -1738 -1741 1742 -1744 0
1735 -1736 -1738 1739 -1740 -1741 0
1735 1736 1737 1738 1745 0
1735 -1737 -1741 1742 -1744 0
-1735 1736 1738 -1739 -1741 1742 1744 0
1735 1736 -1738 -1739 1741 -1742 1744 0
-1735 -1736 1738 1739 1740 1742 0
-1735 -1737 1739 -1742 -1744 0
-1735 -1738 1739 1741 -1744 0
1735 -1738 -1740 -1742 -1744 0
1735 -1736 -1737 -1739 -1744 0
-1735 1736 -1737 1738 -1740 -1744 0
1735 1736 -1737 -1738 -1740 1741 -1742 0
-1735 -1738 -1741 -1742 1744 0
-1736 1739 -1741 -1742 1744 0
1735 -1736 1738 -1739 1744 0
-1735 -1738 1741 1742 1744 0
1735 -1736 -1738 1739 1740 -1742 0
-1735 -1736 1737 -1738 1744 0
-1736 1737 -1738 -1739 1741 -1742 0
-1735 1736 1737 -1738 -1741 -1742 0
-1739 1740 -1741 -1742 -1744 0
-1735 -1736 1738 -1739 -1744 0
-1735 1736 1737 1742 -1744 0
1737 1738 -1741 -1742 -1744 0
-1735 1737 1738 1739 1740 1742 0
-1739 -1740 -1741 -1742 1744 0
1735 1740 1741 1742 -1744 0
1736 1739 -1742 1743 0
-1736 -1745 0
1735 1736 1737 1740 1742 1745 0
1736 1737 1738 1740 1741 1745 0
-1736 -1739 -1740 1741 1742 0
-1737 -1738 -1739 -1741 1742 0
-1735 -1737 -1739 1741 -1742 0
1735 1737 1738 -1743 0
1739 1741 1742 -1743 0
1736 -1737 1740 1741 1742 0
1736 1737 -1738 1741 1743 0
-1739 -1745 0
1735 1736 1738 1739 1745 0
1739 -1741 1742 1743 0
1739 1741 -1742 1743 0
-1740 -1745 0
-1743 -1745 0
-1743 -1744 0
1743 1744 1745 0
1746 1748 1750 1751 1752 -1754 0
1746 -1748 -1749 -1751 -1752 1753 0
1747 -1748 1749 1750 -1751 1753 0
1746 1747 -1749 -1750 -1752 1753 1755 0
1747 -1748 1749 1750 -1751 1752 0
1747 1748 1749 -1750 1752 -1753 1755 0
1746 1749 -1752 -1753 1755 0
1746 1749 1752 1753 1755 1756 0
1746 -1747 1749 1752 1753 0
-1746 -1747 1749 1750 -1751 -1753 0
1748 1749 -1750 -1752 1753 1755 0
1746 1747 -1749 -1751 1752 -1755 0
-1748 1749 1752 -1753 -1755 0
-1747 -1749 -1752 1753 -1755 0
1746 -1747 -1749 1750 -1751 -1752 0
1746 1747 1748 1749 1756 0
1746 -1748 -1752 1753 -1755 0
-1746 1747 1749 -1750 -1752 1753 1755 0
1746 1747 -1749 -1750 1752 -1753 1755 0
-1746 -1747 1749 1750 1751 1753 0
-1746 -1748 1750 -1753 -1755 0
-1746 -1749 1750 1752 -1755 0
1746 -1749 -1751 -1753 -1755 0
1746 -1747 -1748 -1750 -1755 0
-1746 1747 -1748 1749 -1751 -1755 0
1746 1747 -1748 -1749 -1751 1752 -1753 0
-1746 -1749 -1752 -1753 1755 0
-1747 1750 -1752 -1753 1755 0
1746 -1747 1749 -1750 1755 0
-1746 -1749 1752 1753 1755 0
1746 -1747 -1749 1750 1751 -1753 0
-1746 -1747 1748 -1749 1755 0
-1747 1748 -1749 -1750 1752 -1753 0
-1746 1747 1748 -1749 -1752 -1753 0
-1750 1751 -1752 -1753 -1755 0
-1746 -1747 1749 -1750 -1755 0
-1746 1747 1748 1753 -1755 0
1748 1749 -1752 -1753 -1755 0
-1746 1748 1749 1750 1751 1753 0
-1750 -1751 -1752 -1753 1755 0
1746 1751 1752 1753 -1755 0
1747 1750 -1753 1754 0
-1747 -1756 0
1746 1747 1748 1751 1753 1756 0
1747 1748 1749 1751 1752 1756 0
-1747 -1750 -1751 1752 1753 0
-1748 -1749 -1750 -1752 1753 0
-1746 -1748 -1750 1752 -1753 0
1746 1748 1749 -1754 0
1750 1752 1753 -1754 0
1747 -1748 1751 1752 1753 0
1747 1748 -1749 1752 1754 0
-1750 -1756 0
1746 1747 1749 1750 1756 0
1750 -1752 1753 1754 0
1750 1752 -1753 1754 0
-1751 -1756 0
-1754 -1756 0
-1754 -1755 0
1754 1755 1756 0
1757 1759 1761 1762 1763 -1765 0
1757 -1759 -1760 -1762 -1763 1764 0
1758 -1759 1760 1761 -1762 1764 0
1757 1758 -1760 -1761 -1763 1764 1766 0
1758 -1759 1760 1761 -1762 1763 0
1758 1759 1760 -1761 1763 -1764 1766 0
1757 1760 -1763 -1764 1766 0
1757 1760 1763 1764 1766 1767 0
1757 -1758 1760 1763 1764 0
-1757 -1758 1760 1761 -1762 -1764 0
1759 1760 -1761 -1763 1764 1766 0
1757 1758 -1760 -1762 1763 -1766 0
-1759 1760 1763 -1764 -1766 0
-1758 -1760 -1763 1764 -1766 0
1757 -1758 -1760 1761 -1762 -1763 0
1757 1758 1759 1760 1767 0
1757 -1759 -1763 1764 -1766 0
-1757 1758 1760 -1761 -1763 1764 1766 0
1757 1758 -1760 -1761 1763 -1764 1766 0
-1757 -1758 1760 1761 1762 1764 0
-1757 -1759 1761 -1764 -1766 0
-1757 -1760 1761 1763 -1766 0
1757 -1760 -1762 -1764 -1766 0
1757 -1758 -1759 -1761 -1766 0
-1757 1758 -1759 1760 -1762 -1766 0
1757 1758 -1759 -1760 -1762 1763 -1764 0
-1757 -1760 -1763 -1764 1766 0
-1758 1761 -1763 -1764 1766 0
1757 -1758 1760 -1761 1766 0
-1757 -1760 1763 1764 1766 0
1757 -1758 -1760 1761 1762 -1764 0
-1757 -1758 1759 -1760 1766 0
-1758 1759 -1760 -1761 1763 -1764 0
-1757 1758 1759 -1760 -1763 -1764 0
-1761 1762 -1763 -1764 -1766 0
-1757 -1758 1760 -1761 -1766 0
-1757 1758 1759 1764 -1766 0
1759 1760 -1763 -1764 -1766 0
-1757 1759 1760 1761 1762 1764 0
-1761 -1762 -1763 -1764 1766 0
1757 1762 1763 1764 -1766 0
1758 1761 -1764 1765 0
-1758 -1767 0
1757 1758 1759 1762 1764 1767 0
1758 1759 1760 1762 1763 1767 0
-1758 -1761 -1762 1763 1764 0
-1759 -1760 -1761 -1763 1764 0
-1757 -1759 -1761 1763 -1764 0
1757 1759 1760 -1765 0
1761 1763 1764 -1765 0
1758 -1759 1762 1763 1764 0
1758 1759 -1760 1763 1765 0
-1761 -1767 0
1757 1758 1760 1761 1767 0
1761 -1763 1764 1765 0
1761 1763 -1764 1765 0
-1762 -1767 0
-1765 -1767 0
-1765 -1766 0
1765 1766 1767 0
1768 1770 1772 1773 1774 -1776 0
1768 -1770 -1771 -1773 -1774 1775 0
1769 -1770 1771 1772 -1773 1775 0
1768 1769 -1771 -1772 -1774 1775 1777 0
1769 -1770 1771 1772 -1773 1774 0
1769 1770 1771 -1772 1774 -1775 1777 0
1768 1771 -1774 -1775 1777 0
1768 1771 1774 1775 1777 1778 0
1768 -1769 1771 1774 1775 0
-1768 -1769 1771 1772 -1773 -1775 0
1770 1771 -1772 -1774 1775 1777 0
1768 1769 -1771 -1773 1774 -1777 0
-1770 1771 1774 -1775 -1777 0
-1769 -1771 -1774 1775 -1777 0
1768 -1769 -1771 1772 -1773 -1774 0
1768 1769 1770 1771 1778 0
1768 -1770 -1774 1775 -1777 0
-1768 1769 1771 -1772 -1774 1775 1777 0
1768 1769 -1771 -1772 1774 -1775 1777 0
-1768 -1769 1771 1772 1773 1775 0
-1768 -1770 1772 -1775 -1777 0
-1768 -1771 1772 1774 -1777 0
1768 -1771 -1773 -1775 -1777 0
1768 -1769 -1770 -1772 -1777 0
-1768 1769 -1770 1771 -1773 -1777 0
1768 1769 -1770 -1771 -1773 1774 -1775 0
-1768 -1771 -1774 -1775 1777 0
-1769 1772 -1774 -1775 1777 0
1768 -1769 1771 -1772 1777 0
-1768 -1771 1774 1775 1777 0
1768 -1769 -1771 1772 1773 -1775 0
-1768 -1769 1770 -1771 1777 0
-1769 1770 -1771 -1772 1774 -1775 0
-1768 1769 1770 -1771 -1774 -1775 0
-1772 1773 -1774 -1775 -1777 0
-1768 -1769 1771 -1772 -1777 0
-1768 1769 1770 1775 -1777 0
1770 1771 -1774 -1775 -1777 0
-1768 1770 1771 1772 1773 1775 0
-1772 -1773 -1774 -1775 1777 0
1768 1773 1774 1775 -1777 0
1769 1772 -1775 1776 0
-1769 -1778 0
1768 1769 1770 1773 1775 1778 0
1769 1770 1771 1773 1774 1778 0
-1769 -1772 -1773 1774 1775 0
-1770 -1771 -1772 -1774 1775 0
-1768 -1770 -1772 1774 -1775 0
1768 1770 1771 -1776 0
1772 1774 1775 -1776 0
1769 -1770 1773 1774 1775 0
1769 1770 -1771 1774 1776 0
-1772 -1778 0
1768 1769 1771 1772 1778 0
1772 -1774 1775 1776 0
1772 1774 -1775 1776 0
-1773 -1778 0
-1776 -1778 0
-1776 -1777 0
1776 1777 1778 0
1779 1781 1783 1784 1785 -1787 0
1779 -1781 -1782 -1784 -1785 1786 0
1780 -1781 1782 1783 -1784 1786 0
1779 1780 -1782 -1783 -1785 1786 1788 0
1780 -1781 1782 1783 -1784 1785 0
1780 1781 1782 -1783 1785 -1786 1788 0
1779 1782 -1785 -1786 1788 0
1779 1782 1785 1786 1788 1789 0
1779 -1780 1782 1785 1786 0
-1779 -1780 1782 1783 -1784 -1786 0
1781 1782 -1783 -1785 1786 1788 0
1779 1780 -1782 -1784 1785 -1788 0
-1781 1782 1785 -1786 -1788 0
-1780 -1782 -1785 1786 -1788 0
1779 -1780 -1782 1783 -1784 -1785 0
1779 1780 1781 1782 1789 0
1779 -1781 -1785 1786 -1788 0
-1779 1780 1782 -1783 -1785 1786 1788 0
1779 1780 -1782 -1783 1785 -1786 1788 0
-1779 -1780 1782 1783 1784 1786 0
-1779 -1781 1783 -1786 -1788 0
-1779 -1782 1783 1785 -1788 0
1779 -1782 -1784 -1786 -1788 0
1779 -1780 -1781 -1783 -1788 0
-1779 1780 -1781 1782 -1784 -1788 0
1779 1780 -1781 -1782 -1784 1785 -1786 0
-1779 -1782 -1785 -1786 1788 0
-1780 1783 -1785 -1786 1788 0
1779 -1780 1782 -1783 1788 0
-1779 -1782 1785 1786 1788 0
1779 -1780 -1782 1783 1784 -1786 0
-1779 -1780 1781 -1782 1788 0
-1780 1781 -1782 -1783 1785 -1786 0
-1779 1780 1781 -1782 -1785 -1786 0
-1783 1784 -1785 -1786 -1788 0
-1779 -1780 1782 -1783 -1788 0
-1779 1780 1781 1786 -1788 0
1781 1782 -1785 -1786 -1788 0
-1779 1781 1782 1783 1784 1786 0
-1783 -1784 -1785 -1786 1788 0
1779 1784 1785 1786 -1788 0
1780 1783 -1786 1787 0
-1780 -1789 0
1779 1780 1781 1784 1786 1789 0
1780 1781 1782 1784 1785 1789 0
-1780 -1783 -1784 1785 1786 0
-1781 -1782 -1783 -1785 1786 0
-1779 -1781 -1783 1785 -1786 0
1779 1781 1782 -1787 0
1783 1785 1786 -1787 0
1780 -1781 1784 1785 1786 0
1780 1781 -1782 1785 1787 0
-1783 -1789 0
1779 1780 1782 1783 1789 0
1783 -1785 1786 1787 0
1783 1785 -1786 1787 0
-1784 -1789 0
-1787 -1789 0
-1787 -1788 0
1787 1788 1789 0
1790 1792 1794 1795 1796 -1798 0
1790 -1792 -1793 -1795 -1796 1797 0
1791 -1792 1793 1794 -1795 1797 0
1790 1791 -1793 -1794 -1796 1797 1799 0
1791 -1792 1793 1794 -1795 1796 0
1791 1792 1793 -1794 1796 -1797 1799 0
1790 1793 -1796 -1797 1799 0
1790 1793 1796 1797 1799 1800 0
1790 -1791 1793 1796 1797 0
-1790 -1791 1793 1794 -1795 -1797 0
1792 1793 -1794 -1796 1797 1799 0
1790 1791 -1793 -1795 1796 -1799 0
-1792 1793 1796 -1797 -1799 0
-1791 -1793 -1796 1797 -1799 0
1790 -1791 -1793 1794 -1795 -1796 0
1790 1791 1792 1793 1800 0
1790 -1792 -1796 1797 -1799 0
-1790 1791 1793 -1794 -1796 1797 1799 0
1790 1791 -1793 -1794 1796 -1797 1799 0
-1790 -1791 1793 1794 1795 1797 0
-1790 -1792 1794 -1797 -1799 0
-1790 -1793 1794 1796 -1799 0
1790 -1793 -1795 -1797 -1799 0
1790 -1791 -1792 -1794 -1799 0
-1790 1791 -1792 1793 -1795 -1799 0
1790 1791 -1792 -1793 -1795 1796 -1797 0
-1790 -1793 -1796 -1797 1799 0
-1791 1794 -1796 -1797 1799 0
1790 -1791 1793 -1794 1799 0
-1790 -1793 1796 1797 1799 0
1790 -1791 -1793 1794 1795 -1797 0
-1790 -1791 1792 -1793 1799 0
-1791 1792 -1793 -1794 1796 -1797 0
-1790 1791 1792 -1793 -1796 -1797 0
-1794 1795 -1796 -1797 -1799 0
-1790 -1791 1793 -1794 -1799 0
-1790 1791 1792 1797 -1799 0
1792 1793 -1796 -1797 -1799 0
-1790 1792 1793 1794 1795 1797 0
-1794 -1795 -1796 -1797 1799 0
1790 1795 1796 1797 -1799 0
1791 1794 -1797 1798 0
-1791 -1800 0
1790 1791 1792 1795 1797 1800 0
1791 1792 1793 1795 1796 1800 0
-1791 -1794 -1795 1796 1797 0
-1792 -1793 -1794 -1796 1797 0
-1790 -1792 -1794 1796 -1797 0
1790 1792 1793 -1798 0
1794 1796 1797 -1798 0
1791 -1792 1795 1796 1797 0
1791 1792 -1793 1796 1798 0
-1794 -1800 0
1790 1791 1793 1794 1800 0
1794 -1796 1797 1798 0
1794 1796 -1797 1798 0
-1795 -1800 0
-1798 -1800 0
-1798 -1799 0
1798 1799 1800 0
1801 1803 1805 1806 1807 -1809 0
1801 -1803 -1804 -1806 -1807 1808 0
1802 -1803 1804 1805 -1806 1808 0
1801 1802 -1804 -1805 -1807 1808 1810 0
1802 -1803 1804 1805 -1806 1807 0
1802 1803 1804 -1805 1807 -1808 1810 0
1801 1804 -1807 -1808 1810 0
1801 1804 1807 1808 1810 1811 0
1801 -1802 1804 1807 1808 0
-1801 -1802 1804 1805 -1806 -1808 0
1803 1804 -1805 -1807 1808 1810 0
1801 1802 -1804 -1806 1807 -1810 0
-1803 1804 1807 -1808 -1810 0
-1802 -1804 -1807 1808 -1810 0
1801 -1802 -1804 1805 -1806 -1807 0
1801 1802 1803 1804 1811 0
1801 -1803 -1807 1808 -1810 0
-1801 1802 1804 -1805 -1807 1808 1810 0
1801 1802 -1804 -1805 1807 -1808 1810 0
-1801 -1802 1804 1805 1806 1808 0
-1801 -1803 1805 -1808 -1810 0
-1801 -1804 1805 1807 -1810 0
1801 -1804 -1806 -1808 -1810 0
1801 -1802 -1803 -1805 -1810 0
-1801 1802 -1803 1804 -1806 -1810 0
1801 1802 -1803 -1804 -1806 1807 -1808 0
-1801 -1804 -1807 -1808 1810 0
-1802 1805 -1807 -1808 1810 0
1801 -1802 1804 -1805 1810 0
-1801 -1804 1807 1808 1810 0
1801 -1802 -1804 1805 1806 -1808 0
-1801 -1802 1803 -1804 1810 0
-1802 1803 -1804 -1805 1807 -1808 0
-1801 1802 1803 -1804 -1807 -1808 0
-1805 1806 -1807 -1808 -1810 0
-1801 -1802 1804 -1805 -1810 0
-1801 1802 1803 1808 -1810 0
1803 1804 -1807 -1808 -1810 0
-1801 1803 1804 1805 1806 1808 0
-1805 -1806 -1807 -1808 1810 0
1801 1806 1807 1808 -1810 0
1802 1805 -1808 1809 0
-1802 -1811 0
1801 1802 1803 1806 1808 1811 0
1802 1803 1804 1806 1807 1811 0
-1802 -1805 -1806 1807 1808 0
-1803 -1804 -1805 -1807 1808 0
-1801 -1803 -1805 1807 -1808 0
1801 1803 1804 -1809 0
1805 1807 1808 -1809 0
1802 -1803 1806 1807 1808 0
1802 1803 -1804 1807 1809 0
-1805 -1811 0
1801 1802 1804 1805 1811 0
1805 -1807 1808 1809 0
1805 1807 -1808 1809 0
-1806 -1811 0
-1809 -1811 0
-1809 -1810 0
1809 1810 1811 0
1812 1814 1816 1817 1818 -1820 0
1812 -1814 -1815 -1817 -1818 1819 0
1813 -1814 1815 1816 -1817 1819 0
1812 1813 -1815 -1816 -1818 1819 1821 0
1813 -1814 1815 1816 -1817 1818 0
1813 1814 1815 -1816 1818 -1819 1821 0
1812 1815 -1818 -1819 1821 0
1812 1815 1818 1819 1821 1822 0
1812 -1813 1815 1818 1819 0
-1812 -1813 1815 1816 -1817 -1819 0
1814 1815 -1816 -1818 1819 1821 0
1812 1813 -1815 -1817 1818 -1821 0
-1814 1815 1818 -1819 -1821 0
-1813 -1815 -1818 1819 -1821 0
1812 -1813 -1815 1816 -1817 -1818 0
1812 1813 1814 1815 1822 0
1812 -1814 -1818 1819 -1821 0
-1812 1813 1815 -1816 -1818 1819 1821 0
1812 1813 -1815 -1816 1818 -1819 1821 0
-1812 -1813 1815 1816 1817 1819 0
-1812 -1814 1816 -1819 -1821 0
-1812 -1815 1816 1818 -1821 0
1812 -1815 -1817 -1819 -1821 0
1812 -1813 -1814 -1816 -1821 0
-1812 1813 -1814 1815 -1817 -1821 0
1812 1813 -1814 -1815 -1817 1818 -1819 0
-1812 -1815 -1818 -1819 1821 0
-1813 1816 -1818 -1819 1821 0
1812 -1813 1815 -1816 1821 0
-1812 -1815 1818 1819 1821 0
1812 -1813 -1815 1816 1817 -1819 0
-1812 -1813 1814 -1815 1821 0
-1813 1814 -1815 -1816 1818 -1819 0
-1812 1813 1814 -1815 -1818 -1819 0
-1816 1817 -1818 -1819 -1821 0
-1812 -1813 1815 -1816 -1821 0
-1812 1813 1814 1819 -1821 0
1814 1815 -1818 -1819 -1821 0
-1812 1814 1815 1816 1817 1819 0
-1816 -1817 -1818 -1819 1821 0
1812 1817 1818 1819 -1821 0
1813 1816 -1819 1820 0
-1813 -1822 0
1812 1813 1814 1817 1819 1822 0
1813 1814 1815 1817 1818 1822 0
-1813 -1816 -1817 1818 1819 0
-1814 -1815 -1816 -1818 1819 0
-1812 -1814 -1816 1818 -1819 0
1812 1814 1815 -1820 0
1816 1818 1819 -1820 0
1813 -1814 1817 1818 1819 0
1813 1814 -1815 1818 1820 0
-1816 -1822 0
1812 1813 1815 1816 1822 0
1816 -1818 1819 1820 0
1816 1818 -1819 1820 0
-1817 -1822 0
-1820 -1822 0
-1820 -1821 0
1820 1821 1822 0
1823 1825 1827 1828 1829 -1831 0
1823 -1825 -1826 -1828 -1829 1830 0
1824 -1825 1826 1827 -1828 1830 0
1823 1824 -1826 -1827 -1829 1830 1832 0
1824 -1825 1826 1827 -1828 1829 0
1824 1825 1826 -1827 1829 -1830 1832 0
1823 1826 -1829 -1830 1832 0
1823 1826 1829 1830 1832 1833 0
1823 -1824 1826 1829 1830 0
-1823 -1824 1826 1827 -1828 -1830 0
1825 1826 -1827 -1829 1830 1832 0
1823 1824 -1826 -1828 1829 -1832 0
-1825 1826 1829 -1830 -1832 0
-1824 -1826 -1829 1830 -1832 0
1823 -1824 -1826 1827 -1828 -1829 0
1823 1824 1825 1826 1833 0
1823 -1825 -1829 1830 -1832 0
-1823 1824 1826 -1827 -1829 1830 1832 0
1823 1824 -1826 -1827 1829 -1830 1832 0
-1823 -1824 1826 1827 1828 1830 0
-1823 -1825 1827 -1830 -1832 0
-1823 -1826 1827 1829 -1832 0
1823 -1826 -1828 -1830 -1832 0
1823 -1824 -1825 -1827 -1832 0
-1823 1824 -1825 1826 -1828 -1832 0
1823 1824 -1825 -1826 -1828 1829 -1830 0
-1823 -1826 -1829 -1830 1832 0
-1824 1827 -1829 -1830 1832 0
1823 -1824 1826 -1827 1832 0
-1823 -1826 1829 1830 1832 0
1823 -1824 -1826 1827 1828 -1830 0
-1823 -1824 1825 -1826 1832 0
-1824 1825 -1826 -1827 1829 -1830 0
-1823 1824 1825 -1826 -1829 -1830 0
-1827 1828 -1829 -1830 -1832 0
-1823 -1824 1826 -1827 -1832 0
-1823 1824 1825 1830 -1832 0
1825 1826 -1829 -1830 -1832 0
-1823 1825 1826 1827 1828 1830 0
-1827 -1828 -1829 -1830 1832 0
1823 1828 1829 1830 -1832 0
1824 1827 -1830 1831 0
-1824 -1833 0
1823 1824 1825 1828 1830 1833 0
1824 1825 1826 1828 1829 1833 0
-1824 -1827 -1828 1829 1830 0
-1825 -1826 -1827 -1829 1830 0
-1823 -1825 -1827 1829 -1830 0
1823 1825 1826 -1831 0
1827 1829 1830 -1831 0
1824 -1825 1828 1829 1830 0
1824 1825 -1826 1829 1831 0
-1827 -1833 0
1823 1824 1826 1827 1833 0
1827 -1829 1830 1831 0
1827 1829 -1830 1831 0
-1828 -1833 0
-1831 -1833 0
-1831 -1832 0
1831 1832 1833 0
1834 1836 1838 1839 1840 -1842 0
1834 -1836 -1837 -1839 -1840 1841 0
1835 -1836 1837 1838 -1839 1841 0
1834 1835 -1837 -1838 -1840 1841 1843 0
1835 -1836 1837 1838 -1839 1840 0
1835 1836 1837 -1838 1840 -1841 1843 0
1834 1837 -1840 -1841 1843 0
1834 1837 1840 1841 1843 1844 0
1834 -1835 1837 1840 1841 0
-1834 -1835 1837 1838 -1839 -1841 0
1836 1837 -1838 -1840 1841 1843 0
1834 1835 -1837 -1839 1840 -1843 0
-1836 1837 1840 -1841 -1843 0
-1835 -1837 -1840 1841 -1843 0
1834 -1835 -1837 1838 -1839 -1840 0
1834 1835 1836 1837 1844 0
1834 -1836 -1840 1841 -1843 0
-1834 1835 1837 -1838 -1840 1841 1843 0
1834 1835 -1837 -1838 1840 -1841 1843 0
-1834 -1835 1837 1838 1839 1841 0
-1834 -1836 1838 -1841 -1843 0
-1834 -1837 1838 1840 -1843 0
1834 -1837 -1839 -1841 -1843 0
1834 -1835 -1836 -1838 -1843 0
-1834 1835 -1836 1837 -1839 -1843 0
1834 1835 -1836 -1837 -1839 1840 -1841 0
-1834 -1837 -1840 -1841 1843 0
-1835 1838 -1840 -1841 1843 0
1834 -1835 1837 -1838 1843 0
-1834 -1837 1840 1841 1843 0
1834 -1835 -1837 1838 1839 -1841 0
-1834 -1835 1836 -1837 1843 0
-1835 1836 -1837 -1838 1840 -1841 0
-1834 1835 1836 -1837 -1840 -1841 0
-1838 1839 -1840 -1841 -1843 0
-1834 -1835 1837 -1838 -1843 0
-1834 1835 1836 1841 -1843 0
1836 1837 -1840 -1841 -1843 0
-1834 1836 1837 1838 1839 1841 0
-1838 -1839 -1840 -1841 1843 0
1834 1839 1840 1841 -1843 0
1835 1838 -1841 1842 0
-1835 -1844 0
1834 1835 1836 1839 1841 1844 0
1835 1836 1837 1839 1840 1844 0
-1835 -1838 -1839 1840 1841 0
-1836 -1837 -1838 -1840 1841 0
-1834 -1836 -1838 1840 -1841 0
1834 1836 1837 -1842 0
1838 1840 1841 -1842 0
1835 -1836 1839 1840 1841 0
1835 1836 -1837 1840 1842 0
-1838 -1844 0
1834 1835 1837 1838 1844 0
1838 -1840 1841 1842 0
1838 1840 -1841 1842 0
-1839 -1844 0
-1842 -1844 0
-1842 -1843 0
1842 1843 1844 0
1845 1847 1849 1850 1851 -1853 0
1845 -1847 -1848 -1850 -1851 1852 0
1846 -1847 1848 1849 -1850 1852 0
1845 1846 -1848 -1849 -1851 1852 1854 0
1846 -1847 1848 1849 -1850 1851 0
1846 1847 1848 -1849 1851 -1852 1854 0
1845 1848 -1851 -1852 1854 0
1845 1848 1851 1852 1854 1855 0
1845 -1846 1848 1851 1852 0
-1845 -1846 1848 1849 -1850 -1852 0
1847 1848 -1849 -1851 1852 1854 0
1845 1846 -1848 -1850 1851 -1854 0
-1847 1848 1851 -1852 -1854 0
-1846 -1848 -1851 1852 -1854 0
1845 -1846 -1848 1849 -1850 -1851 0
1845 1846 1847 1848 1855 0
1845 -1847 -1851 1852 -1854 0
-1845 1846 1848 -1849 -1851 1852 1854 0
1845 1846 -1848 -1849 1851 -1852 1854 0
-1845 -1846 1848 1849 1850 1852 0
-1845 -1847 1849 -1852 -1854 0
-1845 -1848 1849 1851 -1854 0
1845 -1848 -1850 -1852 -1854 0
1845 -1846 -1847 -1849 -1854 0
-1845 1846 -1847 1848 -1850 -1854 0
1845 1846 -1847 -1848 -1850 1851 -1852 0
-1845 -1848 -1851 -1852 1854 0
-1846 1849 -1851 -1852 1854 0
1845 -1846 1848 -1849 1854 0
-1845 -1848 1851 1852 1854 0
1845 -1846 -1848 1849 1850 -1852 0
-1845 -1846 1847 -1848 1854 0
-1846 1847 -1848 -1849 1851 -1852 0
-1845 1846 1847 -1848 -1851 -1852 0
-1849 1850 -1851 -1852 -1854 0
-1845 -1846 1848 -1849 -1854 0
-1845 1846 1847 1852 -1854 0
1847 1848 -1851 -1852 -1854 0
-1845 1847 1848 1849 1850 1852 0
-1849 -1850 -1851 -1852 1854 0
1845 1850 1851 1852 -1854 0
1846 1849 -1852 1853 0
-1846 -1855 0
1845 1846 1847 1850 1852 1855 0
1846 1847 1848 1850 1851 1855 0
-1846 -1849 -1850 1851 1852 0
-1847 -1848 -1849 -1851 1852 0
-1845 -1847 -1849 1851 -1852 0
1845 1847 1848 -1853 0
1849 1851 1852 -1853 0
1846 -1847 1850 1851 1852 0
1846 1847 -1848 1851 1853 0
-1849 -1855 0
1845 1846 1848 1849 1855 0
1849 -1851 1852 1853 0
1849 1851 -1852 1853 0
-1850 -1855 0
-1853 -1855 0
-1853 -1854 0
1853 1854 1855 0
1856 1858 1860 1861 1862 -1864 0
1856 -1858 -1859 -1861 -1862 1863 0
1857 -1858 1859 1860 -1861 1863 0
1856 1857 -1859 -1860 -1862 1863 1865 0
1857 -1858 1859 1860 -1861 1862 0
1857 1858 1859 -1860 1862 -1863 1865 0
1856 1859 -1862 -1863 1865 0
1856 1859 1862 1863 1865 1866 0
1856 -1857 1859 1862 1863 0
-1856 -1857 1859 1860 -1861 -1863 0
1858 1859 -1860 -1862 1863 1865 0
1856 1857 -1859 -1861 1862 -1865 0
-1858 1859 1862 -1863 -1865 0
-1857 -1859 -1862 1863 -1865 0
1856 -1857 -1859 1860 -1861 -1862 0
1856 1857 1858 1859 1866 0
1856 -1858 -1862 1863 -1865 0
-1856 1857 1859 -1860 -1862 1863 1865 0
1856 1857 -1859 -1860 1862 -1863 1865 0
-1856 -1857 1859 1860 1861 1863 0
-1856 -1858 1860 -1863 -1865 0
-1856 -1859 1860 1862 -1865 0
1856 -1859 -1861 -1863 -1865 0
1856 -1857 -1858 -1860 -1865 0
-1856 1857 -1858 1859 -1861 -1865 0
1856 1857 -1858 -1859 -1861 1862 -1863 0
-1856 -1859 -1862 -1863 1865 0
-1857 1860 -1862 -1863 1865 0
1856 -1857 1859 -1860 1865 0
-1856 -1859 1862 1863 1865 0
1856 -1857 -1859 1860 1861 -1863 0
-1856 -1857 1858 -1859 1865 0
-1857 1858 -1859 -1860 1862 -1863 0
-1856 1857 1858 -1859 -1862 -1863 0
-1860 1861 -1862 -1863 -1865 0
-1856 -1857 1859 -1860 -1865 0
-1856 1857 1858 1863 -1865 0
1858 1859 -1862 -1863 -1865 0
-1856 1858 1859 1860 1861 1863 0
-1860 -1861 -1862 -1863 1865 0
1856 1861 1862 1863 -1865 0
1857 1860 -1863 1864 0
-1857 -1866 0
1856 1857 1858 1861 1863 1866 0
1857 1858 1859 1861 1862 1866 0
-1857 -1860 -1861 1862 1863 0
-1858 -1859 -1860 -1862 1863 0
-1856 -1858 -1860 1862 -1863 0
1856 1858 1859 -1864 0
1860 1862 1863 -1864 0
1857 -1858 1861 1862 1863 0
1857 1858 -1859 1862 1864 0
-1860 -1866 0
1856 1857 1859 1860 1866 0
1860 -1862 1863 1864 0
1860 1862 -1863 1864 0
-1861 -1866 0
-1864 -1866 0
-1864 -1865 0
1864 1865 1866 0
1867 1869 1871 1872 1873 -1875 0
1867 -1869 -1870 -1872 -1873 1874 0
1868 -1869 1870 1871 -1872 1874 0
1867 1868 -1870 -1871 -1873 1874 1876 0
1868 -1869 1870 1871 -1872 1873 0
1868 1869 1870 -1871 1873 -1874 1876 0
1867 1870 -1873 -1874 1876 0
1867 1870 1873 1874 1876 1877 0
1867 -1868 1870 1873 1874 0
-1867 -1868 1870 1871 -1872 -1874 0
1869 1870 -1871 -1873 1874 1876 0
1867 1868 -1870 -1872 1873 -1876 0
-1869 1870 1873 -1874 -1876 0
-1868 -1870 -1873 1874 -1876 0
1867 -1868 -1870 1871 -1872 -1873 0
1867 1868 1869 1870 1877 0
1867 -1869 -1873 1874 -1876 0
-1867 1868 1870 -1871 -1873 1874 1876 0
1867 1868 -1870 -1871 1873 -1874 1876 0
-1867 -1868 1870 1871 1872 1874 0
-1867 -1869 1871 -1874 -1876 0
-1867 -1870 1871 1873 -1876 0
1867 -1870 -1872 -1874 -1876 0
1867 -1868 -1869 -1871 -1876 0
-1867 1868 -1869 1870 -1872 -1876 0
1867 1868 -1869 -1870 -1872 1873 -1874 0
-1867 -1870 -1873 -1874 1876 0
-1868 1871 -1873 -1874 1876 0
1867 -1868 1870 -1871 1876 0
-1867 -1870 1873 1874 1876 0
1867 -1868 -1870 1871 1872 -1874 0
-1867 -1868 1869 -1870 1876 0
-1868 1869 -1870 -1871 1873 -1874 0
-1867 1868 1869 -1870 -1873 -1874 0
-1871 1872 -1873 -1874 -1876 0
-1867 -1868 1870 -1871 -1876 0
-1867 1868 1869 1874 -1876 0
1869 1870 -1873 -1874 -1876 0
-1867 1869 1870 1871 1872 1874 0
-1871 -1872 -1873 -1874 1876 0
1867 1872 1873 1874 -1876 0
1868 1871 -1874 1875 0
-1868 -1877 0
1867 1868 1869 1872 1874 1877 0
1868 1869 1870 1872 1873 1877 0
-1868 -1871 -1872 1873 1874 0
-1869 -1870 -1871 -1873 1874 0
-1867 -1869 -1871 1873 -1874 0
1867 1869 1870 -1875 0
1871 1873 1874 -1875 0
1868 -1869 1872 1873 1874 0
1868 1869 -1870 1873 1875 0
-1871 -1877 0
1867 1868 1870 1871 1877 0
1871 -1873 1874 1875 0
1871 1873 -1874 1875 0
-1872 -1877 0
-1875 -1877 0
-1875 -1876 0
1875 1876 1877 0
1878 1880 1882 1883 1884 -1886 0
1878 -1880 -1881 -1883 -1884 1885 0
1879 -1880 1881 1882 -1883 1885 0
1878 1879 -1881 -1882 -1884 1885 1887 0
1879 -1880 1881 1882 -1883 1884 0
1879 1880 1881 -1882 1884 -1885 1887 0
1878 1881 -1884 -1885 1887 0
1878 1881 1884 1885 1887 1888 0
1878 -1879 1881 1884 1885 0
-1878 -1879 1881 1882 -1883 -1885 0
1880 1881 -1882 -1884 1885 1887 0
1878 1879 -1881 -1883 1884 -1887 0
-1880 1881 1884 -1885 -1887 0
-1879 -1881 -1884 1885 -1887 0
1878 -1879 -1881 1882 -1883 -1884 0
1878 1879 1880 1881 1888 0
1878 -1880 -1884 1885 -1887 0
-1878 1879 1881 -1882 -1884 1885 1887 0
1878 1879 -1881 -1882 1884 -1885 1887 0
-1878 -1879 1881 1882 1883 1885 0
-1878 -1880 1882 -1885 -1887 0
-1878 -1881 1882 1884 -1887 0
1878 -1881 -1883 -1885 -1887 0
1878 -1879 -1880 -1882 -1887 0
-1878 1879 -1880 1881 -1883 -1887 0
1878 1879 -1880 -1881 -1883 1884 -1885 0
-1878 -1881 -1884 -1885 1887 0
-1879 1882 -1884 -1885 1887 0
1878 -1879 1881 -1882 1887 0
-1878 -1881 1884 1885 1887 0
1878 -1879 -1881 1882 1883 -1885 0
-1878 -1879 1880 -1881 1887 0
-1879 1880 -1881 -1882 1884 -1885 0
-1878 1879 1880 -1881 -1884 -1885 0
-1882 1883 -1884 -1885 -1887 0
-1878 -1879 1881 -1882 -1887 0
-1878 1879 1880 1885 -1887 0
1880 1881 -1884 -1885 -1887 0
-1878 1880 1881 1882 1883 1885 0
-1882 -1883 -1884 -1885 1887 0
1878 1883 1884 1885 -1887 0
1879 1882 -1885 1886 0
-1879 -1888 0
1878 1879 1880 1883 1885 1888 0
1879 1880 1881 1883 1884 1888 0
-1879 -1882 -1883 1884 1885 0
-1880 -1881 -1882 -1884 1885 0
-1878 -1880 -1882 1884 -1885 0
1878 1880 1881 -1886 0
1882 1884 1885 -1886 0
1879 -1880 1883 1884 1885 0
1879 1880 -1881 1884 1886 0
-1882 -1888 0
1878 1879 1881 1882 1888 0
1882 -1884 1885 1886 0
1882 1884 -1885 1886 0
-1883 -1888 0
-1886 -1888 0
-1886 -1887 0
1886 1887 1888 0
-2017 1889 0
2017 -1889 0
-2018 1890 0
2018 -1890 0
-2019 1891 0
2019 -1891 0
-2020 1892 0
2020 -1892 0
-2021 1893 0
2021 -1893 0
-2022 1894 0
2022 -1894 0
-2023 1895 0
2023 -1895 0
-2024 1896 0
2024 -1896 0
-2025 1897 0
2025 -1897 0
-2026 1898 0
2026 -1898 0
-2027 1899 0
2027 -1899 0
-2028 1900 0
2028 -1900 0
-2029 1901 0
2029 -1901 0
-2030 1902 0
2030 -1902 0
-2031 1903 0
2031 -1903 0
-2032 1904 0
2032 -1904 0
-2033 1905 0
2033 -1905 0
-2034 1906 0
2034 -1906 0
-2035 1907 0
2035 -1907 0
-2036 1908 0
2036 -1908 0
-2037 1909 0
2037 -1909 0
-2038 1910 0
2038 -1910 0
-2039 1911 0
2039 -1911 0
-2040 1912 0
2040 -1912 0
-2041 1913 0
2041 -1913 0
-2042 1914 0
2042 -1914 0
-2043 1915 0
2043 -1915 0
-2044 1916 0
2044 -1916 0
-2045 1917 0
2045 -1917 0
-2046 1918 0
2046 -1918 0
-2047 1919 0
2047 -1919 0
-2048 1920 0
2048 -1920 0
-2049 1921 0
2049 -1921 0
-2050 1922 0
2050 -1922 0
-2051 1923 0
2051 -1923 0
-2052 1924 0
2052 -1924 0
-2053 1925 0
2053 -1925 0
-2054 1926 0
2054 -1926 0
-2055 1927 0
2055 -1927 0
-2056 1928 0
2056 -1928 0
-2057 1929 0
2057 -1929 0
-2058 1930 0
2058 -1930 0
-2059 1931 0
2059 -1931 0
-2060 1932 0
2060 -1932 0
-2061 1933 0
2061 -1933 0
-2062 1934 0
2062 -1934 0
-2063 1935 0
2063 -1935 0
-2064 1936 0
2064 -1936 0
-2065 1937 0
2065 -1937 0
-2066 1938 0
2066 -1938 0
-2067 1939 0
2067 -1939 0
-2068 1940 0
2068 -1940 0
-2069 1941 0
2069 -1941 0
-2070 1942 0
2070 -1942 0
-2071 1943 0
2071 -1943 0
-2072 1944 0
2072 -1944 0
-2073 1945 0
2073 -1945 0
-2074 1946 0
2074 -1946 0
-2075 1947 0
2075 -1947 0
-2076 1948 0
2076 -1948 0
-2077 1949 0
2077 -1949 0
-2078 1950 0
2078 -1950 0
-2079 1951 0
2079 -1951 0
-2080 1952 0
2080 -1952 0
-2081 1953 0
2081 -1953 0
-2082 1954 0
2082 -1954 0
-2083 1955 0
2083 -1955 0
-2084 1956 0
2084 -1956 0
-2085 1957 0
2085 -1957 0
-2086 1958 0
2086 -1958 0
-2087 1959 0
2087 -1959 0
-2088 1960 0
2088 -1960 0
-2089 1961 0
2089 -1961 0
-2090 1962 0
2090 -1962 0
-2091 1963 0
2091 -1963 0
-2092 1964 0
2092 -1964 0
-2093 1965 0
2093 -1965 0
-2094 1966 0
2094 -1966 0
-2095 1967 0
2095 -1967 0
-2096 1968 0
2096 -1968 0
-2097 1969 0
2097 -1969 0
-2098 1970 0
2098 -1970 0
-2099 1971 0
2099 -1971 0
-2100 1972 0
2100 -1972 0
-2101 1973 0
2101 -1973 0
-2102 1974 0
2102 -1974 0
-2103 1975 0
2103 -1975 0
-2104 1976 0
2104 -1976 0
-2105 1977 0
2105 -1977 0
-2106 1978 0
2106 -1978 0
-2107 1979 0
2107 -1979 0
-2108 1980 0
2108 -1980 0
-2109 1981 0
2109 -1981 0
-2110 1982 0
2110 -1982 0
-2111 1983 0
2111 -1983 0
-2112 1984 0
2112 -1984 0
-2113 1985 0
2113 -1985 0
-2114 1986 0
2114 -1986 0
-2115 1987 0
2115 -1987 0
-2116 1988 0
2116 -1988 0
-2117 1989 0
2117 -1989 0
-2118 1990 0
2118 -1990 0
-2119 1991 0
2119 -1991 0
-2120 1992 0
2120 -1992 0
-2121 1993 0
2121 -1993 0
-2122 1994 0
2122 -1994 0
-2123 1995 0
2123 -1995 0
-2124 1996 0
2124 -1996 0
-2125 1997 0
2125 -1997 0
-2126 1998 0
2126 -1998 0
-2127 1999 0
2127 -1999 0
-2128 2000 0
2128 -2000 0
-2129 2001 0
2129 -2001 0
-2130 2002 0
2130 -2002 0
-2131 2003 0
2131 -2003 0
-2132 2004 0
2132 -2004 0
-2133 2005 0
2133 -2005 0
-2134 2006 0
2134 -2006 0
-2135 2007 0
2135 -2007 0
-2136 2008 0
2136 -2008 0
-2137 2009 0
2137 -2009 0
-2138 2010 0
2138 -2010 0
-2139 2011 0
2139 -2011 0
-2140 2012 0
2140 -2012 0
-2141 2013 0
2141 -2013 0
-2142 2014 0
2142 -2014 0
-2143 2015 0
2143 -2015 0
-2144 2016 0
2144 -2016 0
1025 -1281 0
-1025 1281 0
1026 -1282 0
-1026 1282 0
1027 -1283 0
-1027 1283 0
1028 -1284 0
-1028 1284 0
1029 -1285 0
-1029 1285 0
1030 -1286 0
-1030 1286 0
1031 -1287 0
-1031 1287 0
1032 -1288 0
-1032 1288 0
1033 -1289 0
-1033 1289 0
1034 -1290 0
-1034 1290 0
1035 -1291 0
-1035 1291 0
1036 -1292 0
-1036 1292 0
1037 -1293 0
-1037 1293 0
1038 -1294 0
-1038 1294 0
1039 -1295 0
-1039 1295 0
1040 -1296 0
-1040 1296 0
1041 -1297 0
-1041 1297 0
1042 -1298 0
-1042 1298 0
1043 -1299 0
-1043 1299 0
1044 -1300 0
-1044 1300 0
1045 -1301 0
-1045 1301 0
1046 -1302 0
-1046 1302 0
1047 -1303 0
-1047 1303 0
1048 -1304 0
-1048 1304 0
1049 -1305 0
-1049 1305 0
1050 -1306 0
-1050 1306 0
1051 -1307 0
-1051 1307 0
1052 -1308 0
-1052 1308 0
1053 -1309 0
-1053 1309 0
1054 -1310 0
-1054 1310 0
1055 -1311 0
-1055 1311 0
1056 -1312 0
-1056 1312 0
1057 -1313 0
-1057 1313 0
1058 -1314 0
-1058 1314 0
1059 -1315 0
-1059 1315 0
1060 -1316 0
-1060 1316 0
1061 -1317 0
-1061 1317 0
1062 -1318 0
-1062 1318 0
1063 -1319 0
-1063 1319 0
1064 -1320 0
-1064 1320 0
1065 -1321 0
-1065 1321 0
1066 -1322 0
-1066 1322 0
1067 -1323 0
-1067 1323 0
1068 -1324 0
-1068 1324 0
1069 -1325 0
-1069 1325 0
1070 -1326 0
-1070 1326 0
1071 -1327 0
-1071 1327 0
1072 -1328 0
-1072 1328 0
1073 -1329 0
-1073 1329 0
1074 -1330 0
-1074 1330 0
1075 -1331 0
-1075 1331 0
1076 -1332 0
-1076 1332 0
1077 -1333 0
-1077 1333 0
1078 -1334 0
-1078 1334 0
1079 -1335 0
-1079 1335 0
1080 -1336 0
-1080 1336 0
1081 -1337 0
-1081 1337 0
1082 -1338 0
-1082 1338 0
1083 -1339 0
-1083 1339 0
1084 -1340 0
-1084 1340 0
1085 -1341 0
-1085 1341 0
1086 -1342 0
-1086 1342 0
1087 -1343 0
-1087 1343 0
1088 -1344 0
-1088 1344 0
1089 -1345 0
-1089 1345 0
1090 -1346 0
-1090 1346 0
1091 -1347 0
-1091 1347 0
1092 -1348 0
-1092 1348 0
1093 -1349 0
-1093 1349 0
1094 -1350 0
-1094 1350 0
1095 -1351 0
-1095 1351 0
1096 -1352 0
-1096 1352 0
1097 -1353 0
-1097 1353 0
1098 -1354 0
-1098 1354 0
1099 -1355 0
-1099 1355 0
1100 -1356 0
-1100 1356 0
1101 -1357 0
-1101 1357 0
1102 -1358 0
-1102 1358 0
1103 -1359 0
-1103 1359 0
1104 -1360 0
-1104 1360 0
1105 -1361 0
-1105 1361 0
1106 -1362 0
-1106 1362 0
1107 -1363 0
-1107 1363 0
1108 -1364 0
-1108 1364 0
1109 -1365 0
-1109 1365 0
1110 -1366 0
-1110 1366 0
1111 -1367 0
-1111 1367 0
1112 -1368 0
-1112 1368 0
1113 -1369 0
-1113 1369 0
1114 -1370 0
-1114 1370 0
1115 -1371 0
-1115 1371 0
1116 -1372 0
-1116 1372 0
1117 -1373 0
-1117 1373 0
1118 -1374 0
-1118 1374 0
1119 -1375 0
-1119 1375 0
1120 -1376 0
-1120 1376 0
1121 -1377 0
-1121 1377 0
1122 -1378 0
-1122 1378 0
1123 -1379 0
-1123 1379 0
1124 -1380 0
-1124 1380 0
1125 -1381 0
-1125 1381 0
1126 -1382 0
-1126 1382 0
1127 -1383 0
-1127 1383 0
1128 -1384 0
-1128 1384 0
1129 -1385 0
-1129 1385 0
1130 -1386 0
-1130 1386 0
1131 -1387 0
-1131 1387 0
1132 -1388 0
-1132 1388 0
1133 -1389 0
-1133 1389 0
1134 -1390 0
-1134 1390 0
1135 -1391 0
-1135 1391 0
1136 -1392 0
-1136 1392 0
1137 -1393 0
-1137 1393 0
1138 -1394 0
-1138 1394 0
1139 -1395 0
-1139 1395 0
1140 -1396 0
-1140 1396 0
1141 -1397 0
-1141 1397 0
1142 -1398 0
-1142 1398 0
1143 -1399 0
-1143 1399 0
1144 -1400 0
-1144 1400 0
1145 -1401 0
-1145 1401 0
1146 -1402 0
-1146 1402 0
1147 -1403 0
-1147 1403 0
1148 -1404 0
-1148 1404 0
1149 -1405 0
-1149 1405 0
1150 -1406 0
-1150 1406 0
1151 -1407 0
-1151 1407 0
1152 -1408 0
-1152 1408 0
2017 -1153 0
-2017 1153 0
2018 -1154 0
-2018 1154 0
2019 -1155 0
-2019 1155 0
2020 -1156 0
-2020 1156 0
2021 -1157 0
-2021 1157 0
2022 -1158 0
-2022 1158 0
2023 -1159 0
-2023 1159 0
2024 -1160 0
-2024 1160 0
2025 -1161 0
-2025 1161 0
2026 -1162 0
-2026 1162 0
2027 -1163 0
-2027 1163 0
2028 -1164 0
-2028 1164 0
2029 -1165 0
-2029 1165 0
2030 -1166 0
-2030 1166 0
2031 -1167 0
-2031 1167 0
2032 -1168 0
-2032 1168 0
2033 -1169 0
-2033 1169 0
2034 -1170 0
-2034 1170 0
2035 -1171 0
-2035 1171 0
2036 -1172 0
-2036 1172 0
2037 -1173 0
-2037 1173 0
2038 -1174 0
-2038 1174 0
2039 -1175 0
-2039 1175 0
2040 -1176 0
-2040 1176 0
2041 -1177 0
-2041 1177 0
2042 -1178 0
-2042 1178 0
2043 -1179 0
-2043 1179 0
2044 -1180 0
-2044 1180 0
2045 -1181 0
-2045 1181 0
2046 -1182 0
-2046 1182 0
2047 -1183 0
-2047 1183 0
2048 -1184 0
-2048 1184 0
2049 -1185 0
-2049 1185 0
2050 -1186 0
-2050 1186 0
2051 -1187 0
-2051 1187 0
2052 -1188 0
-2052 1188 0
2053 -1189 0
-2053 1189 0
2054 -1190 0
-2054 1190 0
2055 -1191 0
-2055 1191 0
2056 -1192 0
-2056 1192 0
2057 -1193 0
-2057 1193 0
2058 -1194 0
-2058 1194 0
2059 -1195 0
-2059 1195 0
2060 -1196 0
-2060 1196 0
2061 -1197 0
-2061 1197 0
2062 -1198 0
-2062 1198 0
2063 -1199 0
-2063 1199 0
2064 -1200 0
-2064 1200 0
2065 -1201 0
-2065 1201 0
2066 -1202 0
-2066 1202 0
2067 -1203 0
-2067 1203 0
2068 -1204 0
-2068 1204 0
2069 -1205 0
-2069 1205 0
2070 -1206 0
-2070 1206 0
2071 -1207 0
-2071 1207 0
2072 -1208 0
-2072 1208 0
2073 -1209 0
-2073 1209 0
2074 -1210 0
-2074 1210 0
2075 -1211 0
-2075 1211 0
2076 -1212 0
-2076 1212 0
2077 -1213 0
-2077 1213 0
2078 -1214 0
-2078 1214 0
2079 -1215 0
-2079 1215 0
2080 -1216 0
-2080 1216 0
2081 -1217 0
-2081 1217 0
2082 -1218 0
-2082 1218 0
2083 -1219 0
-2083 1219 0
2084 -1220 0
-2084 1220 0
2085 -1221 0
-2085 1221 0
2086 -1222 0
-2086 1222 0
2087 -1223 0
-2087 1223 0
2088 -1224 0
-2088 1224 0
2089 -1225 0
-2089 1225 0
2090 -1226 0
-2090 1226 0
2091 -1227 0
-2091 1227 0
2092 -1228 0
-2092 1228 0
2093 -1229 0
-2093 1229 0
2094 -1230 0
-2094 1230 0
2095 -1231 0
-2095 1231 0
2096 -1232 0
-2096 1232 0
2097 -1233 0
-2097 1233 0
2098 -1234 0
-2098 1234 0
2099 -1235 0
-2099 1235 0
2100 -1236 0
-2100 1236 0
2101 -1237 0
-2101 1237 0
2102 -1238 0
-2102 1238 0
2103 -1239 0
-2103 1239 0
2104 -1240 0
-2104 1240 0
2105 -1241 0
-2105 1241 0
2106 -1242 0
-2106 1242 0
2107 -1243 0
-2107 1243 0
2108 -1244 0
-2108 1244 0
2109 -1245 0
-2109 1245 0
2110 -1246 0
-2110 1246 0
2111 -1247 0
-2111 1247 0
2112 -1248 0
-2112 1248 0
2113 -1249 0
-2113 1249 0
2114 -1250 0
-2114 1250 0
2115 -1251 0
-2115 1251 0
2116 -1252 0
-2116 1252 0
2117 -1253 0
-2117 1253 0
2118 -1254 0
-2118 1254 0
2119 -1255 0
-2119 1255 0
2120 -1256 0
-2120 1256 0
2121 -1257 0
-2121 1257 0
2122 -1258 0
-2122 1258 0
2123 -1259 0
-2123 1259 0
2124 -1260 0
-2124 1260 0
2125 -1261 0
-2125 1261 0
2126 -1262 0
-2126 1262 0
2127 -1263 0
-2127 1263 0
2128 -1264 0
-2128 1264 0
2129 -1265 0
-2129 1265 0
2130 -1266 0
-2130 1266 0
2131 -1267 0
-2131 1267 0
2132 -1268 0
-2132 1268 0
2133 -1269 0
-2133 1269 0
2134 -1270 0
-2134 1270 0
2135 -1271 0
-2135 1271 0
2136 -1272 0
-2136 1272 0
2137 -1273 0
-2137 1273 0
2138 -1274 0
-2138 1274 0
2139 -1275 0
-2139 1275 0
2140 -1276 0
-2140 1276 0
2141 -1277 0
-2141 1277 0
2142 -1278 0
-2142 1278 0
2143 -1279 0
-2143 1279 0
2144 -1280 0
-2144 1280 0
-1533 1537 0
1533 -1537 0
-1534 1538 0
1534 -1538 0
-1535 1539 0
1535 -1539 0
-1536 1540 0
1536 -1540 0
-1529 1548 0
1529 -1548 0
-1530 1549 0
1530 -1549 0
-1531 1550 0
1531 -1550 0
-1532 1551 0
1532 -1551 0
-1525 1559 0
1525 -1559 0
-1526 1560 0
1526 -1560 0
-1527 1561 0
1527 -1561 0
-1528 1562 0
1528 -1562 0
-1521 1570 0
1521 -1570 0
-1522 1571 0
1522 -1571 0
-1523 1572 0
1523 -1572 0
-1524 1573 0
1524 -1573 0
-1517 1581 0
1517 -1581 0
-1518 1582 0
1518 -1582 0
-1519 1583 0
1519 -1583 0
-1520 1584 0
1520 -1584 0
-1513 1592 0
1513 -1592 0
-1514 1593 0
1514 -1593 0
-1515 1594 0
1515 -1594 0
-1516 1595 0
1516 -1595 0
-1509 1603 0
1509 -1603 0
-1510 1604 0
1510 -1604 0
-1511 1605 0
1511 -1605 0
-1512 1606 0
1512 -1606 0
-1505 1614 0
1505 -1614 0
-1506 1615 0
1506 -1615 0
-1507 1616 0
1507 -1616 0
-1508 1617 0
1508 -1617 0
-1501 1625 0
1501 -1625 0
-1502 1626 0
1502 -1626 0
-1503 1627 0
1503 -1627 0
-1504 1628 0
1504 -1628 0
-1497 1636 0
1497 -1636 0
-1498 1637 0
1498 -1637 0
-1499 1638 0
1499 -1638 0
-1500 1639 0
1500 -1639 0
-1493 1647 0
1493 -1647 0
-1494 1648 0
1494 -1648 0
-1495 1649 0
1495 -1649 0
-1496 1650 0
1496 -1650 0
-1489 1658 0
1489 -1658 0
-1490 1659 0
1490 -1659 0
-1491 1660 0
1491 -1660 0
-1492 1661 0
1492 -1661 0
-1485 1669 0
1485 -1669 0
-1486 1670 0
1486 -1670 0
-1487 1671 0
1487 -1671 0
-1488 1672 0
1488 -1672 0
-1481 1680 0
1481 -1680 0
-1482 1681 0
1482 -1681 0
-1483 1682 0
1483 -1682 0
-1484 1683 0
1484 -1683 0
-1477 1691 0
1477 -1691 0
-1478 1692 0
1478 -1692 0
-1479 1693 0
1479 -1693 0
-1480 1694 0
1480 -1694 0
-1473 1702 0
1473 -1702 0
-1474 1703 0
1474 -1703 0
-1475 1704 0
1475 -1704 0
-1476 1705 0
1476 -1705 0
-1469 1713 0
1469 -1713 0
-1470 1714 0
1470 -1714 0
-1471 1715 0
1471 -1715 0
-1472 1716 0
1472 -1716 0
-1465 1724 0
1465 -1724 0
-1466 1725 0
1466 -1725 0
-1467 1726 0
1467 -1726 0
-1468 1727 0
1468 -1727 0
-1461 1735 0
1461 -1735 0
-1462 1736 0
1462 -1736 0
-1463 1737 0
1463 -1737 0
-1464 1738 0
1464 -1738 0
-1457 1746 0
1457 -1746 0
-1458 1747 0
1458 -1747 0
-1459 1748 0
1459 -1748 0
-1460 1749 0
1460 -1749 0
-1453 1757 0
1453 -1757 0
-1454 1758 0
1454 -1758 0
-1455 1759 0
1455 -1759 0
-1456 1760 0
1456 -1760 0
-1449 1768 0
1449 -1768 0
-1450 1769 0
1450 -1769 0
-1451 1770 0
1451 -1770 0
-1452 1771 0
1452 -1771 0
-1445 1779 0
1445 -1779 0
-1446 1780 0
1446 -1780 0
-1447 1781 0
1447 -1781 0
-1448 1782 0
1448 -1782 0
-1441 1790 0
1441 -1790 0
-1442 1791 0
1442 -1791 0
-1443 1792 0
1443 -1792 0
-1444 1793 0
1444 -1793 0
-1437 1801 0
1437 -1801 0
-1438 1802 0
1438 -1802 0
-1439 1803 0
1439 -1803 0
-1440 1804 0
1440 -1804 0
-1433 1812 0
1433 -1812 0
-1434 1813 0
1434 -1813 0
-1435 1814 0
1435 -1814 0
-1436 1815 0
1436 -1815 0
-1429 1823 0
1429 -1823 0
-1430 1824 0
1430 -1824 0
-1431 1825 0
1431 -1825 0
-1432 1826 0
1432 -1826 0
-1425 1834 0
1425 -1834 0
-1426 1835 0
1426 -1835 0
-1427 1836 0
1427 -1836 0
-1428 1837 0
1428 -1837 0
-1421 1845 0
1421 -1845 0
-1422 1846 0
1422 -1846 0
-1423 1847 0
1423 -1847 0
-1424 1848 0
1424 -1848 0
-1417 1856 0
1417 -1856 0
-1418 1857 0
1418 -1857 0
-1419 1858 0
1419 -1858 0
-1420 1859 0
1420 -1859 0
-1413 1867 0
1413 -1867 0
-1414 1868 0
1414 -1868 0
-1415 1869 0
1415 -1869 0
-1416 1870 0
1416 -1870 0
-1409 1878 0
1409 -1878 0
-1410 1879 0
1410 -1879 0
-1411 1880 0
1411 -1880 0
-1412 1881 0
1412 -1881 0
-1882 1889 0
1882 -1889 0
-1883 1890 0
1883 -1890 0
-1884 1891 0
1884 -1891 0
-1885 1892 0
1885 -1892 0
-1871 1893 0
1871 -1893 0
-1872 1894 0
1872 -1894 0
-1873 1895 0
1873 -1895 0
-1874 1896 0
1874 -1896 0
-1860 1897 0
1860 -1897 0
-1861 1898 0
1861 -1898 0
-1862 1899 0
1862 -1899 0
-1863 1900 0
1863 -1900 0
-1849 1901 0
1849 -1901 0
-1850 1902 0
1850 -1902 0
-1851 1903 0
1851 -1903 0
-1852 1904 0
1852 -1904 0
-1838 1905 0
1838 -1905 0
-1839 1906 0
1839 -1906 0
-1840 1907 0
1840 -1907 0
-1841 1908 0
1841 -1908 0
-1827 1909 0
1827 -1909 0
-1828 1910 0
1828 -1910 0
-1829 1911 0
1829 -1911 0
-1830 1912 0
1830 -1912 0
-1816 1913 0
1816 -1913 0
-1817 1914 0
1817 -1914 0
-1818 1915 0
1818 -1915 0
-1819 1916 0
1819 -1916 0
-1805 1917 0
1805 -1917 0
-1806 1918 0
1806 -1918 0
-1807 1919 0
1807 -1919 0
-1808 1920 0
1808 -1920 0
-1794 1921 0
1794 -1921 0
-1795 1922 0
1795 -1922 0
-1796 1923 0
1796 -1923 0
-1797 1924 0
1797 -1924 0
-1783 1925 0
1783 -1925 0
-1784 1926 0
1784 -1926 0
-1785 1927 0
1785 -1927 0
-1786 1928 0
1786 -1928 0
-1772 1929 0
1772 -1929 0
-1773 1930 0
1773 -1930 0
-1774 1931 0
1774 -1931 0
-1775 1932 0
1775 -1932 0
-1761 1933 0
1761 -1933 0
-1762 1934 0
1762 -1934 0
-1763 1935 0
1763 -1935 0
-1764 1936 0
1764 -1936 0
-1750 1937 0
1750 -1937 0
-1751 1938 0
1751 -1938 0
-1752 1939 0
1752 -1939 0
-1753 1940 0
1753 -1940 0
-1739 1941 0
1739 -1941 0
-1740 1942 0
1740 -1942 0
-1741 1943 0
1741 -1943 0
-1742 1944 0
1742 -1944 0
-1728 1945 0
1728 -1945 0
-1729 1946 0
1729 -1946 0
-1730 1947 0
1730 -1947 0
-1731 1948 0
1731 -1948 0
-1717 1949 0
1717 -1949 0
-1718 1950 0
1718 -1950 0
-1719 1951 0
1719 -1951 0
-1720 1952 0
1720 -1952 0
-1706 1953 0
1706 -1953 0
-1707 1954 0
1707 -1954 0
-1708 1955 0
1708 -1955 0
-1709 1956 0
1709 -1956 0
-1695 1957 0
1695 -1957 0
-1696 1958 0
1696 -1958 0
-1697 1959 0
1697 -1959 0
-1698 1960 0
1698 -1960 0
-1684 1961 0
1684 -1961 0
-1685 1962 0
1685 -1962 0
-1686 1963 0
1686 -1963 0
-1687 1964 0
1687 -1964 0
-1673 1965 0
1673 -1965 0
-1674 1966 0
1674 -1966 0
-1675 1967 0
1675 -1967 0
-1676 1968 0
1676 -1968 0
-1662 1969 0
1662 -1969 0
-1663 1970 0
1663 -1970 0
-1664 1971 0
1664 -1971 0
-1665 1972 0
1665 -1972 0
-1651 1973 0
1651 -1973 0
-1652 1974 0
1652 -1974 0
-1653 1975 0
1653 -1975 0
-1654 1976 0
1654 -1976 0
-1640 1977 0
1640 -1977 0
-1641 1978 0
1641 -1978 0
-1642 1979 0
1642 -1979 0
-1643 1980 0
1643 -1980 0
-1629 1981 0
1629 -1981 0
-1630 1982 0
1630 -1982 0
-1631 1983 0
1631 -1983 0
-1632 1984 0
1632 -1984 0
-1618 1985 0
1618 -1985 0
-1619 1986 0
1619 -1986 0
-1620 1987 0
1620 -1987 0
-1621 1988 0
1621 -1988 0
-1607 1989 0
1607 -1989 0
-1608 1990 0
1608 -1990 0
-1609 1991 0
1609 -1991 0
-1610 1992 0
1610 -1992 0
-1596 1993 0
1596 -1993 0
-1597 1994 0
1597 -1994 0
-1598 1995 0
1598 -1995 0
-1599 1996 0
1599 -1996 0
-1585 1997 0
1585 -1997 0
-1586 1998 0
1586 -1998 0
-1587 1999 0
1587 -1999 0
-1588 2000 0
1588 -2000 0
-1574 2001 0
1574 -2001 0
-1575 2002 0
1575 -2002 0
-1576 2003 0
1576 -2003 0
-1577 2004 0
1577 -2004 0
-1563 2005 0
1563 -2005 0
-1564 2006 0
1564 -2006 0
-1565 2007 0
1565 -2007 0
-1566 2008 0
1566 -2008 0
-1552 2009 0
1552 -2009 0
-1553 2010 0
1553 -2010 0
-1554 2011 0
1554 -2011 0
-1555 2012 0
1555 -2012 0
-1541 2013 0
1541 -2013 0
-1542 2014 0
1542 -2014 0
-1543 2015 0
1543 -2015 0
-1544 2016 0
1544 -2016 0
2173 2186 -2401 0
2173 -2186 2401 0
-2173 2186 2401 0
-2173 -2186 -2401 0
2401 2240 -2273 0
2401 -2240 2273 0
-2401 2240 2273 0
-2401 -2240 -2273 0
2146 2150 -2402 0
2146 -2150 2402 0
-2146 2150 2402 0
-2146 -2150 -2402 0
2402 2192 -2403 0
2402 -2192 2403 0
-2402 2192 2403 0
-2402 -2192 -2403 0
2403 2246 -2404 0
2403 -2246 2404 0
-2403 2246 2404 0
-2403 -2246 -2404 0
2404 2261 -2405 0
2404 -2261 2405 0
-2404 2261 2405 0
-2404 -2261 -2405 0
2405 2267 -2274 0
2405 -2267 2274 0
-2405 2267 2274 0
-2405 -2267 -2274 0
2151 2162 -2406 0
2151 -2162 2406 0
-2151 2162 2406 0
-2151 -2162 -2406 0
2406 2204 -2275 0
2406 -2204 2275 0
-2406 2204 2275 0
-2406 -2204 -2275 0
2171 2182 -2407 0
2171 -2182 2407 0
-2171 2182 2407 0
-2171 -2182 -2407 0
2407 2193 -2408 0
2407 -2193 2408 0
-2407 2193 2408 0
-2407 -2193 -2408 0
2408 2206 -2409 0
2408 -2206 2409 0
-2408 2206 2409 0
-2408 -2206 -2409 0
2409 2220 -2410 0
2409 -2220 2410 0
-2409 2220 2410 0
-2409 -2220 -2410 0
2410 2224 -2411 0
2410 -2224 2411 0
-2410 2224 2411 0
-2410 -2224 -2411 0
2411 2260 -2276 0
2411 -2260 2276 0
-2411 2260 2276 0
-2411 -2260 -2276 0
2177 2190 -2412 0
2177 -2190 2412 0
-2177 2190 2412 0
-2177 -2190 -2412 0
2412 2244 -2277 0
2412 -2244 2277 0
-2412 2244 2277 0
-2412 -2244 -2277 0
2150 2154 -2413 0
2150 -2154 2413 0
-2150 2154 2413 0
-2150 -2154 -2413 0
2413 2196 -2414 0
2413 -2196 2414 0
-2413 2196 2414 0
-2413 -2196 -2414 0
2414 2250 -2415 0
2414 -2250 2415 0
-2414 2250 2415 0
-2414 -2250 -2415 0
2415 2265 -2416 0
2415 -2265 2416 0
-2415 2265 2416 0
-2415 -2265 -2416 0
2416 2271 -2278 0
2416 -2271 2278 0
-2416 2271 2278 0
-2416 -2271 -2278 0
2155 2166 -2417 0
2155 -2166 2417 0
-2155 2166 2417 0
-2155 -2166 -2417 0
2417 2208 -2279 0
2417 -2208 2279 0
-2417 2208 2279 0
-2417 -2208 -2279 0
2175 2186 -2418 0
2175 -2186 2418 0
-2175 2186 2418 0
-2175 -2186 -2418 0
2418 2197 -2419 0
2418 -2197 2419 0
-2418 2197 2419 0
-2418 -2197 -2419 0
2419 2210 -2420 0
2419 -2210 2420 0
-2419 2210 2420 0
-2419 -2210 -2420 0
2420 2224 -2421 0
2420 -2224 2421 0
-2420 2224 2421 0
-2420 -2224 -2421 0
2421 2228 -2422 0
2421 -2228 2422 0
-2421 2228 2422 0
-2421 -2228 -2422 0
2422 2264 -2280 0
2422 -2264 2280 0
-2422 2264 2280 0
-2422 -2264 -2280 0
2181 2194 -2423 0
2181 -2194 2423 0
-2181 2194 2423 0
-2181 -2194 -2423 0
2423 2248 -2281 0
2423 -2248 2281 0
-2423 2248 2281 0
-2423 -2248 -2281 0
2147 2154 -2424 0
2147 -2154 2424 0
-2147 2154 2424 0
-2147 -2154 -2424 0
2424 2158 -2425 0
2424 -2158 2425 0
-2424 2158 2425 0
-2424 -2158 -2425 0
2425 2200 -2426 0
2425 -2200 2426 0
-2425 2200 2426 0
-2425 -2200 -2426 0
2426 2254 -2427 0
2426 -2254 2427 0
-2426 2254 2427 0
-2426 -2254 -2427 0
2427 2269 -2282 0
2427 -2269 2282 0
-2427 2269 2282 0
-2427 -2269 -2282 0
2159 2170 -2428 0
2159 -2170 2428 0
-2159 2170 2428 0
-2159 -2170 -2428 0
2428 2212 -2283 0
2428 -2212 2283 0
-2428 2212 2283 0
-2428 -2212 -2283 0
2179 2190 -2429 0
2179 -2190 2429 0
-2179 2190 2429 0
-2179 -2190 -2429 0
2429 2201 -2430 0
2429 -2201 2430 0
-2429 2201 2430 0
-2429 -2201 -2430 0
2430 2214 -2431 0
2430 -2214 2431 0
-2430 2214 2431 0
-2430 -2214 -2431 0
2431 2228 -2432 0
2431 -2228 2432 0
-2431 2228 2432 0
-2431 -2228 -2432 0
2432 2232 -2433 0
2432 -2232 2433 0
-2432 2232 2433 0
-2432 -2232 -2433 0
2433 2268 -2284 0
2433 -2268 2284 0
-2433 2268 2284 0
-2433 -2268 -2284 0
2185 2198 -2434 0
2185 -2198 2434 0
-2185 2198 2434 0
-2185 -2198 -2434 0
2434 2252 -2285 0
2434 -2252 2285 0
-2434 2252 2285 0
-2434 -2252 -2285 0
2145 2158 -2435 0
2145 -2158 2435 0
-2145 2158 2435 0
-2145 -2158 -2435 0
2435 2212 -2436 0
2435 -2212 2436 0
-2435 2212 2436 0
-2435 -2212 -2436 0
2436 2258 -2286 0
2436 -2258 2286 0
-2436 2258 2286 0
-2436 -2258 -2286 0
2163 2174 -2437 0
2163 -2174 2437 0
-2163 2174 2437 0
-2163 -2174 -2437 0
2437 2216 -2287 0
2437 -2216 2287 0
-2437 2216 2287 0
-2437 -2216 -2287 0
2183 2194 -2438 0
2183 -2194 2438 0
-2183 2194 2438 0
-2183 -2194 -2438 0
2438 2205 -2439 0
2438 -2205 2439 0
-2438 2205 2439 0
-2438 -2205 -2439 0
2439 2218 -2440 0
2439 -2218 2440 0
-2439 2218 2440 0
-2439 -2218 -2440 0
2440 2232 -2441 0
2440 -2232 2441 0
-2440 2232 2441 0
-2440 -2232 -2441 0
2441 2236 -2442 0
2441 -2236 2442 0
-2441 2236 2442 0
-2441 -2236 -2442 0
2442 2272 -2288 0
2442 -2272 2288 0
-2442 2272 2288 0
-2442 -2272 -2288 0
2189 2202 -2443 0
2189 -2202 2443 0
-2189 2202 2443 0
-2189 -2202 -2443 0
2443 2256 -2289 0
2443 -2256 2289 0
-2443 2256 2289 0
-2443 -2256 -2289 0
2149 2162 -2444 0
2149 -2162 2444 0
-2149 2162 2444 0
-2149 -2162 -2444 0
2444 2216 -2445 0
2444 -2216 2445 0
-2444 2216 2445 0
-2444 -2216 -2445 0
2445 2262 -2290 0
2445 -2262 2290 0
-2445 2262 2290 0
-2445 -2262 -2290 0
2167 2178 -2446 0
2167 -2178 2446 0
-2167 2178 2446 0
-2167 -2178 -2446 0
2446 2220 -2291 0
2446 -2220 2291 0
-2446 2220 2291 0
-2446 -2220 -2291 0
2148 2187 -2447 0
2148 -2187 2447 0
-2148 2187 2447 0
-2148 -2187 -2447 0
2447 2198 -2448 0
2447 -2198 2448 0
-2447 2198 2448 0
-2447 -2198 -2448 0
2448 2209 -2449 0
2448 -2209 2449 0
-2448 2209 2449 0
-2448 -2209 -2449 0
2449 2222 -2450 0
2449 -2222 2450 0
-2449 2222 2450 0
-2449 -2222 -2450 0
2450 2236 -2451 0
2450 -2236 2451 0
-2450 2236 2451 0
-2450 -2236 -2451 0
2451 2240 -2292 0
2451 -2240 2292 0
-2451 2240 2292 0
-2451 -2240 -2292 0
2193 2206 -2452 0
2193 -2206 2452 0
-2193 2206 2452 0
-2193 -2206 -2452 0
2452 2260 -2293 0
2452 -2260 2293 0
-2452 2260 2293 0
-2452 -2260 -2293 0
2153 2166 -2453 0
2153 -2166 2453 0
-2153 2166 2453 0
-2153 -2166 -2453 0
2453 2220 -2454 0
2453 -2220 2454 0
-2453 2220 2454 0
-2453 -2220 -2454 0
2454 2266 -2294 0
2454 -2266 2294 0
-2454 2266 2294 0
-2454 -2266 -2294 0
2171 2182 -2455 0
2171 -2182 2455 0
-2171 2182 2455 0
-2171 -2182 -2455 0
2455 2224 -2295 0
2455 -2224 2295 0
-2455 2224 2295 0
-2455 -2224 -2295 0
2152 2191 -2456 0
2152 -2191 2456 0
-2152 2191 2456 0
-2152 -2191 -2456 0
2456 2202 -2457 0
2456 -2202 2457 0
-2456 2202 2457 0
-2456 -2202 -2457 0
2457 2213 -2458 0
2457 -2213 2458 0
-2457 2213 2458 0
-2457 -2213 -2458 0
2458 2226 -2459 0
2458 -2226 2459 0
-2458 2226 2459 0
-2458 -2226 -2459 0
2459 2240 -2460 0
2459 -2240 2460 0
-2459 2240 2460 0
-2459 -2240 -2460 0
2460 2244 -2296 0
2460 -2244 2296 0
-2460 2244 2296 0
-2460 -2244 -2296 0
2197 2210 -2461 0
2197 -2210 2461 0
-2197 2210 2461 0
-2197 -2210 -2461 0
2461 2264 -2297 0
2461 -2264 2297 0
-2461 2264 2297 0
-2461 -2264 -2297 0
2157 2170 -2462 0
2157 -2170 2462 0
-2157 2170 2462 0
-2157 -2170 -2462 0
2462 2224 -2463 0
2462 -2224 2463 0
-2462 2224 2463 0
-2462 -2224 -2463 0
2463 2270 -2298 0
2463 -2270 2298 0
-2463 2270 2298 0
-2463 -2270 -2298 0
2175 2186 -2464 0
2175 -2186 2464 0
-2175 2186 2464 0
-2175 -2186 -2464 0
2464 2228 -2299 0
2464 -2228 2299 0
-2464 2228 2299 0
-2464 -2228 -2299 0
2156 2195 -2465 0
2156 -2195 2465 0
-2156 2195 2465 0
-2156 -2195 -2465 0
2465 2206 -2466 0
2465 -2206 2466 0
-2465 2206 2466 0
-2465 -2206 -2466 0
2466 2217 -2467 0
2466 -2217 2467 0
-2466 2217 2467 0
-2466 -2217 -2467 0
2467 2230 -2468 0
2467 -2230 2468 0
-2467 2230 2468 0
-2467 -2230 -2468 0
2468 2244 -2469 0
2468 -2244 2469 0
-2468 2244 2469 0
-2468 -2244 -2469 0
2469 2248 -2300 0
2469 -2248 2300 0
-2469 2248 2300 0
-2469 -2248 -2300 0
2201 2214 -2470 0
2201 -2214 2470 0
-2201 2214 2470 0
-2201 -2214 -2470 0
2470 2268 -2301 0
2470 -2268 2301 0
-2470 2268 2301 0
-2470 -2268 -2301 0
2146 2161 -2471 0
2146 -2161 2471 0
-2146 2161 2471 0
-2146 -2161 -2471 0
2471 2174 -2472 0
2471 -2174 2472 0
-2471 2174 2472 0
-2471 -2174 -2472 0
2472 2228 -2302 0
2472 -2228 2302 0
-2472 2228 2302 0
-2472 -2228 -2302 0
2179 2190 -2473 0
2179 -2190 2473 0
-2179 2190 2473 0
-2179 -2190 -2473 0
2473 2232 -2303 0
2473 -2232 2303 0
-2473 2232 2303 0
-2473 -2232 -2303 0
2160 2199 -2474 0
2160 -2199 2474 0
-2160 2199 2474 0
-2160 -2199 -2474 0
2474 2210 -2475 0
2474 -2210 2475 0
-2474 2210 2475 0
-2474 -2210 -2475 0
2475 2221 -2476 0
2475 -2221 2476 0
-2475 2221 2476 0
-2475 -2221 -2476 0
2476 2234 -2477 0
2476 -2234 2477 0
-2476 2234 2477 0
-2476 -2234 -2477 0
2477 2248 -2478 0
2477 -2248 2478 0
-2477 2248 2478 0
-2477 -2248 -2478 0
2478 2252 -2304 0
2478 -2252 2304 0
-2478 2252 2304 0
-2478 -2252 -2304 0
2205 2218 -2479 0
2205 -2218 2479 0
-2205 2218 2479 0
-2205 -2218 -2479 0
2479 2272 -2305 0
2479 -2272 2305 0
-2479 2272 2305 0
-2479 -2272 -2305 0
2150 2165 -2480 0
2150 -2165 2480 0
-2150 2165 2480 0
-2150 -2165 -2480 0
2480 2178 -2481 0
2480 -2178 2481 0
-2480 2178 2481 0
-2480 -2178 -2481 0
2481 2232 -2306 0
2481 -2232 2306 0
-2481 2232 2306 0
-2481 -2232 -2306 0
2183 2194 -2482 0
2183 -2194 2482 0
-2183 2194 2482 0
-2183 -2194 -2482 0
2482 2236 -2307 0
2482 -2236 2307 0
-2482 2236 2307 0
-2482 -2236 -2307 0
2164 2203 -2483 0
2164 -2203 2483 0
-2164 2203 2483 0
-2164 -2203 -2483 0
2483 2214 -2484 0
2483 -2214 2484 0
-2483 2214 2484 0
-2483 -2214 -2484 0
2484 2225 -2485 0
2484 -2225 2485 0
-2484 2225 2485 0
-2484 -2225 -2485 0
2485 2238 -2486 0
2485 -2238 2486 0
-2485 2238 2486 0
-2485 -2238 -2486 0
2486 2252 -2487 0
2486 -2252 2487 0
-2486 2252 2487 0
-2486 -2252 -2487 0
2487 2256 -2308 0
2487 -2256 2308 0
-2487 2256 2308 0
-2487 -2256 -2308 0
2148 2209 -2488 0
2148 -2209 2488 0
-2148 2209 2488 0
-2148 -2209 -2488 0
2488 2222 -2309 0
2488 -2222 2309 0
-2488 2222 2309 0
-2488 -2222 -2309 0
2154 2169 -2489 0
2154 -2169 2489 0
-2154 2169 2489 0
-2154 -2169 -2489 0
2489 2182 -2490 0
2489 -2182 2490 0
-2489 2182 2490 0
-2489 -2182 -2490 0
2490 2236 -2310 0
2490 -2236 2310 0
-2490 2236 2310 0
-2490 -2236 -2310 0
2187 2198 -2491 0
2187 -2198 2491 0
-2187 2198 2491 0
-2187 -2198 -2491 0
2491 2240 -2311 0
2491 -2240 2311 0
-2491 2240 2311 0
-2491 -2240 -2311 0
2168 2207 -2492 0
2168 -2207 2492 0
-2168 2207 2492 0
-2168 -2207 -2492 0
2492 2218 -2493 0
2492 -2218 2493 0
-2492 2218 2493 0
-2492 -2218 -2493 0
2493 2229 -2494 0
2493 -2229 2494 0
-2493 2229 2494 0
-2493 -2229 -2494 0
2494 2242 -2495 0
2494 -2242 2495 0
-2494 2242 2495 0
-2494 -2242 -2495 0
2495 2256 -2496 0
2495 -2256 2496 0
-2495 2256 2496 0
-2495 -2256 -2496 0
2496 2260 -2312 0
2496 -2260 2312 0
-2496 2260 2312 0
-2496 -2260 -2312 0
2152 2213 -2497 0
2152 -2213 2497 0
-2152 2213 2497 0
-2152 -2213 -2497 0
2497 2226 -2313 0
2497 -2226 2313 0
-2497 2226 2313 0
-2497 -2226 -2313 0
2158 2173 -2498 0
2158 -2173 2498 0
-2158 2173 2498 0
-2158 -2173 -2498 0
2498 2179 -2499 0
2498 -2179 2499 0
-2498 2179 2499 0
-2498 -2179 -2499 0
2499 2186 -2500 0
2499 -2186 2500 0
-2499 2186 2500 0
-2499 -2186 -2500 0
2500 2190 -2501 0
2500 -2190 2501 0
-2500 2190 2501 0
-2500 -2190 -2501 0
2501 2232 -2502 0
2501 -2232 2502 0
-2501 2232 2502 0
-2501 -2232 -2502 0
2502 2240 -2314 0
2502 -2240 2314 0
-2502 2240 2314 0
-2502 -2240 -2314 0
2191 2202 -2503 0
2191 -2202 2503 0
-2191 2202 2503 0
-2191 -2202 -2503 0
2503 2244 -2315 0
2503 -2244 2315 0
-2503 2244 2315 0
-2503 -2244 -2315 0
2172 2211 -2504 0
2172 -2211 2504 0
-2172 2211 2504 0
-2172 -2211 -2504 0
2504 2222 -2505 0
2504 -2222 2505 0
-2504 2222 2505 0
-2504 -2222 -2505 0
2505 2233 -2506 0
2505 -2233 2506 0
-2505 2233 2506 0
-2505 -2233 -2506 0
2506 2246 -2507 0
2506 -2246 2507 0
-2506 2246 2507 0
-2506 -2246 -2507 0
2507 2260 -2508 0
2507 -2260 2508 0
-2507 2260 2508 0
-2507 -2260 -2508 0
2508 2264 -2316 0
2508 -2264 2316 0
-2508 2264 2316 0
-2508 -2264 -2316 0
2156 2217 -2509 0
2156 -2217 2509 0
-2156 2217 2509 0
-2156 -2217 -2509 0
2509 2230 -2317 0
2509 -2230 2317 0
-2509 2230 2317 0
-2509 -2230 -2317 0
2162 2177 -2510 0
2162 -2177 2510 0
-2162 2177 2510 0
-2162 -2177 -2510 0
2510 2183 -2511 0
2510 -2183 2511 0
-2510 2183 2511 0
-2510 -2183 -2511 0
2511 2190 -2512 0
2511 -2190 2512 0
-2511 2190 2512 0
-2511 -2190 -2512 0
2512 2194 -2513 0
2512 -2194 2513 0
-2512 2194 2513 0
-2512 -2194 -2513 0
2513 2236 -2514 0
2513 -2236 2514 0
-2513 2236 2514 0
-2513 -2236 -2514 0
2514 2244 -2318 0
2514 -2244 2318 0
-2514 2244 2318 0
-2514 -2244 -2318 0
2195 2206 -2515 0
2195 -2206 2515 0
-2195 2206 2515 0
-2195 -2206 -2515 0
2515 2248 -2319 0
2515 -2248 2319 0
-2515 2248 2319 0
-2515 -2248 -2319 0
2176 2215 -2516 0
2176 -2215 2516 0
-2176 2215 2516 0
-2176 -2215 -2516 0
2516 2226 -2517 0
2516 -2226 2517 0
-2516 2226 2517 0
-2516 -2226 -2517 0
2517 2237 -2518 0
2517 -2237 2518 0
-2517 2237 2518 0
-2517 -2237 -2518 0
2518 2250 -2519 0
2518 -2250 2519 0
-2518 2250 2519 0
-2518 -2250 -2519 0
2519 2264 -2520 0
2519 -2264 2520 0
-2519 2264 2520 0
-2519 -2264 -2520 0
2520 2268 -2320 0
2520 -2268 2320 0
-2520 2268 2320 0
-2520 -2268 -2320 0
2160 2221 -2521 0
2160 -2221 2521 0
-2160 2221 2521 0
-2160 -2221 -2521 0
2521 2234 -2321 0
2521 -2234 2321 0
-2521 2234 2321 0
-2521 -2234 -2321 0
2166 2181 -2522 0
2166 -2181 2522 0
-2166 2181 2522 0
-2166 -2181 -2522 0
2522 2187 -2523 0
2522 -2187 2523 0
-2522 2187 2523 0
-2522 -2187 -2523 0
2523 2194 -2524 0
2523 -2194 2524 0
-2523 2194 2524 0
-2523 -2194 -2524 0
2524 2198 -2525 0
2524 -2198 2525 0
-2524 2198 2525 0
-2524 -2198 -2525 0
2525 2240 -2526 0
2525 -2240 2526 0
-2525 2240 2526 0
-2525 -2240 -2526 0
2526 2248 -2322 0
2526 -2248 2322 0
-2526 2248 2322 0
-2526 -2248 -2322 0
2199 2210 -2527 0
2199 -2210 2527 0
-2199 2210 2527 0
-2199 -2210 -2527 0
2527 2252 -2323 0
2527 -2252 2323 0
-2527 2252 2323 0
-2527 -2252 -2323 0
2180 2219 -2528 0
2180 -2219 2528 0
-2180 2219 2528 0
-2180 -2219 -2528 0
2528 2230 -2529 0
2528 -2230 2529 0
-2528 2230 2529 0
-2528 -2230 -2529 0
2529 2241 -2530 0
2529 -2241 2530 0
-2529 2241 2530 0
-2529 -2241 -2530 0
2530 2254 -2531 0
2530 -2254 2531 0
-2530 2254 2531 0
-2530 -2254 -2531 0
2531 2268 -2532 0
2531 -2268 2532 0
-2531 2268 2532 0
-2531 -2268 -2532 0
2532 2272 -2324 0
2532 -2272 2324 0
-2532 2272 2324 0
-2532 -2272 -2324 0
2164 2225 -2533 0
2164 -2225 2533 0
-2164 2225 2533 0
-2164 -2225 -2533 0
2533 2238 -2325 0
2533 -2238 2325 0
-2533 2238 2325 0
-2533 -2238 -2325 0
2170 2185 -2534 0
2170 -2185 2534 0
-2170 2185 2534 0
-2170 -2185 -2534 0
2534 2191 -2535 0
2534 -2191 2535 0
-2534 2191 2535 0
-2534 -2191 -2535 0
2535 2198 -2536 0
2535 -2198 2536 0
-2535 2198 2536 0
-2535 -2198 -2536 0
2536 2202 -2537 0
2536 -2202 2537 0
-2536 2202 2537 0
-2536 -2202 -2537 0
2537 2244 -2538 0
2537 -2244 2538 0
-2537 2244 2538 0
-2537 -2244 -2538 0
2538 2252 -2326 0
2538 -2252 2326 0
-2538 2252 2326 0
-2538 -2252 -2326 0
2203 2214 -2539 0
2203 -2214 2539 0
-2203 2214 2539 0
-2203 -2214 -2539 0
2539 2256 -2327 0
2539 -2256 2327 0
-2539 2256 2327 0
-2539 -2256 -2327 0
2148 2184 -2540 0
2148 -2184 2540 0
-2148 2184 2540 0
-2148 -2184 -2540 0
2540 2223 -2541 0
2540 -2223 2541 0
-2540 2223 2541 0
-2540 -2223 -2541 0
2541 2234 -2542 0
2541 -2234 2542 0
-2541 2234 2542 0
-2541 -2234 -2542 0
2542 2245 -2543 0
2542 -2245 2543 0
-2542 2245 2543 0
-2542 -2245 -2543 0
2543 2258 -2544 0
2543 -2258 2544 0
-2543 2258 2544 0
-2543 -2258 -2544 0
2544 2272 -2328 0
2544 -2272 2328 0
-2544 2272 2328 0
-2544 -2272 -2328 0
2168 2229 -2545 0
2168 -2229 2545 0
-2168 2229 2545 0
-2168 -2229 -2545 0
2545 2242 -2329 0
2545 -2242 2329 0
-2545 2242 2329 0
-2545 -2242 -2329 0
2174 2189 -2546 0
2174 -2189 2546 0
-2174 2189 2546 0
-2174 -2189 -2546 0
2546 2195 -2547 0
2546 -2195 2547 0
-2546 2195 2547 0
-2546 -2195 -2547 0
2547 2202 -2548 0
2547 -2202 2548 0
-2547 2202 2548 0
-2547 -2202 -2548 0
2548 2206 -2549 0
2548 -2206 2549 0
-2548 2206 2549 0
-2548 -2206 -2549 0
2549 2248 -2550 0
2549 -2248 2550 0
-2549 2248 2550 0
-2549 -2248 -2550 0
2550 2256 -2330 0
2550 -2256 2330 0
-2550 2256 2330 0
-2550 -2256 -2330 0
2207 2218 -2551 0
2207 -2218 2551 0
-2207 2218 2551 0
-2207 -2218 -2551 0
2551 2260 -2331 0
2551 -2260 2331 0
-2551 2260 2331 0
-2551 -2260 -2331 0
2148 2152 -2552 0
2148 -2152 2552 0
-2148 2152 2552 0
-2148 -2152 -2552 0
2552 2188 -2553 0
2552 -2188 2553 0
-2552 2188 2553 0
-2552 -2188 -2553 0
2553 2227 -2554 0
2553 -2227 2554 0
-2553 2227 2554 0
-2553 -2227 -2554 0
2554 2238 -2555 0
2554 -2238 2555 0
-2554 2238 2555 0
-2554 -2238 -2555 0
2555 2249 -2556 0
2555 -2249 2556 0
-2555 2249 2556 0
-2555 -2249 -2556 0
2556 2262 -2332 0
2556 -2262 2332 0
-2556 2262 2332 0
-2556 -2262 -2332 0
2172 2233 -2557 0
2172 -2233 2557 0
-2172 2233 2557 0
-2172 -2233 -2557 0
2557 2246 -2333 0
2557 -2246 2333 0
-2557 2246 2333 0
-2557 -2246 -2333 0
2178 2193 -2558 0
2178 -2193 2558 0
-2178 2193 2558 0
-2178 -2193 -2558 0
2558 2199 -2559 0
2558 -2199 2559 0
-2558 2199 2559 0
-2558 -2199 -2559 0
2559 2206 -2560 0
2559 -2206 2560 0
-2559 2206 2560 0
-2559 -2206 -2560 0
2560 2210 -2561 0
2560 -2210 2561 0
-2560 2210 2561 0
-2560 -2210 -2561 0
2561 2252 -2562 0
2561 -2252 2562 0
-2561 2252 2562 0
-2561 -2252 -2562 0
2562 2260 -2334 0
2562 -2260 2334 0
-2562 2260 2334 0
-2562 -2260 -2334 0
2211 2222 -2563 0
2211 -2222 2563 0
-2211 2222 2563 0
-2211 -2222 -2563 0
2563 2264 -2335 0
2563 -2264 2335 0
-2563 2264 2335 0
-2563 -2264 -2335 0
2152 2156 -2564 0
2152 -2156 2564 0
-2152 2156 2564 0
-2152 -2156 -2564 0
2564 2192 -2565 0
2564 -2192 2565 0
-2564 2192 2565 0
-2564 -2192 -2565 0
2565 2231 -2566 0
2565 -2231 2566 0
-2565 2231 2566 0
-2565 -2231 -2566 0
2566 2242 -2567 0
2566 -2242 2567 0
-2566 2242 2567 0
-2566 -2242 -2567 0
2567 2253 -2568 0
2567 -2253 2568 0
-2567 2253 2568 0
-2567 -2253 -2568 0
2568 2266 -2336 0
2568 -2266 2336 0
-2568 2266 2336 0
-2568 -2266 -2336 0
2176 2237 -2569 0
2176 -2237 2569 0
-2176 2237 2569 0
-2176 -2237 -2569 0
2569 2250 -2337 0
2569 -2250 2337 0
-2569 2250 2337 0
-2569 -2250 -2337 0
2182 2197 -2570 0
2182 -2197 2570 0
-2182 2197 2570 0
-2182 -2197 -2570 0
2570 2203 -2571 0
2570 -2203 2571 0
-2570 2203 2571 0
-2570 -2203 -2571 0
2571 2210 -2572 0
2571 -2210 2572 0
-2571 2210 2572 0
-2571 -2210 -2572 0
2572 2214 -2573 0
2572 -2214 2573 0
-2572 2214 2573 0
-2572 -2214 -2573 0
2573 2256 -2574 0
2573 -2256 2574 0
-2573 2256 2574 0
-2573 -2256 -2574 0
2574 2264 -2338 0
2574 -2264 2338 0
-2574 2264 2338 0
-2574 -2264 -2338 0
2215 2226 -2575 0
2215 -2226 2575 0
-2215 2226 2575 0
-2215 -2226 -2575 0
2575 2268 -2339 0
2575 -2268 2339 0
-2575 2268 2339 0
-2575 -2268 -2339 0
2156 2160 -2576 0
2156 -2160 2576 0
-2156 2160 2576 0
-2156 -2160 -2576 0
2576 2196 -2577 0
2576 -2196 2577 0
-2576 2196 2577 0
-2576 -2196 -2577 0
2577 2235 -2578 0
2577 -2235 2578 0
-2577 2235 2578 0
-2577 -2235 -2578 0
2578 2246 -2579 0
2578 -2246 2579 0
-2578 2246 2579 0
-2578 -2246 -2579 0
2579 2257 -2580 0
2579 -2257 2580 0
-2579 2257 2580 0
-2579 -2257 -2580 0
2580 2270 -2340 0
2580 -2270 2340 0
-2580 2270 2340 0
-2580 -2270 -2340 0
2180 2241 -2581 0
2180 -2241 2581 0
-2180 2241 2581 0
-2180 -2241 -2581 0
2581 2254 -2341 0
2581 -2254 2341 0
-2581 2254 2341 0
-2581 -2254 -2341 0
2186 2201 -2582 0
2186 -2201 2582 0
-2186 2201 2582 0
-2186 -2201 -2582 0
2582 2207 -2583 0
2582 -2207 2583 0
-2582 2207 2583 0
-2582 -2207 -2583 0
2583 2214 -2584 0
2583 -2214 2584 0
-2583 2214 2584 0
-2583 -2214 -2584 0
2584 2218 -2585 0
2584 -2218 2585 0
-2584 2218 2585 0
-2584 -2218 -2585 0
2585 2260 -2586 0
2585 -2260 2586 0
-2585 2260 2586 0
-2585 -2260 -2586 0
2586 2268 -2342 0
2586 -2268 2342 0
-2586 2268 2342 0
-2586 -2268 -2342 0
2219 2230 -2587 0
2219 -2230 2587 0
-2219 2230 2587 0
-2219 -2230 -2587 0
2587 2272 -2343 0
2587 -2272 2343 0
-2587 2272 2343 0
-2587 -2272 -2343 0
2146 2160 -2588 0
2146 -2160 2588 0
-2146 2160 2588 0
-2146 -2160 -2588 0
2588 2164 -2589 0
2588 -2164 2589 0
-2588 2164 2589 0
-2588 -2164 -2589 0
2589 2239 -2590 0
2589 -2239 2590 0
-2589 2239 2590 0
-2589 -2239 -2590 0
2590 2250 -2591 0
2590 -2250 2591 0
-2590 2250 2591 0
-2590 -2250 -2591 0
2591 2261 -2344 0
2591 -2261 2344 0
-2591 2261 2344 0
-2591 -2261 -2344 0
2184 2245 -2592 0
2184 -2245 2592 0
-2184 2245 2592 0
-2184 -2245 -2592 0
2592 2258 -2345 0
2592 -2258 2345 0
-2592 2258 2345 0
-2592 -2258 -2345 0
2190 2205 -2593 0
2190 -2205 2593 0
-2190 2205 2593 0
-2190 -2205 -2593 0
2593 2211 -2594 0
2593 -2211 2594 0
-2593 2211 2594 0
-2593 -2211 -2594 0
2594 2218 -2595 0
2594 -2218 2595 0
-2594 2218 2595 0
-2594 -2218 -2595 0
2595 2222 -2596 0
2595 -2222 2596 0
-2595 2222 2596 0
-2595 -2222 -2596 0
2596 2264 -2597 0
2596 -2264 2597 0
-2596 2264 2597 0
-2596 -2264 -2597 0
2597 2272 -2346 0
2597 -2272 2346 0
-2597 2272 2346 0
-2597 -2272 -2346 0
2148 2223 -2598 0
2148 -2223 2598 0
-2148 2223 2598 0
-2148 -2223 -2598 0
2598 2234 -2347 0
2598 -2234 2347 0
-2598 2234 2347 0
-2598 -2234 -2347 0
2150 2164 -2599 0
2150 -2164 2599 0
-2150 2164 2599 0
-2150 -2164 -2599 0
2599 2168 -2600 0
2599 -2168 2600 0
-2599 2168 2600 0
-2599 -2168 -2600 0
2600 2243 -2601 0
2600 -2243 2601 0
-2600 2243 2601 0
-2600 -2243 -2601 0
2601 2254 -2602 0
2601 -2254 2602 0
-2601 2254 2602 0
-2601 -2254 -2602 0
2602 2265 -2348 0
2602 -2265 2348 0
-2602 2265 2348 0
-2602 -2265 -2348 0
2188 2249 -2603 0
2188 -2249 2603 0
-2188 2249 2603 0
-2188 -2249 -2603 0
2603 2262 -2349 0
2603 -2262 2349 0
-2603 2262 2349 0
-2603 -2262 -2349 0
2148 2194 -2604 0
2148 -2194 2604 0
-2148 2194 2604 0
-2148 -2194 -2604 0
2604 2209 -2605 0
2604 -2209 2605 0
-2604 2209 2605 0
-2604 -2209 -2605 0
2605 2215 -2606 0
2605 -2215 2606 0
-2605 2215 2606 0
-2605 -2215 -2606 0
2606 2222 -2607 0
2606 -2222 2607 0
-2606 2222 2607 0
-2606 -2222 -2607 0
2607 2226 -2608 0
2607 -2226 2608 0
-2607 2226 2608 0
-2607 -2226 -2608 0
2608 2268 -2350 0
2608 -2268 2350 0
-2608 2268 2350 0
-2608 -2268 -2350 0
2152 2227 -2609 0
2152 -2227 2609 0
-2152 2227 2609 0
-2152 -2227 -2609 0
2609 2238 -2351 0
2609 -2238 2351 0
-2609 2238 2351 0
-2609 -2238 -2351 0
2154 2168 -2610 0
2154 -2168 2610 0
-2154 2168 2610 0
-2154 -2168 -2610 0
2610 2172 -2611 0
2610 -2172 2611 0
-2610 2172 2611 0
-2610 -2172 -2611 0
2611 2247 -2612 0
2611 -2247 2612 0
-2611 2247 2612 0
-2611 -2247 -2612 0
2612 2258 -2613 0
2612 -2258 2613 0
-2612 2258 2613 0
-2612 -2258 -2613 0
2613 2269 -2352 0
2613 -2269 2352 0
-2613 2269 2352 0
-2613 -2269 -2352 0
2192 2253 -2614 0
2192 -2253 2614 0
-2192 2253 2614 0
-2192 -2253 -2614 0
2614 2266 -2353 0
2614 -2266 2353 0
-2614 2266 2353 0
-2614 -2266 -2353 0
2152 2198 -2615 0
2152 -2198 2615 0
-2152 2198 2615 0
-2152 -2198 -2615 0
2615 2213 -2616 0
2615 -2213 2616 0
-2615 2213 2616 0
-2615 -2213 -2616 0
2616 2219 -2617 0
2616 -2219 2617 0
-2616 2219 2617 0
-2616 -2219 -2617 0
2617 2226 -2618 0
2617 -2226 2618 0
-2617 2226 2618 0
-2617 -2226 -2618 0
2618 2230 -2619 0
2618 -2230 2619 0
-2618 2230 2619 0
-2618 -2230 -2619 0
2619 2272 -2354 0
2619 -2272 2354 0
-2619 2272 2354 0
-2619 -2272 -2354 0
2156 2231 -2620 0
2156 -2231 2620 0
-2156 2231 2620 0
-2156 -2231 -2620 0
2620 2242 -2355 0
2620 -2242 2355 0
-2620 2242 2355 0
-2620 -2242 -2355 0
2145 2158 -2621 0
2145 -2158 2621 0
-2145 2158 2621 0
-2145 -2158 -2621 0
2621 2172 -2622 0
2621 -2172 2622 0
-2621 2172 2622 0
-2621 -2172 -2622 0
2622 2176 -2623 0
2622 -2176 2623 0
-2622 2176 2623 0
-2622 -2176 -2623 0
2623 2212 -2624 0
2623 -2212 2624 0
-2623 2212 2624 0
-2623 -2212 -2624 0
2624 2251 -2625 0
2624 -2251 2625 0
-2624 2251 2625 0
-2624 -2251 -2625 0
2625 2262 -2356 0
2625 -2262 2356 0
-2625 2262 2356 0
-2625 -2262 -2356 0
2196 2257 -2626 0
2196 -2257 2626 0
-2196 2257 2626 0
-2196 -2257 -2626 0
2626 2270 -2357 0
2626 -2270 2357 0
-2626 2270 2357 0
-2626 -2270 -2357 0
2148 2156 -2627 0
2148 -2156 2627 0
-2148 2156 2627 0
-2148 -2156 -2627 0
2627 2202 -2628 0
2627 -2202 2628 0
-2627 2202 2628 0
-2627 -2202 -2628 0
2628 2217 -2629 0
2628 -2217 2629 0
-2628 2217 2629 0
-2628 -2217 -2629 0
2629 2223 -2630 0
2629 -2223 2630 0
-2629 2223 2630 0
-2629 -2223 -2630 0
2630 2230 -2631 0
2630 -2230 2631 0
-2630 2230 2631 0
-2630 -2230 -2631 0
2631 2234 -2358 0
2631 -2234 2358 0
-2631 2234 2358 0
-2631 -2234 -2358 0
2160 2235 -2632 0
2160 -2235 2632 0
-2160 2235 2632 0
-2160 -2235 -2632 0
2632 2246 -2359 0
2632 -2246 2359 0
-2632 2246 2359 0
-2632 -2246 -2359 0
2149 2162 -2633 0
2149 -2162 2633 0
-2149 2162 2633 0
-2149 -2162 -2633 0
2633 2176 -2634 0
2633 -2176 2634 0
-2633 2176 2634 0
-2633 -2176 -2634 0
2634 2180 -2635 0
2634 -2180 2635 0
-2634 2180 2635 0
-2634 -2180 -2635 0
2635 2216 -2636 0
2635 -2216 2636 0
-2635 2216 2636 0
-2635 -2216 -2636 0
2636 2255 -2637 0
2636 -2255 2637 0
-2636 2255 2637 0
-2636 -2255 -2637 0
2637 2266 -2360 0
2637 -2266 2360 0
-2637 2266 2360 0
-2637 -2266 -2360 0
2146 2261 -2361 0
2146 -2261 2361 0
-2146 2261 2361 0
-2146 -2261 -2361 0
2152 2160 -2638 0
2152 -2160 2638 0
-2152 2160 2638 0
-2152 -2160 -2638 0
2638 2206 -2639 0
2638 -2206 2639 0
-2638 2206 2639 0
-2638 -2206 -2639 0
2639 2221 -2640 0
2639 -2221 2640 0
-2639 2221 2640 0
-2639 -2221 -2640 0
2640 2227 -2641 0
2640 -2227 2641 0
-2640 2227 2641 0
-2640 -2227 -2641 0
2641 2234 -2642 0
2641 -2234 2642 0
-2641 2234 2642 0
-2641 -2234 -2642 0
2642 2238 -2362 0
2642 -2238 2362 0
-2642 2238 2362 0
-2642 -2238 -2362 0
2164 2239 -2643 0
2164 -2239 2643 0
-2164 2239 2643 0
-2164 -2239 -2643 0
2643 2250 -2363 0
2643 -2250 2363 0
-2643 2250 2363 0
-2643 -2250 -2363 0
2153 2166 -2644 0
2153 -2166 2644 0
-2153 2166 2644 0
-2153 -2166 -2644 0
2644 2180 -2645 0
2644 -2180 2645 0
-2644 2180 2645 0
-2644 -2180 -2645 0
2645 2184 -2646 0
2645 -2184 2646 0
-2645 2184 2646 0
-2645 -2184 -2646 0
2646 2220 -2647 0
2646 -2220 2647 0
-2646 2220 2647 0
-2646 -2220 -2647 0
2647 2259 -2648 0
2647 -2259 2648 0
-2647 2259 2648 0
-2647 -2259 -2648 0
2648 2270 -2364 0
2648 -2270 2364 0
-2648 2270 2364 0
-2648 -2270 -2364 0
2150 2265 -2365 0
2150 -2265 2365 0
-2150 2265 2365 0
-2150 -2265 -2365 0
2156 2164 -2649 0
2156 -2164 2649 0
-2156 2164 2649 0
-2156 -2164 -2649 0
2649 2210 -2650 0
2649 -2210 2650 0
-2649 2210 2650 0
-2649 -2210 -2650 0
2650 2225 -2651 0
2650 -2225 2651 0
-2650 2225 2651 0
-2650 -2225 -2651 0
2651 2231 -2652 0
2651 -2231 2652 0
-2651 2231 2652 0
-2651 -2231 -2652 0
2652 2238 -2653 0
2652 -2238 2653 0
-2652 2238 2653 0
-2652 -2238 -2653 0
2653 2242 -2366 0
2653 -2242 2366 0
-2653 2242 2366 0
-2653 -2242 -2366 0
2168 2243 -2654 0
2168 -2243 2654 0
-2168 2243 2654 0
-2168 -2243 -2654 0
2654 2254 -2367 0
2654 -2254 2367 0
-2654 2254 2367 0
-2654 -2254 -2367 0
2146 2157 -2655 0
2146 -2157 2655 0
-2146 2157 2655 0
-2146 -2157 -2655 0
2655 2170 -2656 0
2655 -2170 2656 0
-2655 2170 2656 0
-2655 -2170 -2656 0
2656 2184 -2657 0
2656 -2184 2657 0
-2656 2184 2657 0
-2656 -2184 -2657 0
2657 2188 -2658 0
2657 -2188 2658 0
-2657 2188 2658 0
-2657 -2188 -2658 0
2658 2224 -2659 0
2658 -2224 2659 0
-2658 2224 2659 0
-2658 -2224 -2659 0
2659 2263 -2368 0
2659 -2263 2368 0
-2659 2263 2368 0
-2659 -2263 -2368 0
2154 2269 -2369 0
2154 -2269 2369 0
-2154 2269 2369 0
-2154 -2269 -2369 0
2160 2168 -2660 0
2160 -2168 2660 0
-2160 2168 2660 0
-2160 -2168 -2660 0
2660 2214 -2661 0
2660 -2214 2661 0
-2660 2214 2661 0
-2660 -2214 -2661 0
2661 2229 -2662 0
2661 -2229 2662 0
-2661 2229 2662 0
-2661 -2229 -2662 0
2662 2235 -2663 0
2662 -2235 2663 0
-2662 2235 2663 0
-2662 -2235 -2663 0
2663 2242 -2664 0
2663 -2242 2664 0
-2663 2242 2664 0
-2663 -2242 -2664 0
2664 2246 -2370 0
2664 -2246 2370 0
-2664 2246 2370 0
-2664 -2246 -2370 0
2172 2247 -2665 0
2172 -2247 2665 0
-2172 2247 2665 0
-2172 -2247 -2665 0
2665 2258 -2371 0
2665 -2258 2371 0
-2665 2258 2371 0
-2665 -2258 -2371 0
2150 2161 -2666 0
2150 -2161 2666 0
-2150 2161 2666 0
-2150 -2161 -2666 0
2666 2174 -2667 0
2666 -2174 2667 0
-2666 2174 2667 0
-2666 -2174 -2667 0
2667 2188 -2668 0
2667 -2188 2668 0
-2667 2188 2668 0
-2667 -2188 -2668 0
2668 2192 -2669 0
2668 -2192 2669 0
-2668 2192 2669 0
-2668 -2192 -2669 0
2669 2228 -2670 0
2669 -2228 2670 0
-2669 2228 2670 0
-2669 -2228 -2670 0
2670 2267 -2372 0
2670 -2267 2372 0
-2670 2267 2372 0
-2670 -2267 -2372 0
2145 2158 -2671 0
2145 -2158 2671 0
-2145 2158 2671 0
-2145 -2158 -2671 0
2671 2212 -2373 0
2671 -2212 2373 0
-2671 2212 2373 0
-2671 -2212 -2373 0
2164 2172 -2672 0
2164 -2172 2672 0
-2164 2172 2672 0
-2164 -2172 -2672 0
2672 2218 -2673 0
2672 -2218 2673 0
-2672 2218 2673 0
-2672 -2218 -2673 0
2673 2233 -2674 0
2673 -2233 2674 0
-2673 2233 2674 0
-2673 -2233 -2674 0
2674 2239 -2675 0
2674 -2239 2675 0
-2674 2239 2675 0
-2674 -2239 -2675 0
2675 2246 -2676 0
2675 -2246 2676 0
-2675 2246 2676 0
-2675 -2246 -2676 0
2676 2250 -2374 0
2676 -2250 2374 0
-2676 2250 2374 0
-2676 -2250 -2374 0
2176 2251 -2677 0
2176 -2251 2677 0
-2176 2251 2677 0
-2176 -2251 -2677 0
2677 2262 -2375 0
2677 -2262 2375 0
-2677 2262 2375 0
-2677 -2262 -2375 0
2154 2165 -2678 0
2154 -2165 2678 0
-2154 2165 2678 0
-2154 -2165 -2678 0
2678 2178 -2679 0
2678 -2178 2679 0
-2678 2178 2679 0
-2678 -2178 -2679 0
2679 2192 -2680 0
2679 -2192 2680 0
-2679 2192 2680 0
-2679 -2192 -2680 0
2680 2196 -2681 0
2680 -2196 2681 0
-2680 2196 2681 0
-2680 -2196 -2681 0
2681 2232 -2682 0
2681 -2232 2682 0
-2681 2232 2682 0
-2681 -2232 -2682 0
2682 2271 -2376 0
2682 -2271 2376 0
-2682 2271 2376 0
-2682 -2271 -2376 0
2149 2162 -2683 0
2149 -2162 2683 0
-2149 2162 2683 0
-2149 -2162 -2683 0
2683 2216 -2377 0
2683 -2216 2377 0
-2683 2216 2377 0
-2683 -2216 -2377 0
2168 2176 -2684 0
2168 -2176 2684 0
-2168 2176 2684 0
-2168 -2176 -2684 0
2684 2222 -2685 0
2684 -2222 2685 0
-2684 2222 2685 0
-2684 -2222 -2685 0
2685 2237 -2686 0
2685 -2237 2686 0
-2685 2237 2686 0
-2685 -2237 -2686 0
2686 2243 -2687 0
2686 -2243 2687 0
-2686 2243 2687 0
-2686 -2243 -2687 0
2687 2250 -2688 0
2687 -2250 2688 0
-2687 2250 2688 0
-2687 -2250 -2688 0
2688 2254 -2378 0
2688 -2254 2378 0
-2688 2254 2378 0
-2688 -2254 -2378 0
2180 2255 -2689 0
2180 -2255 2689 0
-2180 2255 2689 0
-2180 -2255 -2689 0
2689 2266 -2379 0
2689 -2266 2379 0
-2689 2266 2379 0
-2689 -2266 -2379 0
2147 2158 -2690 0
2147 -2158 2690 0
-2147 2158 2690 0
-2147 -2158 -2690 0
2690 2169 -2691 0
2690 -2169 2691 0
-2690 2169 2691 0
-2690 -2169 -2691 0
2691 2182 -2692 0
2691 -2182 2692 0
-2691 2182 2692 0
-2691 -2182 -2692 0
2692 2196 -2693 0
2692 -2196 2693 0
-2692 2196 2693 0
-2692 -2196 -2693 0
2693 2200 -2694 0
2693 -2200 2694 0
-2693 2200 2694 0
-2693 -2200 -2694 0
2694 2236 -2380 0
2694 -2236 2380 0
-2694 2236 2380 0
-2694 -2236 -2380 0
2153 2166 -2695 0
2153 -2166 2695 0
-2153 2166 2695 0
-2153 -2166 -2695 0
2695 2220 -2381 0
2695 -2220 2381 0
-2695 2220 2381 0
-2695 -2220 -2381 0
2172 2180 -2696 0
2172 -2180 2696 0
-2172 2180 2696 0
-2172 -2180 -2696 0
2696 2226 -2697 0
2696 -2226 2697 0
-2696 2226 2697 0
-2696 -2226 -2697 0
2697 2241 -2698 0
2697 -2241 2698 0
-2697 2241 2698 0
-2697 -2241 -2698 0
2698 2247 -2699 0
2698 -2247 2699 0
-2698 2247 2699 0
-2698 -2247 -2699 0
2699 2254 -2700 0
2699 -2254 2700 0
-2699 2254 2700 0
-2699 -2254 -2700 0
2700 2258 -2382 0
2700 -2258 2382 0
-2700 2258 2382 0
-2700 -2258 -2382 0
2184 2259 -2701 0
2184 -2259 2701 0
-2184 2259 2701 0
-2184 -2259 -2701 0
2701 2270 -2383 0
2701 -2270 2383 0
-2701 2270 2383 0
-2701 -2270 -2383 0
2151 2162 -2702 0
2151 -2162 2702 0
-2151 2162 2702 0
-2151 -2162 -2702 0
2702 2173 -2703 0
2702 -2173 2703 0
-2702 2173 2703 0
-2702 -2173 -2703 0
2703 2186 -2704 0
2703 -2186 2704 0
-2703 2186 2704 0
-2703 -2186 -2704 0
2704 2200 -2705 0
2704 -2200 2705 0
-2704 2200 2705 0
-2704 -2200 -2705 0
2705 2204 -2706 0
2705 -2204 2706 0
-2705 2204 2706 0
-2705 -2204 -2706 0
2706 2240 -2384 0
2706 -2240 2384 0
-2706 2240 2384 0
-2706 -2240 -2384 0
2157 2170 -2707 0
2157 -2170 2707 0
-2157 2170 2707 0
-2157 -2170 -2707 0
2707 2224 -2385 0
2707 -2224 2385 0
-2707 2224 2385 0
-2707 -2224 -2385 0
2176 2184 -2708 0
2176 -2184 2708 0
-2176 2184 2708 0
-2176 -2184 -2708 0
2708 2230 -2709 0
2708 -2230 2709 0
-2708 2230 2709 0
-2708 -2230 -2709 0
2709 2245 -2710 0
2709 -2245 2710 0
-2709 2245 2710 0
-2709 -2245 -2710 0
2710 2251 -2711 0
2710 -2251 2711 0
-2710 2251 2711 0
-2710 -2251 -2711 0
2711 2258 -2712 0
2711 -2258 2712 0
-2711 2258 2712 0
-2711 -2258 -2712 0
2712 2262 -2386 0
2712 -2262 2386 0
-2712 2262 2386 0
-2712 -2262 -2386 0
2146 2188 -2713 0
2146 -2188 2713 0
-2146 2188 2713 0
-2146 -2188 -2713 0
2713 2263 -2387 0
2713 -2263 2387 0
-2713 2263 2387 0
-2713 -2263 -2387 0
2155 2166 -2714 0
2155 -2166 2714 0
-2155 2166 2714 0
-2155 -2166 -2714 0
2714 2177 -2715 0
2714 -2177 2715 0
-2714 2177 2715 0
-2714 -2177 -2715 0
2715 2190 -2716 0
2715 -2190 2716 0
-2715 2190 2716 0
-2715 -2190 -2716 0
2716 2204 -2717 0
2716 -2204 2717 0
-2716 2204 2717 0
-2716 -2204 -2717 0
2717 2208 -2718 0
2717 -2208 2718 0
-2717 2208 2718 0
-2717 -2208 -2718 0
2718 2244 -2388 0
2718 -2244 2388 0
-2718 2244 2388 0
-2718 -2244 -2388 0
2161 2174 -2719 0
2161 -2174 2719 0
-2161 2174 2719 0
-2161 -2174 -2719 0
2719 2228 -2389 0
2719 -2228 2389 0
-2719 2228 2389 0
-2719 -2228 -2389 0
2180 2188 -2720 0
2180 -2188 2720 0
-2180 2188 2720 0
-2180 -2188 -2720 0
2720 2234 -2721 0
2720 -2234 2721 0
-2720 2234 2721 0
-2720 -2234 -2721 0
2721 2249 -2722 0
2721 -2249 2722 0
-2721 2249 2722 0
-2721 -2249 -2722 0
2722 2255 -2723 0
2722 -2255 2723 0
-2722 2255 2723 0
-2722 -2255 -2723 0
2723 2262 -2724 0
2723 -2262 2724 0
-2723 2262 2724 0
-2723 -2262 -2724 0
2724 2266 -2390 0
2724 -2266 2390 0
-2724 2266 2390 0
-2724 -2266 -2390 0
2150 2192 -2725 0
2150 -2192 2725 0
-2150 2192 2725 0
-2150 -2192 -2725 0
2725 2267 -2391 0
2725 -2267 2391 0
-2725 2267 2391 0
-2725 -2267 -2391 0
2159 2170 -2726 0
2159 -2170 2726 0
-2159 2170 2726 0
-2159 -2170 -2726 0
2726 2181 -2727 0
2726 -2181 2727 0
-2726 2181 2727 0
-2726 -2181 -2727 0
2727 2194 -2728 0
2727 -2194 2728 0
-2727 2194 2728 0
-2727 -2194 -2728 0
2728 2208 -2729 0
2728 -2208 2729 0
-2728 2208 2729 0
-2728 -2208 -2729 0
2729 2212 -2730 0
2729 -2212 2730 0
-2729 2212 2730 0
-2729 -2212 -2730 0
2730 2248 -2392 0
2730 -2248 2392 0
-2730 2248 2392 0
-2730 -2248 -2392 0
2165 2178 -2731 0
2165 -2178 2731 0
-2165 2178 2731 0
-2165 -2178 -2731 0
2731 2232 -2393 0
2731 -2232 2393 0
-2731 2232 2393 0
-2731 -2232 -2393 0
2184 2192 -2732 0
2184 -2192 2732 0
-2184 2192 2732 0
-2184 -2192 -2732 0
2732 2238 -2733 0
2732 -2238 2733 0
-2732 2238 2733 0
-2732 -2238 -2733 0
2733 2253 -2734 0
2733 -2253 2734 0
-2733 2253 2734 0
-2733 -2253 -2734 0
2734 2259 -2735 0
2734 -2259 2735 0
-2734 2259 2735 0
-2734 -2259 -2735 0
2735 2266 -2736 0
2735 -2266 2736 0
-2735 2266 2736 0
-2735 -2266 -2736 0
2736 2270 -2394 0
2736 -2270 2394 0
-2736 2270 2394 0
-2736 -2270 -2394 0
2154 2196 -2737 0
2154 -2196 2737 0
-2154 2196 2737 0
-2154 -2196 -2737 0
2737 2271 -2395 0
2737 -2271 2395 0
-2737 2271 2395 0
-2737 -2271 -2395 0
2163 2174 -2738 0
2163 -2174 2738 0
-2163 2174 2738 0
-2163 -2174 -2738 0
2738 2185 -2739 0
2738 -2185 2739 0
-2738 2185 2739 0
-2738 -2185 -2739 0
2739 2198 -2740 0
2739 -2198 2740 0
-2739 2198 2740 0
-2739 -2198 -2740 0
2740 2212 -2741 0
2740 -2212 2741 0
-2740 2212 2741 0
-2740 -2212 -2741 0
2741 2216 -2742 0
2741 -2216 2742 0
-2741 2216 2742 0
-2741 -2216 -2742 0
2742 2252 -2396 0
2742 -2252 2396 0
-2742 2252 2396 0
-2742 -2252 -2396 0
2169 2182 -2743 0
2169 -2182 2743 0
-2169 2182 2743 0
-2169 -2182 -2743 0
2743 2236 -2397 0
2743 -2236 2397 0
-2743 2236 2397 0
-2743 -2236 -2397 0
2146 2188 -2744 0
2146 -2188 2744 0
-2146 2188 2744 0
-2146 -2188 -2744 0
2744 2196 -2745 0
2744 -2196 2745 0
-2744 2196 2745 0
-2744 -2196 -2745 0
2745 2242 -2746 0
2745 -2242 2746 0
-2745 2242 2746 0
-2745 -2242 -2746 0
2746 2257 -2747 0
2746 -2257 2747 0
-2746 2257 2747 0
-2746 -2257 -2747 0
2747 2263 -2748 0
2747 -2263 2748 0
-2747 2263 2748 0
-2747 -2263 -2748 0
2748 2270 -2398 0
2748 -2270 2398 0
-2748 2270 2398 0
-2748 -2270 -2398 0
2147 2158 -2749 0
2147 -2158 2749 0
-2147 2158 2749 0
-2147 -2158 -2749 0
2749 2200 -2399 0
2749 -2200 2399 0
-2749 2200 2399 0
-2749 -2200 -2399 0
2167 2178 -2750 0
2167 -2178 2750 0
-2167 2178 2750 0
-2167 -2178 -2750 0
2750 2189 -2751 0
2750 -2189 2751 0
-2750 2189 2751 0
-2750 -2189 -2751 0
2751 2202 -2752 0
2751 -2202 2752 0
-2751 2202 2752 0
-2751 -2202 -2752 0
2752 2216 -2753 0
2752 -2216 2753 0
-2752 2216 2753 0
-2752 -2216 -2753 0
2753 2220 -2754 0
2753 -2220 2754 0
-2753 2220 2754 0
-2753 -2220 -2754 0
2754 2256 -2400 0
2754 -2256 2400 0
-2754 2256 2400 0
-2754 -2256 -2400 0
2883 -2755 0
-2883 2755 0
2884 -2756 0
-2884 2756 0
2885 -2757 0
-2885 2757 0
2886 -2758 0
-2886 2758 0
2887 -2759 0
-2887 2759 0
2888 -2760 0
-2888 2760 0
2889 -2761 0
-2889 2761 0
2890 -2762 0
-2890 2762 0
2891 -2763 0
-2891 2763 0
2892 -2764 0
-2892 2764 0
2893 -2765 0
-2893 2765 0
2894 -2766 0
-2894 2766 0
2895 -2767 0
-2895 2767 0
2896 -2768 0
-2896 2768 0
2897 -2769 0
-2897 2769 0
2898 -2770 0
-2898 2770 0
2899 -2771 0
-2899 2771 0
2900 -2772 0
-2900 2772 0
2901 -2773 0
-2901 2773 0
2902 -2774 0
-2902 2774 0
2903 -2775 0
-2903 2775 0
2904 -2776 0
-2904 2776 0
2905 -2777 0
-2905 2777 0
2906 -2778 0
-2906 2778 0
2907 -2779 0
-2907 2779 0
2908 -2780 0
-2908 2780 0
2909 -2781 0
-2909 2781 0
2910 -2782 0
-2910 2782 0
2911 -2783 0
-2911 2783 0
2912 -2784 0
-2912 2784 0
2913 -2785 0
-2913 2785 0
2914 -2786 0
-2914 2786 0
2915 -2787 0
-2915 2787 0
2916 -2788 0
-2916 2788 0
2917 -2789 0
-2917 2789 0
2918 -2790 0
-2918 2790 0
2919 -2791 0
-2919 2791 0
2920 -2792 0
-2920 2792 0
2921 -2793 0
-2921 2793 0
2922 -2794 0
-2922 2794 0
2923 -2795 0
-2923 2795 0
2924 -2796 0
-2924 2796 0
2925 -2797 0
-2925 2797 0
2926 -2798 0
-2926 2798 0
2927 -2799 0
-2927 2799 0
2928 -2800 0
-2928 2800 0
2929 -2801 0
-2929 2801 0
2930 -2802 0
-2930 2802 0
2931 -2803 0
-2931 2803 0
2932 -2804 0
-2932 2804 0
2933 -2805 0
-2933 2805 0
2934 -2806 0
-2934 2806 0
2935 -2807 0
-2935 2807 0
2936 -2808 0
-2936 2808 0
2937 -2809 0
-2937 2809 0
2938 -2810 0
-2938 2810 0
2939 -2811 0
-2939 2811 0
2940 -2812 0
-2940 2812 0
2941 -2813 0
-2941 2813 0
2942 -2814 0
-2942 2814 0
2943 -2815 0
-2943 2815 0
2944 -2816 0
-2944 2816 0
2945 -2817 0
-2945 2817 0
2946 -2818 0
-2946 2818 0
2947 -2819 0
-2947 2819 0
2948 -2820 0
-2948 2820 0
2949 -2821 0
-2949 2821 0
2950 -2822 0
-2950 2822 0
2951 -2823 0
-2951 2823 0
2952 -2824 0
-2952 2824 0
2953 -2825 0
-2953 2825 0
2954 -2826 0
-2954 2826 0
2955 -2827 0
-2955 2827 0
2956 -2828 0
-2956 2828 0
2957 -2829 0
-2957 2829 0
2958 -2830 0
-2958 2830 0
2959 -2831 0
-2959 2831 0
2960 -2832 0
-2960 2832 0
2961 -2833 0
-2961 2833 0
2962 -2834 0
-2962 2834 0
2963 -2835 0
-2963 2835 0
2964 -2836 0
-2964 2836 0
2965 -2837 0
-2965 2837 0
2966 -2838 0
-2966 2838 0
2967 -2839 0
-2967 2839 0
2968 -2840 0
-2968 2840 0
2969 -2841 0
-2969 2841 0
2970 -2842 0
-2970 2842 0
2971 -2843 0
-2971 2843 0
2972 -2844 0
-2972 2844 0
2973 -2845 0
-2973 2845 0
2974 -2846 0
-2974 2846 0
2975 -2847 0
-2975 2847 0
2976 -2848 0
-2976 2848 0
2977 -2849 0
-2977 2849 0
2978 -2850 0
-2978 2850 0
2979 -2851 0
-2979 2851 0
2980 -2852 0
-2980 2852 0
2981 -2853 0
-2981 2853 0
2982 -2854 0
-2982 2854 0
2983 -2855 0
-2983 2855 0
2984 -2856 0
-2984 2856 0
2985 -2857 0
-2985 2857 0
2986 -2858 0
-2986 2858 0
2987 -2859 0
-2987 2859 0
2988 -2860 0
-2988 2860 0
2989 -2861 0
-2989 2861 0
2990 -2862 0
-2990 2862 0
2991 -2863 0
-2991 2863 0
2992 -2864 0
-2992 2864 0
2993 -2865 0
-2993 2865 0
2994 -2866 0
-2994 2866 0
2995 -2867 0
-2995 2867 0
2996 -2868 0
-2996 2868 0
2997 -2869 0
-2997 2869 0
2998 -2870 0
-2998 2870 0
2999 -2871 0
-2999 2871 0
3000 -2872 0
-3000 2872 0
3001 -2873 0
-3001 2873 0
3002 -2874 0
-3002 2874 0
3003 -2875 0
-3003 2875 0
3004 -2876 0
-3004 2876 0
3005 -2877 0
-3005 2877 0
3006 -2878 0
-3006 2878 0
3007 -2879 0
-3007 2879 0
3008 -2880 0
-3008 2880 0
3009 -2881 0
-3009 2881 0
3010 -2882 0
-3010 2882 0
-3395 3267 0
3395 -3267 0
-3396 3268 0
3396 -3268 0
-3397 3269 0
3397 -3269 0
-3398 3270 0
3398 -3270 0
-3399 3271 0
3399 -3271 0
-3400 3272 0
3400 -3272 0
-3401 3273 0
3401 -3273 0
-3402 3274 0
3402 -3274 0
-3403 3275 0
3403 -3275 0
-3404 3276 0
3404 -3276 0
-3405 3277 0
3405 -3277 0
-3406 3278 0
3406 -3278 0
-3407 3279 0
3407 -3279 0
-3408 3280 0
3408 -3280 0
-3409 3281 0
3409 -3281 0
-3410 3282 0
3410 -3282 0
-3411 3283 0
3411 -3283 0
-3412 3284 0
3412 -3284 0
-3413 3285 0
3413 -3285 0
-3414 3286 0
3414 -3286 0
-3415 3287 0
3415 -3287 0
-3416 3288 0
3416 -3288 0
-3417 3289 0
3417 -3289 0
-3418 3290 0
3418 -3290 0
-3419 3291 0
3419 -3291 0
-3420 3292 0
3420 -3292 0
-3421 3293 0
3421 -3293 0
-3422 3294 0
3422 -3294 0
-3423 3295 0
3423 -3295 0
-3424 3296 0
3424 -3296 0
-3425 3297 0
3425 -3297 0
-3426 3298 0
3426 -3298 0
-3427 3299 0
3427 -3299 0
-3428 3300 0
3428 -3300 0
-3429 3301 0
3429 -3301 0
-3430 3302 0
3430 -3302 0
-3431 3303 0
3431 -3303 0
-3432 3304 0
3432 -3304 0
-3433 3305 0
3433 -3305 0
-3434 3306 0
3434 -3306 0
-3435 3307 0
3435 -3307 0
-3436 3308 0
3436 -3308 0
-3437 3309 0
3437 -3309 0
-3438 3310 0
3438 -3310 0
-3439 3311 0
3439 -3311 0
-3440 3312 0
3440 -3312 0
-3441 3313 0
3441 -3313 0
-3442 3314 0
3442 -3314 0
-3443 3315 0
3443 -3315 0
-3444 3316 0
3444 -3316 0
-3445 3317 0
3445 -3317 0
-3446 3318 0
3446 -3318 0
-3447 3319 0
3447 -3319 0
-3448 3320 0
3448 -3320 0
-3449 3321 0
3449 -3321 0
-3450 3322 0
3450 -3322 0
-3451 3323 0
3451 -3323 0
-3452 3324 0
3452 -3324 0
-3453 3325 0
3453 -3325 0
-3454 3326 0
3454 -3326 0
-3455 3327 0
3455 -3327 0
-3456 3328 0
3456 -3328 0
-3457 3329 0
3457 -3329 0
-3458 3330 0
3458 -3330 0
-3459 3331 0
3459 -3331 0
-3460 3332 0
3460 -3332 0
-3461 3333 0
3461 -3333 0
-3462 3334 0
3462 -3334 0
-3463 3335 0
3463 -3335 0
-3464 3336 0
3464 -3336 0
-3465 3337 0
3465 -3337 0
-3466 3338 0
3466 -3338 0
-3467 3339 0
3467 -3339 0
-3468 3340 0
3468 -3340 0
-3469 3341 0
3469 -3341 0
-3470 3342 0
3470 -3342 0
-3471 3343 0
3471 -3343 0
-3472 3344 0
3472 -3344 0
-3473 3345 0
3473 -3345 0
-3474 3346 0
3474 -3346 0
-3475 3347 0
3475 -3347 0
-3476 3348 0
3476 -3348 0
-3477 3349 0
3477 -3349 0
-3478 3350 0
3478 -3350 0
-3479 3351 0
3479 -3351 0
-3480 3352 0
3480 -3352 0
-3481 3353 0
3481 -3353 0
-3482 3354 0
3482 -3354 0
-3483 3355 0
3483 -3355 0
-3484 3356 0
3484 -3356 0
-3485 3357 0
3485 -3357 0
-3486 3358 0
3486 -3358 0
-3487 3359 0
3487 -3359 0
-3488 3360 0
3488 -3360 0
-3489 3361 0
3489 -3361 0
-3490 3362 0
3490 -3362 0
-3491 3363 0
3491 -3363 0
-3492 3364 0
3492 -3364 0
-3493 3365 0
3493 -3365 0
-3494 3366 0
3494 -3366 0
-3495 3367 0
3495 -3367 0
-3496 3368 0
3496 -3368 0
-3497 3369 0
3497 -3369 0
-3498 3370 0
3498 -3370 0
-3499 3371 0
3499 -3371 0
-3500 3372 0
3500 -3372 0
-3501 3373 0
3501 -3373 0
-3502 3374 0
3502 -3374 0
-3503 3375 0
3503 -3375 0
-3504 3376 0
3504 -3376 0
-3505 3377 0
3505 -3377 0
-3506 3378 0
3506 -3378 0
-3507 3379 0
3507 -3379 0
-3508 3380 0
3508 -3380 0
-3509 3381 0
3509 -3381 0
-3510 3382 0
3510 -3382 0
-3511 3383 0
3511 -3383 0
-3512 3384 0
3512 -3384 0
-3513 3385 0
3513 -3385 0
-3514 3386 0
3514 -3386 0
-3515 3387 0
3515 -3387 0
-3516 3388 0
3516 -3388 0
-3517 3389 0
3517 -3389 0
-3518 3390 0
3518 -3390 0
-3519 3391 0
3519 -3391 0
-3520 3392 0
3520 -3392 0
-3521 3393 0
3521 -3393 0
-3522 3394 0
3522 -3394 0
3523 3524 3526 3527 -3528 -3529 0
3523 -3524 3526 3527 3528 -3530 0
3523 -3524 -3526 3527 -3528 3530 0
-3523 3524 3525 -3527 3528 -3530 3532 0
3524 -3525 3526 3527 3530 3532 0
-3524 3525 -3526 3527 -3529 -3530 0
3523 3524 -3526 -3527 -3528 3529 0
-3523 -3525 -3526 3527 -3528 -3532 0
-3523 3525 -3526 3527 3528 3530 3532 0
-3525 -3526 3527 3529 3532 0
3523 -3525 -3527 -3530 -3532 0
3525 3526 3527 3528 -3529 -3532 0
3527 3528 3529 3530 3533 0
3525 -3526 3527 -3530 -3532 0
3525 3526 -3527 3528 3529 -3532 0
-3523 -3525 3526 3528 3529 3530 3532 0
-3523 -3525 3526 3527 3528 -3529 3532 0
-3527 -3528 -3529 3530 3532 0
-3527 3528 -3529 3530 -3532 0
3523 -3524 -3525 -3528 3529 3530 0
-3524 -3525 3526 -3527 3529 -3530 0
-3523 -3524 3525 -3528 -3529 -3532 0
-3525 3526 3529 -3530 -3532 0
-3523 -3527 -3528 3529 -3532 0
3524 3525 -3527 3528 3529 3530 0
3523 3527 3528 3529 3533 0
-3524 3525 3526 -3528 3532 0
3525 3526 -3527 -3529 3532 0
-3523 3525 3526 3527 3529 3532 0
3524 3527 -3528 -3529 -3532 0
3523 3526 -3527 -3529 -3532 0
-3523 -3525 3526 -3528 -3529 3530 0
3524 -3527 -3528 3529 -3532 0
-3523 3524 -3525 -3526 -3532 0
-3523 3525 -3526 -3527 -3528 3530 0
-3524 -3525 3527 -3529 -3532 0
3524 3526 3528 3529 3530 3533 0
3523 -3525 -3526 -3528 3532 0
3523 -3524 3525 3528 3529 -3530 0
-3525 -3526 -3527 -3529 3532 0
-3523 -3524 -3525 -3526 3532 0
-3526 -3533 0
-3523 -3524 -3526 -3527 3528 3529 0
3524 3528 3530 -3532 0
-3523 3527 -3528 3529 3532 0
-3523 -3525 3526 -3527 -3530 0
3523 3528 -3532 0
-3523 3525 -3526 -3529 -3530 0
3523 3525 -3526 -3532 0
3524 3525 3527 3528 3530 3533 0
-3527 -3533 0
3524 3525 3526 3528 -3530 0
3523 3525 3526 -3531 0
3525 3526 3527 -3528 3529 0
-3525 -3533 0
3523 3527 3529 3530 3533 0
-3529 -3533 0
-3524 -3533 0
3531 3532 3533 0
-3531 -3532 0
3534 3535 3537 3538 -3539 -3540 0
3534 -3535 3537 3538 3539 -3541 0
3534 -3535 -3537 3538 -3539 3541 0
-3534 3535 3536 -3538 3539 -3541 3543 0
3535 -3536 3537 3538 3541 3543 0
-3535 3536 -3537 3538 -3540 -3541 0
3534 3535 -3537 -3538 -3539 3540 0
-3534 -3536 -3537 3538 -3539 -3543 0
-3534 3536 -3537 3538 3539 3541 3543 0
-3536 -3537 3538 3540 3543 0
3534 -3536 -3538 -3541 -3543 0
3536 3537 3538 3539 -3540 -3543 0
3538 3539 3540 3541 3544 0
3536 -3537 3538 -3541 -3543 0
3536 3537 -3538 3539 3540 -3543 0
-3534 -3536 3537 3539 3540 3541 3543 0
-3534 -3536 3537 3538 3539 -3540 3543 0
-3538 -3539 -3540 3541 3543 0
-3538 3539 -3540 3541 -3543 0
3534 -3535 -3536 -3539 3540 3541 0
-3535 -3536 3537 -3538 3540 -3541 0
-3534 -3535 3536 -3539 -3540 -3543 0
-3536 3537 3540 -3541 -3543 0
-3534 -3538 -3539 3540 -3543 0
3535 3536 -3538 3539 3540 3541 0
3534 3538 3539 3540 3544 0
-3535 3536 3537 -3539 3543 0
3536 3537 -3538 -3540 3543 0
-3534 3536 3537 3538 3540 3543 0
3535 3538 -3539 -3540 -3543 0
3534 3537 -3538 -3540 -3543 0
-3534 -3536 3537 -3539 -3540 3541 0
3535 -3538 -3539 3540 -3543 0
-3534 3535 -3536 -3537 -3543 0
-3534 3536 -3537 -3538 -3539 3541 0
-3535 -3536 3538 -3540 -3543 0
3535 3537 3539 3540 3541 3544 0
3534 -3536 -3537 -3539 3543 0
3534 -3535 3536 3539 3540 -3541 0
-3536 -3537 -3538 -3540 3543 0
-3534 -3535 -3536 -3537 3543 0
-3537 -3544 0
-3534 -3535 -3537 -3538 3539 3540 0
3535 3539 3541 -3543 0
-3534 3538 -3539 3540 3543 0
-3534 -3536 3537 -3538 -3541 0
3534 3539 -3543 0
-3534 3536 -3537 -3540 -3541 0
3534 3536 -3537 -3543 0
3535 3536 3538 3539 3541 3544 0
-3538 -3544 0
3535 3536 3537 3539 -3541 0
3534 3536 3537 -3542 0
3536 3537 3538 -3539 3540 0
-3536 -3544 0
3534 3538 3540 3541 3544 0
-3540 -3544 0
-3535 -3544 0
3542 3543 3544 0
-3542 -3543 0
3545 3546 3548 3549 -3550 -3551 0
3545 -3546 3548 3549 3550 -3552 0
3545 -3546 -3548 3549 -3550 3552 0
-3545 3546 3547 -3549 3550 -3552 3554 0
3546 -3547 3548 3549 3552 3554 0
-3546 3547 -3548 3549 -3551 -3552 0
3545 3546 -3548 -3549 -3550 3551 0
-3545 -3547 -3548 3549 -3550 -3554 0
-3545 3547 -3548 3549 3550 3552 3554 0
-3547 -3548 3549 3551 3554 0
3545 -3547 -3549 -3552 -3554 0
3547 3548 3549 3550 -3551 -3554 0
3549 3550 3551 3552 3555 0
3547 -3548 3549 -3552 -3554 0
3547 3548 -3549 3550 3551 -3554 0
-3545 -3547 3548 3550 3551 3552 3554 0
-3545 -3547 3548 3549 3550 -3551 3554 0
-3549 -3550 -3551 3552 3554 0
-3549 3550 -3551 3552 -3554 0
3545 -3546 -3547 -3550 3551 3552 0
-3546 -3547 3548 -3549 3551 -3552 0
-3545 -3546 3547 -3550 -3551 -3554 0
-3547 3548 3551 -3552 -3554 0
-3545 -3549 -3550 3551 -3554 0
3546 3547 -3549 3550 3551 3552 0
3545 3549 3550 3551 3555 0
-3546 3547 3548 -3550 3554 0
3547 3548 -3549 -3551 3554 0
-3545 3547 3548 3549 3551 3554 0
3546 3549 -3550 -3551 -3554 0
3545 3548 -3549 -3551 -3554 0
-3545 -3547 3548 -3550 -3551 3552 0
3546 -3549 -3550 3551 -3554 0
-3545 3546 -3547 -3548 -3554 0
-3545 3547 -3548 -3549 -3550 3552 0
-3546 -3547 3549 -3551 -3554 0
3546 3548 3550 3551 3552 3555 0
3545 -3547 -3548 -3550 3554 0
3545 -3546 3547 3550 3551 -3552 0
-3547 -3548 -3549 -3551 3554 0
-3545 -3546 -3547 -3548 3554 0
-3548 -3555 0
-3545 -3546 -3548 -3549 3550 3551 0
3546 3550 3552 -3554 0
-3545 3549 -3550 3551 3554 0
-3545 -3547 3548 -3549 -3552 0
3545 3550 -3554 0
-3545 3547 -3548 -3551 -3552 0
3545 3547 -3548 -3554 0
3546 3547 3549 3550 3552 3555 0
-3549 -3555 0
3546 3547 3548 3550 -3552 0
3545 3547 3548 -3553 0
3547 3548 3549 -3550 3551 0
-3547 -3555 0
3545 3549 3551 3552 3555 0
-3551 -3555 0
-3546 -3555 0
3553 3554 3555 0
-3553 -3554 0
3556 3557 3559 3560 -3561 -3562 0
3556 -3557 3559 3560 3561 -3563 0
3556 -3557 -3559 3560 -3561 3563 0
-3556 3557 3558 -3560 3561 -3563 3565 0
3557 -3558 3559 3560 3563 3565 0
-3557 3558 -3559 3560 -3562 -3563 0
3556 3557 -3559 -3560 -3561 3562 0
-3556 -3558 -3559 3560 -3561 -3565 0
-3556 3558 -3559 3560 3561 3563 3565 0
-3558 -3559 3560 3562 3565 0
3556 -3558 -3560 -3563 -3565 0
3558 3559 3560 3561 -3562 -3565 0
3560 3561 3562 3563 3566 0
3558 -3559 3560 -3563 -3565 0
3558 3559 -3560 3561 3562 -3565 0
-3556 -3558 3559 3561 3562 3563 3565 0
-3556 -3558 3559 3560 3561 -3562 3565 0
-3560 -3561 -3562 3563 3565 0
-3560 3561 -3562 3563 -3565 0
3556 -3557 -3558 -3561 3562 3563 0
-3557 -3558 3559 -3560 3562 -3563 0
-3556 -3557 3558 -3561 -3562 -3565 0
-3558 3559 3562 -3563 -3565 0
-3556 -3560 -3561 3562 -3565 0
3557 3558 -3560 3561 3562 3563 0
3556 3560 3561 3562 3566 0
-3557 3558 3559 -3561 3565 0
3558 3559 -3560 -3562 3565 0
-3556 3558 3559 3560 3562 3565 0
3557 3560 -3561 -3562 -3565 0
3556 3559 -3560 -3562 -3565 0
-3556 -3558 3559 -3561 -3562 3563 0
3557 -3560 -3561 3562 -3565 0
-3556 3557 -3558 -3559 -3565 0
-3556 3558 -3559 -3560 -3561 3563 0
-3557 -3558 3560 -3562 -3565 0
3557 3559 3561 3562 3563 3566 0
3556 -3558 -3559 -3561 3565 0
3556 -3557 3558 3561 3562 -3563 0
-3558 -3559 -3560 -3562 3565 0
-3556 -3557 -3558 -3559 3565 0
-3559 -3566 0
-3556 -3557 -3559 -3560 3561 3562 0
3557 3561 3563 -3565 0
-3556 3560 -3561 3562 3565 0
-3556 -3558 3559 -3560 -3563 0
3556 3561 -3565 0
-3556 3558 -3559 -3562 -3563 0
3556 3558 -3559 -3565 0
3557 3558 3560 3561 3563 3566 0
-3560 -3566 0
3557 3558 3559 3561 -3563 0
3556 3558 3559 -3564 0
3558 3559 3560 -3561 3562 0
-3558 -3566 0
3556 3560 3562 3563 3566 0
-3562 -3566 0
-3557 -3566 0
3564 3565 3566 0
-3564 -3565 0
3567 3568 3570 3571 -3572 -3573 0
3567 -3568 3570 3571 3572 -3574 0
3567 -3568 -3570 3571 -3572 3574 0
-3567 3568 3569 -3571 3572 -3574 3576 0
3568 -3569 3570 3571 3574 3576 0
-3568 3569 -3570 3571 -3573 -3574 0
3567 3568 -3570 -3571 -3572 3573 0
-3567 -3569 -3570 3571 -3572 -3576 0
-3567 3569 -3570 3571 3572 3574 3576 0
-3569 -3570 3571 3573 3576 0
3567 -3569 -3571 -3574 -3576 0
3569 3570 3571 3572 -3573 -3576 0
3571 3572 3573 3574 3577 0
3569 -3570 3571 -3574 -3576 0
3569 3570 -3571 3572 3573 -3576 0
-3567 -3569 3570 3572 3573 3574 3576 0
-3567 -3569 3570 3571 3572 -3573 3576 0
-3571 -3572 -3573 3574 3576 0
-3571 3572 -3573 3574 -3576 0
3567 -3568 -3569 -3572 3573 3574 0
-3568 -3569 3570 -3571 3573 -3574 0
-3567 -3568 3569 -3572 -3573 -3576 0
-3569 3570 3573 -3574 -3576 0
-3567 -3571 -3572 3573 -3576 0
3568 3569 -3571 3572 3573 3574 0
3567 3571 3572 3573 3577 0
-3568 3569 3570 -3572 3576 0
3569 3570 -3571 -3573 3576 0
-3567 3569 3570 3571 3573 3576 0
3568 3571 -3572 -3573 -3576 0
3567 3570 -3571 -3573 -3576 0
-3567 -3569 3570 -3572 -3573 3574 0
3568 -3571 -3572 3573 -3576 0
-3567 3568 -3569 -3570 -3576 0
-3567 3569 -3570 -3571 -3572 3574 0
-3568 -3569 3571 -3573 -3576 0
3568 3570 3572 3573 3574 3577 0
3567 -3569 -3570 -3572 3576 0
3567 -3568 3569 3572 3573 -3574 0
-3569 -3570 -3571 -3573 3576 0
-3567 -3568 -3569 -3570 3576 0
-3570 -3577 0
-3567 -3568 -3570 -3571 3572 3573 0
3568 3572 3574 -3576 0
-3567 3571 -3572 3573 3576 0
-3567 -3569 3570 -3571 -3574 0
3567 3572 -3576 0
-3567 3569 -3570 -3573 -3574 0
3567 3569 -3570 -3576 0
3568 3569 3571 3572 3574 3577 0
-3571 -3577 0
3568 3569 3570 3572 -3574 0
3567 3569 3570 -3575 0
3569 3570 3571 -3572 3573 0
-3569 -3577 0
3567 3571 3573 3574 3577 0
-3573 -3577 0
-3568 -3577 0
3575 3576 3577 0
-3575 -3576 0
3578 3579 3581 3582 -3583 -3584 0
3578 -3579 3581 3582 3583 -3585 0
3578 -3579 -3581 3582 -3583 3585 0
-3578 3579 3580 -3582 3583 -3585 3587 0
3579 -3580 3581 3582 3585 3587 0
-3579 3580 -3581 3582 -3584 -3585 0
3578 3579 -3581 -3582 -3583 3584 0
-3578 -3580 -3581 3582 -3583 -3587 0
-3578 3580 -3581 3582 3583 3585 3587 0
-3580 -3581 3582 3584 3587 0
3578 -3580 -3582 -3585 -3587 0
3580 3581 3582 3583 -3584 -3587 0
3582 3583 3584 3585 3588 0
3580 -3581 3582 -3585 -3587 0
3580 3581 -3582 3583 3584 -3587 0
-3578 -3580 3581 3583 3584 3585 3587 0
-3578 -3580 3581 3582 3583 -3584 3587 0
-3582 -3583 -3584 3585 3587 0
-3582 3583 -3584 3585 -3587 0
3578 -3579 -3580 -3583 3584 3585 0
-3579 -3580 3581 -3582 3584 -3585 0
-3578 -3579 3580 -3583 -3584 -3587 0
-3580 3581 3584 -3585 -3587 0
-3578 -3582 -3583 3584 -3587 0
3579 3580 -3582 3583 3584 3585 0
3578 3582 3583 3584 3588 0
-3579 3580 3581 -3583 3587 0
3580 3581 -3582 -3584 3587 0
-3578 3580 3581 3582 3584 3587 0
3579 3582 -3583 -3584 -3587 0
3578 3581 -3582 -3584 -3587 0
-3578 -3580 3581 -3583 -3584 3585 0
3579 -3582 -3583 3584 -3587 0
-3578 3579 -3580 -3581 -3587 0
-3578 3580 -3581 -3582 -3583 3585 0
-3579 -3580 3582 -3584 -3587 0
3579 3581 3583 3584 3585 3588 0
3578 -3580 -3581 -3583 3587 0
3578 -3579 3580 3583 3584 -3585 0
-3580 -3581 -3582 -3584 3587 0
-3578 -3579 -3580 -3581 3587 0
-3581 -3588 0
-3578 -3579 -3581 -3582 3583 3584 0
3579 3583 3585 -3587 0
-3578 3582 -3583 3584 3587 0
-3578 -3580 3581 -3582 -3585 0
3578 3583 -3587 0
-3578 3580 -3581 -3584 -3585 0
3578 3580 -3581 -3587 0
3579 3580 3582 3583 3585 3588 0
-3582 -3588 0
3579 3580 3581 3583 -3585 0
3578 3580 3581 -3586 0
3580 3581 3582 -3583 3584 0
-3580 -3588 0
3578 3582 3584 3585 3588 0
-3584 -3588 0
-3579 -3588 0
3586 3587 3588 0
-3586 -3587 0
3589 3590 3592 3593 -3594 -3595 0
3589 -3590 3592 3593 3594 -3596 0
3589 -3590 -3592 3593 -3594 3596 0
-3589 3590 3591 -3593 3594 -3596 3598 0
3590 -3591 3592 3593 3596 3598 0
-3590 3591 -3592 3593 -3595 -3596 0
3589 3590 -3592 -3593 -3594 3595 0
-3589 -3591 -3592 3593 -3594 -3598 0
-3589 3591 -3592 3593 3594 3596 3598 0
-3591 -3592 3593 3595 3598 0
3589 -3591 -3593 -3596 -3598 0
3591 3592 3593 3594 -3595 -3598 0
3593 3594 3595 3596 3599 0
3591 -3592 3593 -3596 -3598 0
3591 3592 -3593 3594 3595 -3598 0
-3589 -3591 3592 3594 3595 3596 3598 0
-3589 -3591 3592 3593 3594 -3595 3598 0
-3593 -3594 -3595 3596 3598 0
-3593 3594 -3595 3596 -3598 0
3589 -3590 -3591 -3594 3595 3596 0
-3590 -3591 3592 -3593 3595 -3596 0
-3589 -3590 3591 -3594 -3595 -3598 0
-3591 3592 3595 -3596 -3598 0
-3589 -3593 -3594 3595 -3598 0
3590 3591 -3593 3594 3595 3596 0
3589 3593 3594 3595 3599 0
-3590 3591 3592 -3594 3598 0
3591 3592 -3593 -3595 3598 0
-3589 3591 3592 3593 3595 3598 0
3590 3593 -3594 -3595 -3598 0
3589 3592 -3593 -3595 -3598 0
-3589 -3591 3592 -3594 -3595 3596 0
3590 -3593 -3594 3595 -3598 0
-3589 3590 -3591 -3592 -3598 0
-3589 3591 -3592 -3593 -3594 3596 0
-3590 -3591 3593 -3595 -3598 0
3590 3592 3594 3595 3596 3599 0
3589 -3591 -3592 -3594 3598 0
3589 -3590 3591 3594 3595 -3596 0
-3591 -3592 -3593 -3595 3598 0
-3589 -3590 -3591 -3592 3598 0
-3592 -3599 0
-3589 -3590 -3592 -3593 3594 3595 0
3590 3594 3596 -3598 0
-3589 3593 -3594 3595 3598 0
-3589 -3591 3592 -3593 -3596 0
3589 3594 -3598 0
-3589 3591 -3592 -3595 -3596 0
3589 3591 -3592 -3598 0
3590 3591 3593 3594 3596 3599 0
-3593 -3599 0
3590 3591 3592 3594 -3596 0
3589 3591 3592 -3597 0
3591 3592 3593 -3594 3595 0
-3591 -3599 0
3589 3593 3595 3596 3599 0
-3595 -3599 0
-3590 -3599 0
3597 3598 3599 0
-3597 -3598 0
3600 3601 3603 3604 -3605 -3606 0
3600 -3601 3603 3604 3605 -3607 0
3600 -3601 -3603 3604 -3605 3607 0
-3600 3601 3602 -3604 3605 -3607 3609 0
3601 -3602 3603 3604 3607 3609 0
-3601 3602 -3603 3604 -3606 -3607 0
3600 3601 -3603 -3604 -3605 3606 0
-3600 -3602 -3603 3604 -3605 -3609 0
-3600 3602 -3603 3604 3605 3607 3609 0
-3602 -3603 3604 3606 3609 0
3600 -3602 -3604 -3607 -3609 0
3602 3603 3604 3605 -3606 -3609 0
3604 3605 3606 3607 3610 0
3602 -3603 3604 -3607 -3609 0
3602 3603 -3604 3605 3606 -3609 0
-3600 -3602 3603 3605 3606 3607 3609 0
-3600 -3602 3603 3604 3605 -3606 3609 0
-3604 -3605 -3606 3607 3609 0
-3604 3605 -3606 3607 -3609 0
3600 -3601 -3602 -3605 3606 3607 0
-3601 -3602 3603 -3604 3606 -3607 0
-3600 -3601 3602 -3605 -3606 -3609 0
-3602 3603 3606 -3607 -3609 0
-3600 -3604 -3605 3606 -3609 0
3601 3602 -3604 3605 3606 3607 0
3600 3604 3605 3606 3610 0
-3601 3602 3603 -3605 3609 0
3602 3603 -3604 -3606 3609 0
-3600 3602 3603 3604 3606 3609 0
3601 3604 -3605 -3606 -3609 0
3600 3603 -3604 -3606 -3609 0
-3600 -3602 3603 -3605 -3606 3607 0
3601 -3604 -3605 3606 -3609 0
-3600 3601 -3602 -3603 -3609 0
-3600 3602 -3603 -3604 -3605 3607 0
-3601 -3602 3604 -3606 -3609 0
3601 3603 3605 3606 3607 3610 0
3600 -3602 -3603 -3605 3609 0
3600 -3601 3602 3605 3606 -3607 0
-3602 -3603 -3604 -3606 3609 0
-3600 -3601 -3602 -3603 3609 0
-3603 -3610 0
-3600 -3601 -3603 -3604 3605 3606 0
3601 3605 3607 -3609 0
-3600 3604 -3605 3606 3609 0
-3600 -3602 3603 -3604 -3607 0
3600 3605 -3609 0
-3600 3602 -3603 -3606 -3607 0
3600 3602 -3603 -3609 0
3601 3602 3604 3605 3607 3610 0
-3604 -3610 0
3601 3602 3603 3605 -3607 0
3600 3602 3603 -3608 0
3602 3603 3604 -3605 3606 0
-3602 -3610 0
3600 3604 3606 3607 3610 0
-3606 -3610 0
-3601 -3610 0
3608 3609 3610 0
-3608 -3609 0
3611 3612 3614 3615 -3616 -3617 0
3611 -3612 3614 3615 3616 -3618 0
3611 -3612 -3614 3615 -3616 3618 0
-3611 3612 3613 -3615 3616 -3618 3620 0
3612 -3613 3614 3615 3618 3620 0
-3612 3613 -3614 3615 -3617 -3618 0
3611 3612 -3614 -3615 -3616 3617 0
-3611 -3613 -3614 3615 -3616 -3620 0
-3611 3613 -3614 3615 3616 3618 3620 0
-3613 -3614 3615 3617 3620 0
3611 -3613 -3615 -3618 -3620 0
3613 3614 3615 3616 -3617 -3620 0
3615 3616 3617 3618 3621 0
3613 -3614 3615 -3618 -3620 0
3613 3614 -3615 3616 3617 -3620 0
-3611 -3613 3614 3616 3617 3618 3620 0
-3611 -3613 3614 3615 3616 -3617 3620 0
-3615 -3616 -3617 3618 3620 0
-3615 3616 -3617 3618 -3620 0
3611 -3612 -3613 -3616 3617 3618 0
-3612 -3613 3614 -3615 3617 -3618 0
-3611 -3612 3613 -3616 -3617 -3620 0
-3613 3614 3617 -3618 -3620 0
-3611 -3615 -3616 3617 -3620 0
3612 3613 -3615 3616 3617 3618 0
3611 3615 3616 3617 3621 0
-3612 3613 3614 -3616 3620 0
3613 3614 -3615 -3617 3620 0
-3611 3613 3614 3615 3617 3620 0
3612 3615 -3616 -3617 -3620 0
3611 3614 -3615 -3617 -3620 0
-3611 -3613 3614 -3616 -3617 3618 0
3612 -3615 -3616 3617 -3620 0
-3611 3612 -3613 -3614 -3620 0
-3611 3613 -3614 -3615 -3616 3618 0
-3612 -3613 3615 -3617 -3620 0
3612 3614 3616 3617 3618 3621 0
3611 -3613 -3614 -3616 3620 0
3611 -3612 3613 3616 3617 -3618 0
-3613 -3614 -3615 -3617 3620 0
-3611 -3612 -3613 -3614 3620 0
-3614 -3621 0
-3611 -3612 -3614 -3615 3616 3617 0
3612 3616 3618 -3620 0
-3611 3615 -3616 3617 3620 0
-3611 -3613 3614 -3615 -3618 0
3611 3616 -3620 0
-3611 3613 -3614 -3617 -3618 0
3611 3613 -3614 -3620 0
3612 3613 3615 3616 3618 3621 0
-3615 -3621 0
3612 3613 3614 3616 -3618 0
3611 3613 3614 -3619 0
3613 3614 3615 -3616 3617 0
-3613 -3621 0
3611 3615 3617 3618 3621 0
-3617 -3621 0
-3612 -3621 0
3619 3620 3621 0
-3619 -3620 0
3622 3623 3625 3626 -3627 -3628 0
3622 -3623 3625 3626 3627 -3629 0
3622 -3623 -3625 3626 -3627 3629 0
-3622 3623 3624 -3626 3627 -3629 3631 0
3623 -3624 3625 3626 3629 3631 0
-3623 3624 -3625 3626 -3628 -3629 0
3622 3623 -3625 -3626 -3627 3628 0
-3622 -3624 -3625 3626 -3627 -3631 0
-3622 3624 -3625 3626 3627 3629 3631 0
-3624 -3625 3626 3628 3631 0
3622 -3624 -3626 -3629 -3631 0
3624 3625 3626 3627 -3628 -3631 0
3626 3627 3628 3629 3632 0
3624 -3625 3626 -3629 -3631 0
3624 3625 -3626 3627 3628 -3631 0
-3622 -3624 3625 3627 3628 3629 3631 0
-3622 -3624 3625 3626 3627 -3628 3631 0
-3626 -3627 -3628 3629 3631 0
-3626 3627 -3628 3629 -3631 0
3622 -3623 -3624 -3627 3628 3629 0
-3623 -3624 3625 -3626 3628 -3629 0
-3622 -3623 3624 -3627 -3628 -3631 0
-3624 3625 3628 -3629 -3631 0
-3622 -3626 -3627 3628 -3631 0
3623 3624 -3626 3627 3628 3629 0
3622 3626 3627 3628 3632 0
-3623 3624 3625 -3627 3631 0
3624 3625 -3626 -3628 3631 0
-3622 3624 3625 3626 3628 3631 0
3623 3626 -3627 -3628 -3631 0
3622 3625 -3626 -3628 -3631 0
-3622 -3624 3625 -3627 -3628 3629 0
3623 -3626 -3627 3628 -3631 0
-3622 3623 -3624 -3625 -3631 0
-3622 3624 -3625 -3626 -3627 3629 0
-3623 -3624 3626 -3628 -3631 0
3623 3625 3627 3628 3629 3632 0
3622 -3624 -3625 -3627 3631 0
3622 -3623 3624 3627 3628 -3629 0
-3624 -3625 -3626 -3628 3631 0
-3622 -3623 -3624 -3625 3631 0
-3625 -3632 0
-3622 -3623 -3625 -3626 3627 3628 0
3623 3627 3629 -3631 0
-3622 3626 -3627 3628 3631 0
-3622 -3624 3625 -3626 -3629 0
3622 3627 -3631 0
-3622 3624 -3625 -3628 -3629 0
3622 3624 -3625 -3631 0
3623 3624 3626 3627 3629 3632 0
-3626 -3632 0
3623 3624 3625 3627 -3629 0
3622 3624 3625 -3630 0
3624 3625 3626 -3627 3628 0
-3624 -3632 0
3622 3626 3628 3629 3632 0
-3628 -3632 0
-3623 -3632 0
3630 3631 3632 0
-3630 -3631 0
3633 3634 3636 3637 -3638 -3639 0
3633 -3634 3636 3637 3638 -3640 0
3633 -3634 -3636 3637 -3638 3640 0
-3633 3634 3635 -3637 3638 -3640 3642 0
3634 -3635 3636 3637 3640 3642 0
-3634 3635 -3636 3637 -3639 -3640 0
3633 3634 -3636 -3637 -3638 3639 0
-3633 -3635 -3636 3637 -3638 -3642 0
-3633 3635 -3636 3637 3638 3640 3642 0
-3635 -3636 3637 3639 3642 0
3633 -3635 -3637 -3640 -3642 0
3635 3636 3637 3638 -3639 -3642 0
3637 3638 3639 3640 3643 0
3635 -3636 3637 -3640 -3642 0
3635 3636 -3637 3638 3639 -3642 0
-3633 -3635 3636 3638 3639 3640 3642 0
-3633 -3635 3636 3637 3638 -3639 3642 0
-3637 -3638 -3639 3640 3642 0
-3637 3638 -3639 3640 -3642 0
3633 -3634 -3635 -3638 3639 3640 0
-3634 -3635 3636 -3637 3639 -3640 0
-3633 -3634 3635 -3638 -3639 -3642 0
-3635 3636 3639 -3640 -3642 0
-3633 -3637 -3638 3639 -3642 0
3634 3635 -3637 3638 3639 3640 0
3633 3637 3638 3639 3643 0
-3634 3635 3636 -3638 3642 0
3635 3636 -3637 -3639 3642 0
-3633 3635 3636 3637 3639 3642 0
3634 3637 -3638 -3639 -3642 0
3633 3636 -3637 -3639 -3642 0
-3633 -3635 3636 -3638 -3639 3640 0
3634 -3637 -3638 3639 -3642 0
-3633 3634 -3635 -3636 -3642 0
-3633 3635 -3636 -3637 -3638 3640 0
-3634 -3635 3637 -3639 -3642 0
3634 3636 3638 3639 3640 3643 0
3633 -3635 -3636 -3638 3642 0
3633 -3634 3635 3638 3639 -3640 0
-3635 -3636 -3637 -3639 3642 0
-3633 -3634 -3635 -3636 3642 0
-3636 -3643 0
-3633 -3634 -3636 -3637 3638 3639 0
3634 3638 3640 -3642 0
-3633 3637 -3638 3639 3642 0
-3633 -3635 3636 -3637 -3640 0
3633 3638 -3642 0
-3633 3635 -3636 -3639 -3640 0
3633 3635 -3636 -3642 0
3634 3635 3637 3638 3640 3643 0
-3637 -3643 0
3634 3635 3636 3638 -3640 0
3633 3635 3636 -3641 0
3635 3636 3637 -3638 3639 0
-3635 -3643 0
3633 3637 3639 3640 3643 0
-3639 -3643 0
-3634 -3643 0
3641 3642 3643 0
-3641 -3642 0
3644 3645 3647 3648 -3649 -3650 0
3644 -3645 3647 3648 3649 -3651 0
3644 -3645 -3647 3648 -3649 3651 0
-3644 3645 3646 -3648 3649 -3651 3653 0
3645 -3646 3647 3648 3651 3653 0
-3645 3646 -3647 3648 -3650 -3651 0
3644 3645 -3647 -3648 -3649 3650 0
-3644 -3646 -3647 3648 -3649 -3653 0
-3644 3646 -3647 3648 3649 3651 3653 0
-3646 -3647 3648 3650 3653 0
3644 -3646 -3648 -3651 -3653 0
3646 3647 3648 3649 -3650 -3653 0
3648 3649 3650 3651 3654 0
3646 -3647 3648 -3651 -3653 0
3646 3647 -3648 3649 3650 -3653 0
-3644 -3646 3647 3649 3650 3651 3653 0
-3644 -3646 3647 3648 3649 -3650 3653 0
-3648 -3649 -3650 3651 3653 0
-3648 3649 -3650 3651 -3653 0
3644 -3645 -3646 -3649 3650 3651 0
-3645 -3646 3647 -3648 3650 -3651 0
-3644 -3645 3646 -3649 -3650 -3653 0
-3646 3647 3650 -3651 -3653 0
-3644 -3648 -3649 3650 -3653 0
3645 3646 -3648 3649 3650 3651 0
3644 3648 3649 3650 3654 0
-3645 3646 3647 -3649 3653 0
3646 3647 -3648 -3650 3653 0
-3644 3646 3647 3648 3650 3653 0
3645 3648 -3649 -3650 -3653 0
3644 3647 -3648 -3650 -3653 0
-3644 -3646 3647 -3649 -3650 3651 0
3645 -3648 -3649 3650 -3653 0
-3644 3645 -3646 -3647 -3653 0
-3644 3646 -3647 -3648 -3649 3651 0
-3645 -3646 3648 -3650 -3653 0
3645 3647 3649 3650 3651 3654 0
3644 -3646 -3647 -3649 3653 0
3644 -3645 3646 3649 3650 -3651 0
-3646 -3647 -3648 -3650 3653 0
-3644 -3645 -3646 -3647 3653 0
-3647 -3654 0
-3644 -3645 -3647 -3648 3649 3650 0
3645 3649 3651 -3653 0
-3644 3648 -3649 3650 3653 0
-3644 -3646 3647 -3648 -3651 0
3644 3649 -3653 0
-3644 3646 -3647 -3650 -3651 0
3644 3646 -3647 -3653 0
3645 3646 3648 3649 3651 3654 0
-3648 -3654 0
3645 3646 3647 3649 -3651 0
3644 3646 3647 -3652 0
3646 3647 3648 -3649 3650 0
-3646 -3654 0
3644 3648 3650 3651 3654 0
-3650 -3654 0
-3645 -3654 0
3652 3653 3654 0
-3652 -3653 0
3655 3656 3658 3659 -3660 -3661 0
3655 -3656 3658 3659 3660 -3662 0
3655 -3656 -3658 3659 -3660 3662 0
-3655 3656 3657 -3659 3660 -3662 3664 0
3656 -3657 3658 3659 3662 3664 0
-3656 3657 -3658 3659 -3661 -3662 0
3655 3656 -3658 -3659 -3660 3661 0
-3655 -3657 -3658 3659 -3660 -3664 0
-3655 3657 -3658 3659 3660 3662 3664 0
-3657 -3658 3659 3661 3664 0
3655 -3657 -3659 -3662 -3664 0
3657 3658 3659 3660 -3661 -3664 0
3659 3660 3661 3662 3665 0
3657 -3658 3659 -3662 -3664 0
3657 3658 -3659 3660 3661 -3664 0
-3655 -3657 3658 3660 3661 3662 3664 0
-3655 -3657 3658 3659 3660 -3661 3664 0
-3659 -3660 -3661 3662 3664 0
-3659 3660 -3661 3662 -3664 0
3655 -3656 -3657 -3660 3661 3662 0
-3656 -3657 3658 -3659 3661 -3662 0
-3655 -3656 3657 -3660 -3661 -3664 0
-3657 3658 3661 -3662 -3664 0
-3655 -3659 -3660 3661 -3664 0
3656 3657 -3659 3660 3661 3662 0
3655 3659 3660 3661 3665 0
-3656 3657 3658 -3660 3664 0
3657 3658 -3659 -3661 3664 0
-3655 3657 3658 3659 3661 3664 0
3656 3659 -3660 -3661 -3664 0
3655 3658 -3659 -3661 -3664 0
-3655 -3657 3658 -3660 -3661 3662 0
3656 -3659 -3660 3661 -3664 0
-3655 3656 -3657 -3658 -3664 0
-3655 3657 -3658 -3659 -3660 3662 0
-3656 -3657 3659 -3661 -3664 0
3656 3658 3660 3661 3662 3665 0
3655 -3657 -3658 -3660 3664 0
3655 -3656 3657 3660 3661 -3662 0
-3657 -3658 -3659 -3661 3664 0
-3655 -3656 -3657 -3658 3664 0
-3658 -3665 0
-3655 -3656 -3658 -3659 3660 3661 0
3656 3660 3662 -3664 0
-3655 3659 -3660 3661 3664 0
-3655 -3657 3658 -3659 -3662 0
3655 3660 -3664 0
-3655 3657 -3658 -3661 -3662 0
3655 3657 -3658 -3664 0
3656 3657 3659 3660 3662 3665 0
-3659 -3665 0
3656 3657 3658 3660 -3662 0
3655 3657 3658 -3663 0
3657 3658 3659 -3660 3661 0
-3657 -3665 0
3655 3659 3661 3662 3665 0
-3661 -3665 0
-3656 -3665 0
3663 3664 3665 0
-3663 -3664 0
3666 3667 3669 3670 -3671 -3672 0
3666 -3667 3669 3670 3671 -3673 0
3666 -3667 -3669 3670 -3671 3673 0
-3666 3667 3668 -3670 3671 -3673 3675 0
3667 -3668 3669 3670 3673 3675 0
-3667 3668 -3669 3670 -3672 -3673 0
3666 3667 -3669 -3670 -3671 3672 0
-3666 -3668 -3669 3670 -3671 -3675 0
-3666 3668 -3669 3670 3671 3673 3675 0
-3668 -3669 3670 3672 3675 0
3666 -3668 -3670 -3673 -3675 0
3668 3669 3670 3671 -3672 -3675 0
3670 3671 3672 3673 3676 0
3668 -3669 3670 -3673 -3675 0
3668 3669 -3670 3671 3672 -3675 0
-3666 -3668 3669 3671 3672 3673 3675 0
-3666 -3668 3669 3670 3671 -3672 3675 0
-3670 -3671 -3672 3673 3675 0
-3670 3671 -3672 3673 -3675 0
3666 -3667 -3668 -3671 3672 3673 0
-3667 -3668 3669 -3670 3672 -3673 0
-3666 -3667 3668 -3671 -3672 -3675 0
-3668 3669 3672 -3673 -3675 0
-3666 -3670 -3671 3672 -3675 0
3667 3668 -3670 3671 3672 3673 0
3666 3670 3671 3672 3676 0
-3667 3668 3669 -3671 3675 0
3668 3669 -3670 -3672 3675 0
-3666 3668 3669 3670 3672 3675 0
3667 3670 -3671 -3672 -3675 0
3666 3669 -3670 -3672 -3675 0
-3666 -3668 3669 -3671 -3672 3673 0
3667 -3670 -3671 3672 -3675 0
-3666 3667 -3668 -3669 -3675 0
-3666 3668 -3669 -3670 -3671 3673 0
-3667 -3668 3670 -3672 -3675 0
3667 3669 3671 3672 3673 3676 0
3666 -3668 -3669 -3671 3675 0
3666 -3667 3668 3671 3672 -3673 0
-3668 -3669 -3670 -3672 3675 0
-3666 -3667 -3668 -3669 3675 0
-3669 -3676 0
-3666 -3667 -3669 -3670 3671 3672 0
3667 3671 3673 -3675 0
-3666 3670 -3671 3672 3675 0
-3666 -3668 3669 -3670 -3673 0
3666 3671 -3675 0
-3666 3668 -3669 -3672 -3673 0
3666 3668 -3669 -3675 0
3667 3668 3670 3671 3673 3676 0
-3670 -3676 0
3667 3668 3669 3671 -3673 0
3666 3668 3669 -3674 0
3668 3669 3670 -3671 3672 0
-3668 -3676 0
3666 3670 3672 3673 3676 0
-3672 -3676 0
-3667 -3676 0
3674 3675 3676 0
-3674 -3675 0
3677 3678 3680 3681 -3682 -3683 0
3677 -3678 3680 3681 3682 -3684 0
3677 -3678 -3680 3681 -3682 3684 0
-3677 3678 3679 -3681 3682 -3684 3686 0
3678 -3679 3680 3681 3684 3686 0
-3678 3679 -3680 3681 -3683 -3684 0
3677 3678 -3680 -3681 -3682 3683 0
-3677 -3679 -3680 3681 -3682 -3686 0
-3677 3679 -3680 3681 3682 3684 3686 0
-3679 -3680 3681 3683 3686 0
3677 -3679 -3681 -3684 -3686 0
3679 3680 3681 3682 -3683 -3686 0
3681 3682 3683 3684 3687 0
3679 -3680 3681 -3684 -3686 0
3679 3680 -3681 3682 3683 -3686 0
-3677 -3679 3680 3682 3683 3684 3686 0
-3677 -3679 3680 3681 3682 -3683 3686 0
-3681 -3682 -3683 3684 3686 0
-3681 3682 -3683 3684 -3686 0
3677 -3678 -3679 -3682 3683 3684 0
-3678 -3679 3680 -3681 3683 -3684 0
-3677 -3678 3679 -3682 -3683 -3686 0
-3679 3680 3683 -3684 -3686 0
-3677 -3681 -3682 3683 -3686 0
3678 3679 -3681 3682 3683 3684 0
3677 3681 3682 3683 3687 0
-3678 3679 3680 -3682 3686 0
3679 3680 -3681 -3683 3686 0
-3677 3679 3680 3681 3683 3686 0
3678 3681 -3682 -3683 -3686 0
3677 3680 -3681 -3683 -3686 0
-3677 -3679 3680 -3682 -3683 3684 0
3678 -3681 -3682 3683 -3686 0
-3677 3678 -3679 -3680 -3686 0
-3677 3679 -3680 -3681 -3682 3684 0
-3678 -3679 3681 -3683 -3686 0
3678 3680 3682 3683 3684 3687 0
3677 -3679 -3680 -3682 3686 0
3677 -3678 3679 3682 3683 -3684 0
-3679 -3680 -3681 -3683 3686 0
-3677 -3678 -3679 -3680 3686 0
-3680 -3687 0
-3677 -3678 -3680 -3681 3682 3683 0
3678 3682 3684 -3686 0
-3677 3681 -3682 3683 3686 0
-3677 -3679 3680 -3681 -3684 0
3677 3682 -3686 0
-3677 3679 -3680 -3683 -3684 0
3677 3679 -3680 -3686 0
3678 3679 3681 3682 3684 3687 0
-3681 -3687 0
3678 3679 3680 3682 -3684 0
3677 3679 3680 -3685 0
3679 3680 3681 -3682 3683 0
-3679 -3687 0
3677 3681 3683 3684 3687 0
-3683 -3687 0
-3678 -3687 0
3685 3686 3687 0
-3685 -3686 0
3688 3689 3691 3692 -3693 -3694 0
3688 -3689 3691 3692 3693 -3695 0
3688 -3689 -3691 3692 -3693 3695 0
-3688 3689 3690 -3692 3693 -3695 3697 0
3689 -3690 3691 3692 3695 3697 0
-3689 3690 -3691 3692 -3694 -3695 0
3688 3689 -3691 -3692 -3693 3694 0
-3688 -3690 -3691 3692 -3693 -3697 0
-3688 3690 -3691 3692 3693 3695 3697 0
-3690 -3691 3692 3694 3697 0
3688 -3690 -3692 -3695 -3697 0
3690 3691 3692 3693 -3694 -3697 0
3692 3693 3694 3695 3698 0
3690 -3691 3692 -3695 -3697 0
3690 3691 -3692 3693 3694 -3697 0
-3688 -3690 3691 3693 3694 3695 3697 0
-3688 -3690 3691 3692 3693 -3694 3697 0
-3692 -3693 -3694 3695 3697 0
-3692 3693 -3694 3695 -3697 0
3688 -3689 -3690 -3693 3694 3695 0
-3689 -3690 3691 -3692 3694 -3695 0
-3688 -3689 3690 -3693 -3694 -3697 0
-3690 3691 3694 -3695 -3697 0
-3688 -3692 -3693 3694 -3697 0
3689 3690 -3692 3693 3694 3695 0
3688 3692 3693 3694 3698 0
-3689 3690 3691 -3693 3697 0
3690 3691 -3692 -3694 3697 0
-3688 3690 3691 3692 3694 3697 0
3689 3692 -3693 -3694 -3697 0
3688 3691 -3692 -3694 -3697 0
-3688 -3690 3691 -3693 -3694 3695 0
3689 -3692 -3693 3694 -3697 0
-3688 3689 -3690 -3691 -3697 0
-3688 3690 -3691 -3692 -3693 3695 0
-3689 -3690 3692 -3694 -3697 0
3689 3691 3693 3694 3695 3698 0
3688 -3690 -3691 -3693 3697 0
3688 -3689 3690 3693 3694 -3695 0
-3690 -3691 -3692 -3694 3697 0
-3688 -3689 -3690 -3691 3697 0
-3691 -3698 0
-3688 -3689 -3691 -3692 3693 3694 0
3689 3693 3695 -3697 0
-3688 3692 -3693 3694 3697 0
-3688 -3690 3691 -3692 -3695 0
3688 3693 -3697 0
-3688 3690 -3691 -3694 -3695 0
3688 3690 -3691 -3697 0
3689 3690 3692 3693 3695 3698 0
-3692 -3698 0
3689 3690 3691 3693 -3695 0
3688 3690 3691 -3696 0
3690 3691 3692 -3693 3694 0
-3690 -3698 0
3688 3692 3694 3695 3698 0
-3694 -3698 0
-3689 -3698 0
3696 3697 3698 0
-3696 -3697 0
3699 3700 3702 3703 -3704 -3705 0
3699 -3700 3702 3703 3704 -3706 0
3699 -3700 -3702 3703 -3704 3706 0
-3699 3700 3701 -3703 3704 -3706 3708 0
3700 -3701 3702 3703 3706 3708 0
-3700 3701 -3702 3703 -3705 -3706 0
3699 3700 -3702 -3703 -3704 3705 0
-3699 -3701 -3702 3703 -3704 -3708 0
-3699 3701 -3702 3703 3704 3706 3708 0
-3701 -3702 3703 3705 3708 0
3699 -3701 -3703 -3706 -3708 0
3701 3702 3703 3704 -3705 -3708 0
3703 3704 3705 3706 3709 0
3701 -3702 3703 -3706 -3708 0
3701 3702 -3703 3704 3705 -3708 0
-3699 -3701 3702 3704 3705 3706 3708 0
-3699 -3701 3702 3703 3704 -3705 3708 0
-3703 -3704 -3705 3706 3708 0
-3703 3704 -3705 3706 -3708 0
3699 -3700 -3701 -3704 3705 3706 0
-3700 -3701 3702 -3703 3705 -3706 0
-3699 -3700 3701 -3704 -3705 -3708 0
-3701 3702 3705 -3706 -3708 0
-3699 -3703 -3704 3705 -3708 0
3700 3701 -3703 3704 3705 3706 0
3699 3703 3704 3705 3709 0
-3700 3701 3702 -3704 3708 0
3701 3702 -3703 -3705 3708 0
-3699 3701 3702 3703 3705 3708 0
3700 3703 -3704 -3705 -3708 0
3699 3702 -3703 -3705 -3708 0
-3699 -3701 3702 -3704 -3705 3706 0
3700 -3703 -3704 3705 -3708 0
-3699 3700 -3701 -3702 -3708 0
-3699 3701 -3702 -3703 -3704 3706 0
-3700 -3701 3703 -3705 -3708 0
3700 3702 3704 3705 3706 3709 0
3699 -3701 -3702 -3704 3708 0
3699 -3700 3701 3704 3705 -3706 0
-3701 -3702 -3703 -3705 3708 0
-3699 -3700 -3701 -3702 3708 0
-3702 -3709 0
-3699 -3700 -3702 -3703 3704 3705 0
3700 3704 3706 -3708 0
-3699 3703 -3704 3705 3708 0
-3699 -3701 3702 -3703 -3706 0
3699 3704 -3708 0
-3699 3701 -3702 -3705 -3706 0
3699 3701 -3702 -3708 0
3700 3701 3703 3704 3706 3709 0
-3703 -3709 0
3700 3701 3702 3704 -3706 0
3699 3701 3702 -3707 0
3701 3702 3703 -3704 3705 0
-3701 -3709 0
3699 3703 3705 3706 3709 0
-3705 -3709 0
-3700 -3709 0
3707 3708 3709 0
-3707 -3708 0
3710 3711 3713 3714 -3715 -3716 0
3710 -3711 3713 3714 3715 -3717 0
3710 -3711 -3713 3714 -3715 3717 0
-3710 3711 3712 -3714 3715 -3717 3719 0
3711 -3712 3713 3714 3717 3719 0
-3711 3712 -3713 3714 -3716 -3717 0
3710 3711 -3713 -3714 -3715 3716 0
-3710 -3712 -3713 3714 -3715 -3719 0
-3710 3712 -3713 3714 3715 3717 3719 0
-3712 -3713 3714 3716 3719 0
3710 -3712 -3714 -3717 -3719 0
3712 3713 3714 3715 -3716 -3719 0
3714 3715 3716 3717 3720 0
3712 -3713 3714 -3717 -3719 0
3712 3713 -3714 3715 3716 -3719 0
-3710 -3712 3713 3715 3716 3717 3719 0
-3710 -3712 3713 3714 3715 -3716 3719 0
-3714 -3715 -3716 3717 3719 0
-3714 3715 -3716 3717 -3719 0
3710 -3711 -3712 -3715 3716 3717 0
-3711 -3712 3713 -3714 3716 -3717 0
-3710 -3711 3712 -3715 -3716 -3719 0
-3712 3713 3716 -3717 -3719 0
-3710 -3714 -3715 3716 -3719 0
3711 3712 -3714 3715 3716 3717 0
3710 3714 3715 3716 3720 0
-3711 3712 3713 -3715 3719 0
3712 3713 -3714 -3716 3719 0
-3710 3712 3713 3714 3716 3719 0
3711 3714 -3715 -3716 -3719 0
3710 3713 -3714 -3716 -3719 0
-3710 -3712 3713 -3715 -3716 3717 0
3711 -3714 -3715 3716 -3719 0
-3710 3711 -3712 -3713 -3719 0
-3710 3712 -3713 -3714 -3715 3717 0
-3711 -3712 3714 -3716 -3719 0
3711 3713 3715 3716 3717 3720 0
3710 -3712 -3713 -3715 3719 0
3710 -3711 3712 3715 3716 -3717 0
-3712 -3713 -3714 -3716 3719 0
-3710 -3711 -3712 -3713 3719 0
-3713 -3720 0
-3710 -3711 -3713 -3714 3715 3716 0
3711 3715 3717 -3719 0
-3710 3714 -3715 3716 3719 0
-3710 -3712 3713 -3714 -3717 0
3710 3715 -3719 0
-3710 3712 -3713 -3716 -3717 0
3710 3712 -3713 -3719 0
3711 3712 3714 3715 3717 3720 0
-3714 -3720 0
3711 3712 3713 3715 -3717 0
3710 3712 3713 -3718 0
3712 3713 3714 -3715 3716 0
-3712 -3720 0
3710 3714 3716 3717 3720 0
-3716 -3720 0
-3711 -3720 0
3718 3719 3720 0
-3718 -3719 0
3721 3722 3724 3725 -3726 -3727 0
3721 -3722 3724 3725 3726 -3728 0
3721 -3722 -3724 3725 -3726 3728 0
-3721 3722 3723 -3725 3726 -3728 3730 0
3722 -3723 3724 3725 3728 3730 0
-3722 3723 -3724 3725 -3727 -3728 0
3721 3722 -3724 -3725 -3726 3727 0
-3721 -3723 -3724 3725 -3726 -3730 0
-3721 3723 -3724 3725 3726 3728 3730 0
-3723 -3724 3725 3727 3730 0
3721 -3723 -3725 -3728 -3730 0
3723 3724 3725 3726 -3727 -3730 0
3725 3726 3727 3728 3731 0
3723 -3724 3725 -3728 -3730 0
3723 3724 -3725 3726 3727 -3730 0
-3721 -3723 3724 3726 3727 3728 3730 0
-3721 -3723 3724 3725 3726 -3727 3730 0
-3725 -3726 -3727 3728 3730 0
-3725 3726 -3727 3728 -3730 0
3721 -3722 -3723 -3726 3727 3728 0
-3722 -3723 3724 -3725 3727 -3728 0
-3721 -3722 3723 -3726 -3727 -3730 0
-3723 3724 3727 -3728 -3730 0
-3721 -3725 -3726 3727 -3730 0
3722 3723 -3725 3726 3727 3728 0
3721 3725 3726 3727 3731 0
-3722 3723 3724 -3726 3730 0
3723 3724 -3725 -3727 3730 0
-3721 3723 3724 3725 3727 3730 0
3722 3725 -3726 -3727 -3730 0
3721 3724 -3725 -3727 -3730 0
-3721 -3723 3724 -3726 -3727 3728 0
3722 -3725 -3726 3727 -3730 0
-3721 3722 -3723 -3724 -3730 0
-3721 3723 -3724 -3725 -3726 3728 0
-3722 -3723 3725 -3727 -3730 0
3722 3724 3726 3727 3728 3731 0
3721 -3723 -3724 -3726 3730 0
3721 -3722 3723 3726 3727 -3728 0
-3723 -3724 -3725 -3727 3730 0
-3721 -3722 -3723 -3724 3730 0
-3724 -3731 0
-3721 -3722 -3724 -3725 3726 3727 0
3722 3726 3728 -3730 0
-3721 3725 -3726 3727 3730 0
-3721 -3723 3724 -3725 -3728 0
3721 3726 -3730 0
-3721 3723 -3724 -3727 -3728 0
3721 3723 -3724 -3730 0
3722 3723 3725 3726 3728 3731 0
-3725 -3731 0
3722 3723 3724 3726 -3728 0
3721 3723 3724 -3729 0
3723 3724 3725 -3726 3727 0
-3723 -3731 0
3721 3725 3727 3728 3731 0
-3727 -3731 0
-3722 -3731 0
3729 3730 3731 0
-3729 -3730 0
3732 3733 3735 3736 -3737 -3738 0
3732 -3733 3735 3736 3737 -3739 0
3732 -3733 -3735 3736 -3737 3739 0
-3732 3733 3734 -3736 3737 -3739 3741 0
3733 -3734 3735 3736 3739 3741 0
-3733 3734 -3735 3736 -3738 -3739 0
3732 3733 -3735 -3736 -3737 3738 0
-3732 -3734 -3735 3736 -3737 -3741 0
-3732 3734 -3735 3736 3737 3739 3741 0
-3734 -3735 3736 3738 3741 0
3732 -3734 -3736 -3739 -3741 0
3734 3735 3736 3737 -3738 -3741 0
3736 3737 3738 3739 3742 0
3734 -3735 3736 -3739 -3741 0
3734 3735 -3736 3737 3738 -3741 0
-3732 -3734 3735 3737 3738 3739 3741 0
-3732 -3734 3735 3736 3737 -3738 3741 0
-3736 -3737 -3738 3739 3741 0
-3736 3737 -3738 3739 -3741 0
3732 -3733 -3734 -3737 3738 3739 0
-3733 -3734 3735 -3736 3738 -3739 0
-3732 -3733 3734 -3737 -3738 -3741 0
-3734 3735 3738 -3739 -3741 0
-3732 -3736 -3737 3738 -3741 0
3733 3734 -3736 3737 3738 3739 0
3732 3736 3737 3738 3742 0
-3733 3734 3735 -3737 3741 0
3734 3735 -3736 -3738 3741 0
-3732 3734 3735 3736 3738 3741 0
3733 3736 -3737 -3738 -3741 0
3732 3735 -3736 -3738 -3741 0
-3732 -3734 3735 -3737 -3738 3739 0
3733 -3736 -3737 3738 -3741 0
-3732 3733 -3734 -3735 -3741 0
-3732 3734 -3735 -3736 -3737 3739 0
-3733 -3734 3736 -3738 -3741 0
3733 3735 3737 3738 3739 3742 0
3732 -3734 -3735 -3737 3741 0
3732 -3733 3734 3737 3738 -3739 0
-3734 -3735 -3736 -3738 3741 0
-3732 -3733 -3734 -3735 3741 0
-3735 -3742 0
-3732 -3733 -3735 -3736 3737 3738 0
3733 3737 3739 -3741 0
-3732 3736 -3737 3738 3741 0
-3732 -3734 3735 -3736 -3739 0
3732 3737 -3741 0
-3732 3734 -3735 -3738 -3739 0
3732 3734 -3735 -3741 0
3733 3734 3736 3737 3739 3742 0
-3736 -3742 0
3733 3734 3735 3737 -3739 0
3732 3734 3735 -3740 0
3734 3735 3736 -3737 3738 0
-3734 -3742 0
3732 3736 3738 3739 3742 0
-3738 -3742 0
-3733 -3742 0
3740 3741 3742 0
-3740 -3741 0
3743 3744 3746 3747 -3748 -3749 0
3743 -3744 3746 3747 3748 -3750 0
3743 -3744 -3746 3747 -3748 3750 0
-3743 3744 3745 -3747 3748 -3750 3752 0
3744 -3745 3746 3747 3750 3752 0
-3744 3745 -3746 3747 -3749 -3750 0
3743 3744 -3746 -3747 -3748 3749 0
-3743 -3745 -3746 3747 -3748 -3752 0
-3743 3745 -3746 3747 3748 3750 3752 0
-3745 -3746 3747 3749 3752 0
3743 -3745 -3747 -3750 -3752 0
3745 3746 3747 3748 -3749 -3752 0
3747 3748 3749 3750 3753 0
3745 -3746 3747 -3750 -3752 0
3745 3746 -3747 3748 3749 -3752 0
-3743 -3745 3746 3748 3749 3750 3752 0
-3743 -3745 3746 3747 3748 -3749 3752 0
-3747 -3748 -3749 3750 3752 0
-3747 3748 -3749 3750 -3752 0
3743 -3744 -3745 -3748 3749 3750 0
-3744 -3745 3746 -3747 3749 -3750 0
-3743 -3744 3745 -3748 -3749 -3752 0
-3745 3746 3749 -3750 -3752 0
-3743 -3747 -3748 3749 -3752 0
3744 3745 -3747 3748 3749 3750 0
3743 3747 3748 3749 3753 0
-3744 3745 3746 -3748 3752 0
3745 3746 -3747 -3749 3752 0
-3743 3745 3746 3747 3749 3752 0
3744 3747 -3748 -3749 -3752 0
3743 3746 -3747 -3749 -3752 0
-3743 -3745 3746 -3748 -3749 3750 0
3744 -3747 -3748 3749 -3752 0
-3743 3744 -3745 -3746 -3752 0
-3743 3745 -3746 -3747 -3748 3750 0
-3744 -3745 3747 -3749 -3752 0
3744 3746 3748 3749 3750 3753 0
3743 -3745 -3746 -3748 3752 0
3743 -3744 3745 3748 3749 -3750 0
-3745 -3746 -3747 -3749 3752 0
-3743 -3744 -3745 -3746 3752 0
-3746 -3753 0
-3743 -3744 -3746 -3747 3748 3749 0
3744 3748 3750 -3752 0
-3743 3747 -3748 3749 3752 0
-3743 -3745 3746 -3747 -3750 0
3743 3748 -3752 0
-3743 3745 -3746 -3749 -3750 0
3743 3745 -3746 -3752 0
3744 3745 3747 3748 3750 3753 0
-3747 -3753 0
3744 3745 3746 3748 -3750 0
3743 3745 3746 -3751 0
3745 3746 3747 -3748 3749 0
-3745 -3753 0
3743 3747 3749 3750 3753 0
-3749 -3753 0
-3744 -3753 0
3751 3752 3753 0
-3751 -3752 0
3754 3755 3757 3758 -3759 -3760 0
3754 -3755 3757 3758 3759 -3761 0
3754 -3755 -3757 3758 -3759 3761 0
-3754 3755 3756 -3758 3759 -3761 3763 0
3755 -3756 3757 3758 3761 3763 0
-3755 3756 -3757 3758 -3760 -3761 0
3754 3755 -3757 -3758 -3759 3760 0
-3754 -3756 -3757 3758 -3759 -3763 0
-3754 3756 -3757 3758 3759 3761 3763 0
-3756 -3757 3758 3760 3763 0
3754 -3756 -3758 -3761 -3763 0
3756 3757 3758 3759 -3760 -3763 0
3758 3759 3760 3761 3764 0
3756 -3757 3758 -3761 -3763 0
3756 3757 -3758 3759 3760 -3763 0
-3754 -3756 3757 3759 3760 3761 3763 0
-3754 -3756 3757 3758 3759 -3760 3763 0
-3758 -3759 -3760 3761 3763 0
-3758 3759 -3760 3761 -3763 0
3754 -3755 -3756 -3759 3760 3761 0
-3755 -3756 3757 -3758 3760 -3761 0
-3754 -3755 3756 -3759 -3760 -3763 0
-3756 3757 3760 -3761 -3763 0
-3754 -3758 -3759 3760 -3763 0
3755 3756 -3758 3759 3760 3761 0
3754 3758 3759 3760 3764 0
-3755 3756 3757 -3759 3763 0
3756 3757 -3758 -3760 3763 0
-3754 3756 3757 3758 3760 3763 0
3755 3758 -3759 -3760 -3763 0
3754 3757 -3758 -3760 -3763 0
-3754 -3756 3757 -3759 -3760 3761 0
3755 -3758 -3759 3760 -3763 0
-3754 3755 -3756 -3757 -3763 0
-3754 3756 -3757 -3758 -3759 3761 0
-3755 -3756 3758 -3760 -3763 0
3755 3757 3759 3760 3761 3764 0
3754 -3756 -3757 -3759 3763 0
3754 -3755 3756 3759 3760 -3761 0
-3756 -3757 -3758 -3760 3763 0
-3754 -3755 -3756 -3757 3763 0
-3757 -3764 0
-3754 -3755 -3757 -3758 3759 3760 0
3755 3759 3761 -3763 0
-3754 3758 -3759 3760 3763 0
-3754 -3756 3757 -3758 -3761 0
3754 3759 -3763 0
-3754 3756 -3757 -3760 -3761 0
3754 3756 -3757 -3763 0
3755 3756 3758 3759 3761 3764 0
-3758 -3764 0
3755 3756 3757 3759 -3761 0
3754 3756 3757 -3762 0
3756 3757 3758 -3759 3760 0
-3756 -3764 0
3754 3758 3760 3761 3764 0
-3760 -3764 0
-3755 -3764 0
3762 3763 3764 0
-3762 -3763 0
3765 3766 3768 3769 -3770 -3771 0
3765 -3766 3768 3769 3770 -3772 0
3765 -3766 -3768 3769 -3770 3772 0
-3765 3766 3767 -3769 3770 -3772 3774 0
3766 -3767 3768 3769 3772 3774 0
-3766 3767 -3768 3769 -3771 -3772 0
3765 3766 -3768 -3769 -3770 3771 0
-3765 -3767 -3768 3769 -3770 -3774 0
-3765 3767 -3768 3769 3770 3772 3774 0
-3767 -3768 3769 3771 3774 0
3765 -3767 -3769 -3772 -3774 0
3767 3768 3769 3770 -3771 -3774 0
3769 3770 3771 3772 3775 0
3767 -3768 3769 -3772 -3774 0
3767 3768 -3769 3770 3771 -3774 0
-3765 -3767 3768 3770 3771 3772 3774 0
-3765 -3767 3768 3769 3770 -3771 3774 0
-3769 -3770 -3771 3772 3774 0
-3769 3770 -3771 3772 -3774 0
3765 -3766 -3767 -3770 3771 3772 0
-3766 -3767 3768 -3769 3771 -3772 0
-3765 -3766 3767 -3770 -3771 -3774 0
-3767 3768 3771 -3772 -3774 0
-3765 -3769 -3770 3771 -3774 0
3766 3767 -3769 3770 3771 3772 0
3765 3769 3770 3771 3775 0
-3766 3767 3768 -3770 3774 0
3767 3768 -3769 -3771 3774 0
-3765 3767 3768 3769 3771 3774 0
3766 3769 -3770 -3771 -3774 0
3765 3768 -3769 -3771 -3774 0
-3765 -3767 3768 -3770 -3771 3772 0
3766 -3769 -3770 3771 -3774 0
-3765 3766 -3767 -3768 -3774 0
-3765 3767 -3768 -3769 -3770 3772 0
-3766 -3767 3769 -3771 -3774 0
3766 3768 3770 3771 3772 3775 0
3765 -3767 -3768 -3770 3774 0
3765 -3766 3767 3770 3771 -3772 0
-3767 -3768 -3769 -3771 3774 0
-3765 -3766 -3767 -3768 3774 0
-3768 -3775 0
-3765 -3766 -3768 -3769 3770 3771 0
3766 3770 3772 -3774 0
-3765 3769 -3770 3771 3774 0
-3765 -3767 3768 -3769 -3772 0
3765 3770 -3774 0
-3765 3767 -3768 -3771 -3772 0
3765 3767 -3768 -3774 0
3766 3767 3769 3770 3772 3775 0
-3769 -3775 0
3766 3767 3768 3770 -3772 0
3765 3767 3768 -3773 0
3767 3768 3769 -3770 3771 0
-3767 -3775 0
3765 3769 3771 3772 3775 0
-3771 -3775 0
-3766 -3775 0
3773 3774 3775 0
-3773 -3774 0
3776 3777 3779 3780 -3781 -3782 0
3776 -3777 3779 3780 3781 -3783 0
3776 -3777 -3779 3780 -3781 3783 0
-3776 3777 3778 -3780 3781 -3783 3785 0
3777 -3778 3779 3780 3783 3785 0
-3777 3778 -3779 3780 -3782 -3783 0
3776 3777 -3779 -3780 -3781 3782 0
-3776 -3778 -3779 3780 -3781 -3785 0
-3776 3778 -3779 3780 3781 3783 3785 0
-3778 -3779 3780 3782 3785 0
3776 -3778 -3780 -3783 -3785 0
3778 3779 3780 3781 -3782 -3785 0
3780 3781 3782 3783 3786 0
3778 -3779 3780 -3783 -3785 0
3778 3779 -3780 3781 3782 -3785 0
-3776 -3778 3779 3781 3782 3783 3785 0
-3776 -3778 3779 3780 3781 -3782 3785 0
-3780 -3781 -3782 3783 3785 0
-3780 3781 -3782 3783 -3785 0
3776 -3777 -3778 -3781 3782 3783 0
-3777 -3778 3779 -3780 3782 -3783 0
-3776 -3777 3778 -3781 -3782 -3785 0
-3778 3779 3782 -3783 -3785 0
-3776 -3780 -3781 3782 -3785 0
3777 3778 -3780 3781 3782 3783 0
3776 3780 3781 3782 3786 0
-3777 3778 3779 -3781 3785 0
3778 3779 -3780 -3782 3785 0
-3776 3778 3779 3780 3782 3785 0
3777 3780 -3781 -3782 -3785 0
3776 3779 -3780 -3782 -3785 0
-3776 -3778 3779 -3781 -3782 3783 0
3777 -3780 -3781 3782 -3785 0
-3776 3777 -3778 -3779 -3785 0
-3776 3778 -3779 -3780 -3781 3783 0
-3777 -3778 3780 -3782 -3785 0
3777 3779 3781 3782 3783 3786 0
3776 -3778 -3779 -3781 3785 0
3776 -3777 3778 3781 3782 -3783 0
-3778 -3779 -3780 -3782 3785 0
-3776 -3777 -3778 -3779 3785 0
-3779 -3786 0
-3776 -3777 -3779 -3780 3781 3782 0
3777 3781 3783 -3785 0
-3776 3780 -3781 3782 3785 0
-3776 -3778 3779 -3780 -3783 0
3776 3781 -3785 0
-3776 3778 -3779 -3782 -3783 0
3776 3778 -3779 -3785 0
3777 3778 3780 3781 3783 3786 0
-3780 -3786 0
3777 3778 3779 3781 -3783 0
3776 3778 3779 -3784 0
3778 3779 3780 -3781 3782 0
-3778 -3786 0
3776 3780 3782 3783 3786 0
-3782 -3786 0
-3777 -3786 0
3784 3785 3786 0
-3784 -3785 0
3787 3788 3790 3791 -3792 -3793 0
3787 -3788 3790 3791 3792 -3794 0
3787 -3788 -3790 3791 -3792 3794 0
-3787 3788 3789 -3791 3792 -3794 3796 0
3788 -3789 3790 3791 3794 3796 0
-3788 3789 -3790 3791 -3793 -3794 0
3787 3788 -3790 -3791 -3792 3793 0
-3787 -3789 -3790 3791 -3792 -3796 0
-3787 3789 -3790 3791 3792 3794 3796 0
-3789 -3790 3791 3793 3796 0
3787 -3789 -3791 -3794 -3796 0
3789 3790 3791 3792 -3793 -3796 0
3791 3792 3793 3794 3797 0
3789 -3790 3791 -3794 -3796 0
3789 3790 -3791 3792 3793 -3796 0
-3787 -3789 3790 3792 3793 3794 3796 0
-3787 -3789 3790 3791 3792 -3793 3796 0
-3791 -3792 -3793 3794 3796 0
-3791 3792 -3793 3794 -3796 0
3787 -3788 -3789 -3792 3793 3794 0
-3788 -3789 3790 -3791 3793 -3794 0
-3787 -3788 3789 -3792 -3793 -3796 0
-3789 3790 3793 -3794 -3796 0
-3787 -3791 -3792 3793 -3796 0
3788 3789 -3791 3792 3793 3794 0
3787 3791 3792 3793 3797 0
-3788 3789 3790 -3792 3796 0
3789 3790 -3791 -3793 3796 0
-3787 3789 3790 3791 3793 3796 0
3788 3791 -3792 -3793 -3796 0
3787 3790 -3791 -3793 -3796 0
-3787 -3789 3790 -3792 -3793 3794 0
3788 -3791 -3792 3793 -3796 0
-3787 3788 -3789 -3790 -3796 0
-3787 3789 -3790 -3791 -3792 3794 0
-3788 -3789 3791 -3793 -3796 0
3788 3790 3792 3793 3794 3797 0
3787 -3789 -3790 -3792 3796 0
3787 -3788 3789 3792 3793 -3794 0
-3789 -3790 -3791 -3793 3796 0
-3787 -3788 -3789 -3790 3796 0
-3790 -3797 0
-3787 -3788 -3790 -3791 3792 3793 0
3788 3792 3794 -3796 0
-3787 3791 -3792 3793 3796 0
-3787 -3789 3790 -3791 -3794 0
3787 3792 -3796 0
-3787 3789 -3790 -3793 -3794 0
3787 3789 -3790 -3796 0
3788 3789 3791 3792 3794 3797 0
-3791 -3797 0
3788 3789 3790 3792 -3794 0
3787 3789 3790 -3795 0
3789 3790 3791 -3792 3793 0
-3789 -3797 0
3787 3791 3793 3794 3797 0
-3793 -3797 0
-3788 -3797 0
3795 3796 3797 0
-3795 -3796 0
3798 3799 3801 3802 -3803 -3804 0
3798 -3799 3801 3802 3803 -3805 0
3798 -3799 -3801 3802 -3803 3805 0
-3798 3799 3800 -3802 3803 -3805 3807 0
3799 -3800 3801 3802 3805 3807 0
-3799 3800 -3801 3802 -3804 -3805 0
3798 3799 -3801 -3802 -3803 3804 0
-3798 -3800 -3801 3802 -3803 -3807 0
-3798 3800 -3801 3802 3803 3805 3807 0
-3800 -3801 3802 3804 3807 0
3798 -3800 -3802 -3805 -3807 0
3800 3801 3802 3803 -3804 -3807 0
3802 3803 3804 3805 3808 0
3800 -3801 3802 -3805 -3807 0
3800 3801 -3802 3803 3804 -3807 0
-3798 -3800 3801 3803 3804 3805 3807 0
-3798 -3800 3801 3802 3803 -3804 3807 0
-3802 -3803 -3804 3805 3807 0
-3802 3803 -3804 3805 -3807 0
3798 -3799 -3800 -3803 3804 3805 0
-3799 -3800 3801 -3802 3804 -3805 0
-3798 -3799 3800 -3803 -3804 -3807 0
-3800 3801 3804 -3805 -3807 0
-3798 -3802 -3803 3804 -3807 0
3799 3800 -3802 3803 3804 3805 0
3798 3802 3803 3804 3808 0
-3799 3800 3801 -3803 3807 0
3800 3801 -3802 -3804 3807 0
-3798 3800 3801 3802 3804 3807 0
3799 3802 -3803 -3804 -3807 0
3798 3801 -3802 -3804 -3807 0
-3798 -3800 3801 -3803 -3804 3805 0
3799 -3802 -3803 3804 -3807 0
-3798 3799 -3800 -3801 -3807 0
-3798 3800 -3801 -3802 -3803 3805 0
-3799 -3800 3802 -3804 -3807 0
3799 3801 3803 3804 3805 3808 0
3798 -3800 -3801 -3803 3807 0
3798 -3799 3800 3803 3804 -3805 0
-3800 -3801 -3802 -3804 3807 0
-3798 -3799 -3800 -3801 3807 0
-3801 -3808 0
-3798 -3799 -3801 -3802 3803 3804 0
3799 3803 3805 -3807 0
-3798 3802 -3803 3804 3807 0
-3798 -3800 3801 -3802 -3805 0
3798 3803 -3807 0
-3798 3800 -3801 -3804 -3805 0
3798 3800 -3801 -3807 0
3799 3800 3802 3803 3805 3808 0
-3802 -3808 0
3799 3800 3801 3803 -3805 0
3798 3800 3801 -3806 0
3800 3801 3802 -3803 3804 0
-3800 -3808 0
3798 3802 3804 3805 3808 0
-3804 -3808 0
-3799 -3808 0
3806 3807 3808 0
-3806 -3807 0
3809 3810 3812 3813 -3814 -3815 0
3809 -3810 3812 3813 3814 -3816 0
3809 -3810 -3812 3813 -3814 3816 0
-3809 3810 3811 -3813 3814 -3816 3818 0
3810 -3811 3812 3813 3816 3818 0
-3810 3811 -3812 3813 -3815 -3816 0
3809 3810 -3812 -3813 -3814 3815 0
-3809 -3811 -3812 3813 -3814 -3818 0
-3809 3811 -3812 3813 3814 3816 3818 0
-3811 -3812 3813 3815 3818 0
3809 -3811 -3813 -3816 -3818 0
3811 3812 3813 3814 -3815 -3818 0
3813 3814 3815 3816 3819 0
3811 -3812 3813 -3816 -3818 0
3811 3812 -3813 3814 3815 -3818 0
-3809 -3811 3812 3814 3815 3816 3818 0
-3809 -3811 3812 3813 3814 -3815 3818 0
-3813 -3814 -3815 3816 3818 0
-3813 3814 -3815 3816 -3818 0
3809 -3810 -3811 -3814 3815 3816 0
-3810 -3811 3812 -3813 3815 -3816 0
-3809 -3810 3811 -3814 -3815 -3818 0
-3811 3812 3815 -3816 -3818 0
-3809 -3813 -3814 3815 -3818 0
3810 3811 -3813 3814 3815 3816 0
3809 3813 3814 3815 3819 0
-3810 3811 3812 -3814 3818 0
3811 3812 -3813 -3815 3818 0
-3809 3811 3812 3813 3815 3818 0
3810 3813 -3814 -3815 -3818 0
3809 3812 -3813 -3815 -3818 0
-3809 -3811 3812 -3814 -3815 3816 0
3810 -3813 -3814 3815 -3818 0
-3809 3810 -3811 -3812 -3818 0
-3809 3811 -3812 -3813 -3814 3816 0
-3810 -3811 3813 -3815 -3818 0
3810 3812 3814 3815 3816 3819 0
3809 -3811 -3812 -3814 3818 0
3809 -3810 3811 3814 3815 -3816 0
-3811 -3812 -3813 -3815 3818 0
-3809 -3810 -3811 -3812 3818 0
-3812 -3819 0
-3809 -3810 -3812 -3813 3814 3815 0
3810 3814 3816 -3818 0
-3809 3813 -3814 3815 3818 0
-3809 -3811 3812 -3813 -3816 0
3809 3814 -3818 0
-3809 3811 -3812 -3815 -3816 0
3809 3811 -3812 -3818 0
3810 3811 3813 3814 3816 3819 0
-3813 -3819 0
3810 3811 3812 3814 -3816 0
3809 3811 3812 -3817 0
3811 3812 3813 -3814 3815 0
-3811 -3819 0
3809 3813 3815 3816 3819 0
-3815 -3819 0
-3810 -3819 0
3817 3818 3819 0
-3817 -3818 0
3820 3821 3823 3824 -3825 -3826 0
3820 -3821 3823 3824 3825 -3827 0
3820 -3821 -3823 3824 -3825 3827 0
-3820 3821 3822 -3824 3825 -3827 3829 0
3821 -3822 3823 3824 3827 3829 0
-3821 3822 -3823 3824 -3826 -3827 0
3820 3821 -3823 -3824 -3825 3826 0
-3820 -3822 -3823 3824 -3825 -3829 0
-3820 3822 -3823 3824 3825 3827 3829 0
-3822 -3823 3824 3826 3829 0
3820 -3822 -3824 -3827 -3829 0
3822 3823 3824 3825 -3826 -3829 0
3824 3825 3826 3827 3830 0
3822 -3823 3824 -3827 -3829 0
3822 3823 -3824 3825 3826 -3829 0
-3820 -3822 3823 3825 3826 3827 3829 0
-3820 -3822 3823 3824 3825 -3826 3829 0
-3824 -3825 -3826 3827 3829 0
-3824 3825 -3826 3827 -3829 0
3820 -3821 -3822 -3825 3826 3827 0
-3821 -3822 3823 -3824 3826 -3827 0
-3820 -3821 3822 -3825 -3826 -3829 0
-3822 3823 3826 -3827 -3829 0
-3820 -3824 -3825 3826 -3829 0
3821 3822 -3824 3825 3826 3827 0
3820 3824 3825 3826 3830 0
-3821 3822 3823 -3825 3829 0
3822 3823 -3824 -3826 3829 0
-3820 3822 3823 3824 3826 3829 0
3821 3824 -3825 -3826 -3829 0
3820 3823 -3824 -3826 -3829 0
-3820 -3822 3823 -3825 -3826 3827 0
3821 -3824 -3825 3826 -3829 0
-3820 3821 -3822 -3823 -3829 0
-3820 3822 -3823 -3824 -3825 3827 0
-3821 -3822 3824 -3826 -3829 0
3821 3823 3825 3826 3827 3830 0
3820 -3822 -3823 -3825 3829 0
3820 -3821 3822 3825 3826 -3827 0
-3822 -3823 -3824 -3826 3829 0
-3820 -3821 -3822 -3823 3829 0
-3823 -3830 0
-3820 -3821 -3823 -3824 3825 3826 0
3821 3825 3827 -3829 0
-3820 3824 -3825 3826 3829 0
-3820 -3822 3823 -3824 -3827 0
3820 3825 -3829 0
-3820 3822 -3823 -3826 -3827 0
3820 3822 -3823 -3829 0
3821 3822 3824 3825 3827 3830 0
-3824 -3830 0
3821 3822 3823 3825 -3827 0
3820 3822 3823 -3828 0
3822 3823 3824 -3825 3826 0
-3822 -3830 0
3820 3824 3826 3827 3830 0
-3826 -3830 0
-3821 -3830 0
3828 3829 3830 0
-3828 -3829 0
3831 3832 3834 3835 -3836 -3837 0
3831 -3832 3834 3835 3836 -3838 0
3831 -3832 -3834 3835 -3836 3838 0
-3831 3832 3833 -3835 3836 -3838 3840 0
3832 -3833 3834 3835 3838 3840 0
-3832 3833 -3834 3835 -3837 -3838 0
3831 3832 -3834 -3835 -3836 3837 0
-3831 -3833 -3834 3835 -3836 -3840 0
-3831 3833 -3834 3835 3836 3838 3840 0
-3833 -3834 3835 3837 3840 0
3831 -3833 -3835 -3838 -3840 0
3833 3834 3835 3836 -3837 -3840 0
3835 3836 3837 3838 3841 0
3833 -3834 3835 -3838 -3840 0
3833 3834 -3835 3836 3837 -3840 0
-3831 -3833 3834 3836 3837 3838 3840 0
-3831 -3833 3834 3835 3836 -3837 3840 0
-3835 -3836 -3837 3838 3840 0
-3835 3836 -3837 3838 -3840 0
3831 -3832 -3833 -3836 3837 3838 0
-3832 -3833 3834 -3835 3837 -3838 0
-3831 -3832 3833 -3836 -3837 -3840 0
-3833 3834 3837 -3838 -3840 0
-3831 -3835 -3836 3837 -3840 0
3832 3833 -3835 3836 3837 3838 0
3831 3835 3836 3837 3841 0
-3832 3833 3834 -3836 3840 0
3833 3834 -3835 -3837 3840 0
-3831 3833 3834 3835 3837 3840 0
3832 3835 -3836 -3837 -3840 0
3831 3834 -3835 -3837 -3840 0
-3831 -3833 3834 -3836 -3837 3838 0
3832 -3835 -3836 3837 -3840 0
-3831 3832 -3833 -3834 -3840 0
-3831 3833 -3834 -3835 -3836 3838 0
-3832 -3833 3835 -3837 -3840 0
3832 3834 3836 3837 3838 3841 0
3831 -3833 -3834 -3836 3840 0
3831 -3832 3833 3836 3837 -3838 0
-3833 -3834 -3835 -3837 3840 0
-3831 -3832 -3833 -3834 3840 0
-3834 -3841 0
-3831 -3832 -3834 -3835 3836 3837 0
3832 3836 3838 -3840 0
-3831 3835 -3836 3837 3840 0
-3831 -3833 3834 -3835 -3838 0
3831 3836 -3840 0
-3831 3833 -3834 -3837 -3838 0
3831 3833 -3834 -3840 0
3832 3833 3835 3836 3838 3841 0
-3835 -3841 0
3832 3833 3834 3836 -3838 0
3831 3833 3834 -3839 0
3833 3834 3835 -3836 3837 0
-3833 -3841 0
3831 3835 3837 3838 3841 0
-3837 -3841 0
-3832 -3841 0
3839 3840 3841 0
-3839 -3840 0
3842 3843 3845 3846 -3847 -3848 0
3842 -3843 3845 3846 3847 -3849 0
3842 -3843 -3845 3846 -3847 3849 0
-3842 3843 3844 -3846 3847 -3849 3851 0
3843 -3844 3845 3846 3849 3851 0
-3843 3844 -3845 3846 -3848 -3849 0
3842 3843 -3845 -3846 -3847 3848 0
-3842 -3844 -3845 3846 -3847 -3851 0
-3842 3844 -3845 3846 3847 3849 3851 0
-3844 -3845 3846 3848 3851 0
3842 -3844 -3846 -3849 -3851 0
3844 3845 3846 3847 -3848 -3851 0
3846 3847 3848 3849 3852 0
3844 -3845 3846 -3849 -3851 0
3844 3845 -3846 3847 3848 -3851 0
-3842 -3844 3845 3847 3848 3849 3851 0
-3842 -3844 3845 3846 3847 -3848 3851 0
-3846 -3847 -3848 3849 3851 0
-3846 3847 -3848 3849 -3851 0
3842 -3843 -3844 -3847 3848 3849 0
-3843 -3844 3845 -3846 3848 -3849 0
-3842 -3843 3844 -3847 -3848 -3851 0
-3844 3845 3848 -3849 -3851 0
-3842 -3846 -3847 3848 -3851 0
3843 3844 -3846 3847 3848 3849 0
3842 3846 3847 3848 3852 0
-3843 3844 3845 -3847 3851 0
3844 3845 -3846 -3848 3851 0
-3842 3844 3845 3846 3848 3851 0
3843 3846 -3847 -3848 -3851 0
3842 3845 -3846 -3848 -3851 0
-3842 -3844 3845 -3847 -3848 3849 0
3843 -3846 -3847 3848 -3851 0
-3842 3843 -3844 -3845 -3851 0
-3842 3844 -3845 -3846 -3847 3849 0
-3843 -3844 3846 -3848 -3851 0
3843 3845 3847 3848 3849 3852 0
3842 -3844 -3845 -3847 3851 0
3842 -3843 3844 3847 3848 -3849 0
-3844 -3845 -3846 -3848 3851 0
-3842 -3843 -3844 -3845 3851 0
-3845 -3852 0
-3842 -3843 -3845 -3846 3847 3848 0
3843 3847 3849 -3851 0
-3842 3846 -3847 3848 3851 0
-3842 -3844 3845 -3846 -3849 0
3842 3847 -3851 0
-3842 3844 -3845 -3848 -3849 0
3842 3844 -3845 -3851 0
3843 3844 3846 3847 3849 3852 0
-3846 -3852 0
3843 3844 3845 3847 -3849 0
3842 3844 3845 -3850 0
3844 3845 3846 -3847 3848 0
-3844 -3852 0
3842 3846 3848 3849 3852 0
-3848 -3852 0
-3843 -3852 0
3850 3851 3852 0
-3850 -3851 0
3853 3854 3856 3857 -3858 -3859 0
3853 -3854 3856 3857 3858 -3860 0
3853 -3854 -3856 3857 -3858 3860 0
-3853 3854 3855 -3857 3858 -3860 3862 0
3854 -3855 3856 3857 3860 3862 0
-3854 3855 -3856 3857 -3859 -3860 0
3853 3854 -3856 -3857 -3858 3859 0
-3853 -3855 -3856 3857 -3858 -3862 0
-3853 3855 -3856 3857 3858 3860 3862 0
-3855 -3856 3857 3859 3862 0
3853 -3855 -3857 -3860 -3862 0
3855 3856 3857 3858 -3859 -3862 0
3857 3858 3859 3860 3863 0
3855 -3856 3857 -3860 -3862 0
3855 3856 -3857 3858 3859 -3862 0
-3853 -3855 3856 3858 3859 3860 3862 0
-3853 -3855 3856 3857 3858 -3859 3862 0
-3857 -3858 -3859 3860 3862 0
-3857 3858 -3859 3860 -3862 0
3853 -3854 -3855 -3858 3859 3860 0
-3854 -3855 3856 -3857 3859 -3860 0
-3853 -3854 3855 -3858 -3859 -3862 0
-3855 3856 3859 -3860 -3862 0
-3853 -3857 -3858 3859 -3862 0
3854 3855 -3857 3858 3859 3860 0
3853 3857 3858 3859 3863 0
-3854 3855 3856 -3858 3862 0
3855 3856 -3857 -3859 3862 0
-3853 3855 3856 3857 3859 3862 0
3854 3857 -3858 -3859 -3862 0
3853 3856 -3857 -3859 -3862 0
-3853 -3855 3856 -3858 -3859 3860 0
3854 -3857 -3858 3859 -3862 0
-3853 3854 -3855 -3856 -3862 0
-3853 3855 -3856 -3857 -3858 3860 0
-3854 -3855 3857 -3859 -3862 0
3854 3856 3858 3859 3860 3863 0
3853 -3855 -3856 -3858 3862 0
3853 -3854 3855 3858 3859 -3860 0
-3855 -3856 -3857 -3859 3862 0
-3853 -3854 -3855 -3856 3862 0
-3856 -3863 0
-3853 -3854 -3856 -3857 3858 3859 0
3854 3858 3860 -3862 0
-3853 3857 -3858 3859 3862 0
-3853 -3855 3856 -3857 -3860 0
3853 3858 -3862 0
-3853 3855 -3856 -3859 -3860 0
3853 3855 -3856 -3862 0
3854 3855 3857 3858 3860 3863 0
-3857 -3863 0
3854 3855 3856 3858 -3860 0
3853 3855 3856 -3861 0
3855 3856 3857 -3858 3859 0
-3855 -3863 0
3853 3857 3859 3860 3863 0
-3859 -3863 0
-3854 -3863 0
3861 3862 3863 0
-3861 -3862 0
3864 3865 3867 3868 -3869 -3870 0
3864 -3865 3867 3868 3869 -3871 0
3864 -3865 -3867 3868 -3869 3871 0
-3864 3865 3866 -3868 3869 -3871 3873 0
3865 -3866 3867 3868 3871 3873 0
-3865 3866 -3867 3868 -3870 -3871 0
3864 3865 -3867 -3868 -3869 3870 0
-3864 -3866 -3867 3868 -3869 -3873 0
-3864 3866 -3867 3868 3869 3871 3873 0
-3866 -3867 3868 3870 3873 0
3864 -3866 -3868 -3871 -3873 0
3866 3867 3868 3869 -3870 -3873 0
3868 3869 3870 3871 3874 0
3866 -3867 3868 -3871 -3873 0
3866 3867 -3868 3869 3870 -3873 0
-3864 -3866 3867 3869 3870 3871 3873 0
-3864 -3866 3867 3868 3869 -3870 3873 0
-3868 -3869 -3870 3871 3873 0
-3868 3869 -3870 3871 -3873 0
3864 -3865 -3866 -3869 3870 3871 0
-3865 -3866 3867 -3868 3870 -3871 0
-3864 -3865 3866 -3869 -3870 -3873 0
-3866 3867 3870 -3871 -3873 0
-3864 -3868 -3869 3870 -3873 0
3865 3866 -3868 3869 3870 3871 0
3864 3868 3869 3870 3874 0
-3865 3866 3867 -3869 3873 0
3866 3867 -3868 -3870 3873 0
-3864 3866 3867 3868 3870 3873 0
3865 3868 -3869 -3870 -3873 0
3864 3867 -3868 -3870 -3873 0
-3864 -3866 3867 -3869 -3870 3871 0
3865 -3868 -3869 3870 -3873 0
-3864 3865 -3866 -3867 -3873 0
-3864 3866 -3867 -3868 -3869 3871 0
-3865 -3866 3868 -3870 -3873 0
3865 3867 3869 3870 3871 3874 0
3864 -3866 -3867 -3869 3873 0
3864 -3865 3866 3869 3870 -3871 0
-3866 -3867 -3868 -3870 3873 0
-3864 -3865 -3866 -3867 3873 0
-3867 -3874 0
-3864 -3865 -3867 -3868 3869 3870 0
3865 3869 3871 -3873 0
-3864 3868 -3869 3870 3873 0
-3864 -3866 3867 -3868 -3871 0
3864 3869 -3873 0
-3864 3866 -3867 -3870 -3871 0
3864 3866 -3867 -3873 0
3865 3866 3868 3869 3871 3874 0
-3868 -3874 0
3865 3866 3867 3869 -3871 0
3864 3866 3867 -3872 0
3866 3867 3868 -3869 3870 0
-3866 -3874 0
3864 3868 3870 3871 3874 0
-3870 -3874 0
-3865 -3874 0
3872 3873 3874 0
-3872 -3873 0
-4003 3875 0
4003 -3875 0
-4004 3876 0
4004 -3876 0
-4005 3877 0
4005 -3877 0
-4006 3878 0
4006 -3878 0
-4007 3879 0
4007 -3879 0
-4008 3880 0
4008 -3880 0
-4009 3881 0
4009 -3881 0
-4010 3882 0
4010 -3882 0
-4011 3883 0
4011 -3883 0
-4012 3884 0
4012 -3884 0
-4013 3885 0
4013 -3885 0
-4014 3886 0
4014 -3886 0
-4015 3887 0
4015 -3887 0
-4016 3888 0
4016 -3888 0
-4017 3889 0
4017 -3889 0
-4018 3890 0
4018 -3890 0
-4019 3891 0
4019 -3891 0
-4020 3892 0
4020 -3892 0
-4021 3893 0
4021 -3893 0
-4022 3894 0
4022 -3894 0
-4023 3895 0
4023 -3895 0
-4024 3896 0
4024 -3896 0
-4025 3897 0
4025 -3897 0
-4026 3898 0
4026 -3898 0
-4027 3899 0
4027 -3899 0
-4028 3900 0
4028 -3900 0
-4029 3901 0
4029 -3901 0
-4030 3902 0
4030 -3902 0
-4031 3903 0
4031 -3903 0
-4032 3904 0
4032 -3904 0
-4033 3905 0
4033 -3905 0
-4034 3906 0
4034 -3906 0
-4035 3907 0
4035 -3907 0
-4036 3908 0
4036 -3908 0
-4037 3909 0
4037 -3909 0
-4038 3910 0
4038 -3910 0
-4039 3911 0
4039 -3911 0
-4040 3912 0
4040 -3912 0
-4041 3913 0
4041 -3913 0
-4042 3914 0
4042 -3914 0
-4043 3915 0
4043 -3915 0
-4044 3916 0
4044 -3916 0
-4045 3917 0
4045 -3917 0
-4046 3918 0
4046 -3918 0
-4047 3919 0
4047 -3919 0
-4048 3920 0
4048 -3920 0
-4049 3921 0
4049 -3921 0
-4050 3922 0
4050 -3922 0
-4051 3923 0
4051 -3923 0
-4052 3924 0
4052 -3924 0
-4053 3925 0
4053 -3925 0
-4054 3926 0
4054 -3926 0
-4055 3927 0
4055 -3927 0
-4056 3928 0
4056 -3928 0
-4057 3929 0
4057 -3929 0
-4058 3930 0
4058 -3930 0
-4059 3931 0
4059 -3931 0
-4060 3932 0
4060 -3932 0
-4061 3933 0
4061 -3933 0
-4062 3934 0
4062 -3934 0
-4063 3935 0
4063 -3935 0
-4064 3936 0
4064 -3936 0
-4065 3937 0
4065 -3937 0
-4066 3938 0
4066 -3938 0
-4067 3939 0
4067 -3939 0
-4068 3940 0
4068 -3940 0
-4069 3941 0
4069 -3941 0
-4070 3942 0
4070 -3942 0
-4071 3943 0
4071 -3943 0
-4072 3944 0
4072 -3944 0
-4073 3945 0
4073 -3945 0
-4074 3946 0
4074 -3946 0
-4075 3947 0
4075 -3947 0
-4076 3948 0
4076 -3948 0
-4077 3949 0
4077 -3949 0
-4078 3950 0
4078 -3950 0
-4079 3951 0
4079 -3951 0
-4080 3952 0
4080 -3952 0
-4081 3953 0
4081 -3953 0
-4082 3954 0
4082 -3954 0
-4083 3955 0
4083 -3955 0
-4084 3956 0
4084 -3956 0
-4085 3957 0
4085 -3957 0
-4086 3958 0
4086 -3958 0
-4087 3959 0
4087 -3959 0
-4088 3960 0
4088 -3960 0
-4089 3961 0
4089 -3961 0
-4090 3962 0
4090 -3962 0
-4091 3963 0
4091 -3963 0
-4092 3964 0
4092 -3964 0
-4093 3965 0
4093 -3965 0
-4094 3966 0
4094 -3966 0
-4095 3967 0
4095 -3967 0
-4096 3968 0
4096 -3968 0
-4097 3969 0
4097 -3969 0
-4098 3970 0
4098 -3970 0
-4099 3971 0
4099 -3971 0
-4100 3972 0
4100 -3972 0
-4101 3973 0
4101 -3973 0
-4102 3974 0
4102 -3974 0
-4103 3975 0
4103 -3975 0
-4104 3976 0
4104 -3976 0
-4105 3977 0
4105 -3977 0
-4106 3978 0
4106 -3978 0
-4107 3979 0
4107 -3979 0
-4108 3980 0
4108 -3980 0
-4109 3981 0
4109 -3981 0
-4110 3982 0
4110 -3982 0
-4111 3983 0
4111 -3983 0
-4112 3984 0
4112 -3984 0
-4113 3985 0
4113 -3985 0
-4114 3986 0
4114 -3986 0
-4115 3987 0
4115 -3987 0
-4116 3988 0
4116 -3988 0
-4117 3989 0
4117 -3989 0
-4118 3990 0
4118 -3990 0
-4119 3991 0
4119 -3991 0
-4120 3992 0
4120 -3992 0
-4121 3993 0
4121 -3993 0
-4122 3994 0
4122 -3994 0
-4123 3995 0
4123 -3995 0
-4124 3996 0
4124 -3996 0
-4125 3997 0
4125 -3997 0
-4126 3998 0
4126 -3998 0
-4127 3999 0
4127 -3999 0
-4128 4000 0
4128 -4000 0
-4129 4001 0
4129 -4001 0
-4130 4002 0
4130 -4002 0
3011 -3267 0
-3011 3267 0
3012 -3268 0
-3012 3268 0
3013 -3269 0
-3013 3269 0
3014 -3270 0
-3014 3270 0
3015 -3271 0
-3015 3271 0
3016 -3272 0
-3016 3272 0
3017 -3273 0
-3017 3273 0
3018 -3274 0
-3018 3274 0
3019 -3275 0
-3019 3275 0
3020 -3276 0
-3020 3276 0
3021 -3277 0
-3021 3277 0
3022 -3278 0
-3022 3278 0
3023 -3279 0
-3023 3279 0
3024 -3280 0
-3024 3280 0
3025 -3281 0
-3025 3281 0
3026 -3282 0
-3026 3282 0
3027 -3283 0
-3027 3283 0
3028 -3284 0
-3028 3284 0
3029 -3285 0
-3029 3285 0
3030 -3286 0
-3030 3286 0
3031 -3287 0
-3031 3287 0
3032 -3288 0
-3032 3288 0
3033 -3289 0
-3033 3289 0
3034 -3290 0
-3034 3290 0
3035 -3291 0
-3035 3291 0
3036 -3292 0
-3036 3292 0
3037 -3293 0
-3037 3293 0
3038 -3294 0
-3038 3294 0
3039 -3295 0
-3039 3295 0
3040 -3296 0
-3040 3296 0
3041 -3297 0
-3041 3297 0
3042 -3298 0
-3042 3298 0
3043 -3299 0
-3043 3299 0
3044 -3300 0
-3044 3300 0
3045 -3301 0
-3045 3301 0
3046 -3302 0
-3046 3302 0
3047 -3303 0
-3047 3303 0
3048 -3304 0
-3048 3304 0
3049 -3305 0
-3049 3305 0
3050 -3306 0
-3050 3306 0
3051 -3307 0
-3051 3307 0
3052 -3308 0
-3052 3308 0
3053 -3309 0
-3053 3309 0
3054 -3310 0
-3054 3310 0
3055 -3311 0
-3055 3311 0
3056 -3312 0
-3056 3312 0
3057 -3313 0
-3057 3313 0
3058 -3314 0
-3058 3314 0
3059 -3315 0
-3059 3315 0
3060 -3316 0
-3060 3316 0
3061 -3317 0
-3061 3317 0
3062 -3318 0
-3062 3318 0
3063 -3319 0
-3063 3319 0
3064 -3320 0
-3064 3320 0
3065 -3321 0
-3065 3321 0
3066 -3322 0
-3066 3322 0
3067 -3323 0
-3067 3323 0
3068 -3324 0
-3068 3324 0
3069 -3325 0
-3069 3325 0
3070 -3326 0
-3070 3326 0
3071 -3327 0
-3071 3327 0
3072 -3328 0
-3072 3328 0
3073 -3329 0
-3073 3329 0
3074 -3330 0
-3074 3330 0
3075 -3331 0
-3075 3331 0
3076 -3332 0
-3076 3332 0
3077 -3333 0
-3077 3333 0
3078 -3334 0
-3078 3334 0
3079 -3335 0
-3079 3335 0
3080 -3336 0
-3080 3336 0
3081 -3337 0
-3081 3337 0
3082 -3338 0
-3082 3338 0
3083 -3339 0
-3083 3339 0
3084 -3340 0
-3084 3340 0
3085 -3341 0
-3085 3341 0
3086 -3342 0
-3086 3342 0
3087 -3343 0
-3087 3343 0
3088 -3344 0
-3088 3344 0
3089 -3345 0
-3089 3345 0
3090 -3346 0
-3090 3346 0
3091 -3347 0
-3091 3347 0
3092 -3348 0
-3092 3348 0
3093 -3349 0
-3093 3349 0
3094 -3350 0
-3094 3350 0
3095 -3351 0
-3095 3351 0
3096 -3352 0
-3096 3352 0
3097 -3353 0
-3097 3353 0
3098 -3354 0
-3098 3354 0
3099 -3355 0
-3099 3355 0
3100 -3356 0
-3100 3356 0
3101 -3357 0
-3101 3357 0
3102 -3358 0
-3102 3358 0
3103 -3359 0
-3103 3359 0
3104 -3360 0
-3104 3360 0
3105 -3361 0
-3105 3361 0
3106 -3362 0
-3106 3362 0
3107 -3363 0
-3107 3363 0
3108 -3364 0
-3108 3364 0
3109 -3365 0
-3109 3365 0
3110 -3366 0
-3110 3366 0
3111 -3367 0
-3111 3367 0
3112 -3368 0
-3112 3368 0
3113 -3369 0
-3113 3369 0
3114 -3370 0
-3114 3370 0
3115 -3371 0
-3115 3371 0
3116 -3372 0
-3116 3372 0
3117 -3373 0
-3117 3373 0
3118 -3374 0
-3118 3374 0
3119 -3375 0
-3119 3375 0
3120 -3376 0
-3120 3376 0
3121 -3377 0
-3121 3377 0
3122 -3378 0
-3122 3378 0
3123 -3379 0
-3123 3379 0
3124 -3380 0
-3124 3380 0
3125 -3381 0
-3125 3381 0
3126 -3382 0
-3126 3382 0
3127 -3383 0
-3127 3383 0
3128 -3384 0
-3128 3384 0
3129 -3385 0
-3129 3385 0
3130 -3386 0
-3130 3386 0
3131 -3387 0
-3131 3387 0
3132 -3388 0
-3132 3388 0
3133 -3389 0
-3133 3389 0
3134 -3390 0
-3134 3390 0
3135 -3391 0
-3135 3391 0
3136 -3392 0
-3136 3392 0
3137 -3393 0
-3137 3393 0
3138 -3394 0
-3138 3394 0
4003 -3139 0
-4003 3139 0
4004 -3140 0
-4004 3140 0
4005 -3141 0
-4005 3141 0
4006 -3142 0
-4006 3142 0
4007 -3143 0
-4007 3143 0
4008 -3144 0
-4008 3144 0
4009 -3145 0
-4009 3145 0
4010 -3146 0
-4010 3146 0
4011 -3147 0
-4011 3147 0
4012 -3148 0
-4012 3148 0
4013 -3149 0
-4013 3149 0
4014 -3150 0
-4014 3150 0
4015 -3151 0
-4015 3151 0
4016 -3152 0
-4016 3152 0
4017 -3153 0
-4017 3153 0
4018 -3154 0
-4018 3154 0
4019 -3155 0
-4019 3155 0
4020 -3156 0
-4020 3156 0
4021 -3157 0
-4021 3157 0
4022 -3158 0
-4022 3158 0
4023 -3159 0
-4023 3159 0
4024 -3160 0
-4024 3160 0
4025 -3161 0
-4025 3161 0
4026 -3162 0
-4026 3162 0
4027 -3163 0
-4027 3163 0
4028 -3164 0
-4028 3164 0
4029 -3165 0
-4029 3165 0
4030 -3166 0
-4030 3166 0
4031 -3167 0
-4031 3167 0
4032 -3168 0
-4032 3168 0
4033 -3169 0
-4033 3169 0
4034 -3170 0
-4034 3170 0
4035 -3171 0
-4035 3171 0
4036 -3172 0
-4036 3172 0
4037 -3173 0
-4037 3173 0
4038 -3174 0
-4038 3174 0
4039 -3175 0
-4039 3175 0
4040 -3176 0
-4040 3176 0
4041 -3177 0
-4041 3177 0
4042 -3178 0
-4042 3178 0
4043 -3179 0
-4043 3179 0
4044 -3180 0
-4044 3180 0
4045 -3181 0
-4045 3181 0
4046 -3182 0
-4046 3182 0
4047 -3183 0
-4047 3183 0
4048 -3184 0
-4048 3184 0
4049 -3185 0
-4049 3185 0
4050 -3186 0
-4050 3186 0
4051 -3187 0
-4051 3187 0
4052 -3188 0
-4052 3188 0
4053 -3189 0
-4053 3189 0
4054 -3190 0
-4054 3190 0
4055 -3191 0
-4055 3191 0
4056 -3192 0
-4056 3192 0
4057 -3193 0
-4057 3193 0
4058 -3194 0
-4058 3194 0
4059 -3195 0
-4059 3195 0
4060 -3196 0
-4060 3196 0
4061 -3197 0
-4061 3197 0
4062 -3198 0
-4062 3198 0
4063 -3199 0
-4063 3199 0
4064 -3200 0
-4064 3200 0
4065 -3201 0
-4065 3201 0
4066 -3202 0
-4066 3202 0
4067 -3203 0
-4067 3203 0
4068 -3204 0
-4068 3204 0
4069 -3205 0
-4069 3205 0
4070 -3206 0
-4070 3206 0
4071 -3207 0
-4071 3207 0
4072 -3208 0
-4072 3208 0
4073 -3209 0
-4073 3209 0
4074 -3210 0
-4074 3210 0
4075 -3211 0
-4075 3211 0
4076 -3212 0
-4076 3212 0
4077 -3213 0
-4077 3213 0
4078 -3214 0
-4078 3214 0
4079 -3215 0
-4079 3215 0
4080 -3216 0
-4080 3216 0
4081 -3217 0
-4081 3217 0
4082 -3218 0
-4082 3218 0
4083 -3219 0
-4083 3219 0
4084 -3220 0
-4084 3220 0
4085 -3221 0
-4085 3221 0
4086 -3222 0
-4086 3222 0
4087 -3223 0
-4087 3223 0
4088 -3224 0
-4088 3224 0
4089 -3225 0
-4089 3225 0
4090 -3226 0
-4090 3226 0
4091 -3227 0
-4091 3227 0
4092 -3228 0
-4092 3228 0
4093 -3229 0
-4093 3229 0
4094 -3230 0
-4094 3230 0
4095 -3231 0
-4095 3231 0
4096 -3232 0
-4096 3232 0
4097 -3233 0
-4097 3233 0
4098 -3234 0
-4098 3234 0
4099 -3235 0
-4099 3235 0
4100 -3236 0
-4100 3236 0
4101 -3237 0
-4101 3237 0
4102 -3238 0
-4102 3238 0
4103 -3239 0
-4103 3239 0
4104 -3240 0
-4104 3240 0
4105 -3241 0
-4105 3241 0
4106 -3242 0
-4106 3242 0
4107 -3243 0
-4107 3243 0
4108 -3244 0
-4108 3244 0
4109 -3245 0
-4109 3245 0
4110 -3246 0
-4110 3246 0
4111 -3247 0
-4111 3247 0
4112 -3248 0
-4112 3248 0
4113 -3249 0
-4113 3249 0
4114 -3250 0
-4114 3250 0
4115 -3251 0
-4115 3251 0
4116 -3252 0
-4116 3252 0
4117 -3253 0
-4117 3253 0
4118 -3254 0
-4118 3254 0
4119 -3255 0
-4119 3255 0
4120 -3256 0
-4120 3256 0
4121 -3257 0
-4121 3257 0
4122 -3258 0
-4122 3258 0
4123 -3259 0
-4123 3259 0
4124 -3260 0
-4124 3260 0
4125 -3261 0
-4125 3261 0
4126 -3262 0
-4126 3262 0
4127 -3263 0
-4127 3263 0
4128 -3264 0
-4128 3264 0
4129 -3265 0
-4129 3265 0
4130 -3266 0
-4130 3266 0
-3519 3523 0
3519 -3523 0
-3520 3524 0
3520 -3524 0
-3521 3525 0
3521 -3525 0
-3522 3526 0
3522 -3526 0
-3515 3534 0
3515 -3534 0
-3516 3535 0
3516 -3535 0
-3517 3536 0
3517 -3536 0
-3518 3537 0
3518 -3537 0
-3511 3545 0
3511 -3545 0
-3512 3546 0
3512 -3546 0
-3513 3547 0
3513 -3547 0
-3514 3548 0
3514 -3548 0
-3507 3556 0
3507 -3556 0
-3508 3557 0
3508 -3557 0
-3509 3558 0
3509 -3558 0
-3510 3559 0
3510 -3559 0
-3503 3567 0
3503 -3567 0
-3504 3568 0
3504 -3568 0
-3505 3569 0
3505 -3569 0
-3506 3570 0
3506 -3570 0
-3499 3578 0
3499 -3578 0
-3500 3579 0
3500 -3579 0
-3501 3580 0
3501 -3580 0
-3502 3581 0
3502 -3581 0
-3495 3589 0
3495 -3589 0
-3496 3590 0
3496 -3590 0
-3497 3591 0
3497 -3591 0
-3498 3592 0
3498 -3592 0
-3491 3600 0
3491 -3600 0
-3492 3601 0
3492 -3601 0
-3493 3602 0
3493 -3602 0
-3494 3603 0
3494 -3603 0
-3487 3611 0
3487 -3611 0
-3488 3612 0
3488 -3612 0
-3489 3613 0
3489 -3613 0
-3490 3614 0
3490 -3614 0
-3483 3622 0
3483 -3622 0
-3484 3623 0
3484 -3623 0
-3485 3624 0
3485 -3624 0
-3486 3625 0
3486 -3625 0
-3479 3633 0
3479 -3633 0
-3480 3634 0
3480 -3634 0
-3481 3635 0
3481 -3635 0
-3482 3636 0
3482 -3636 0
-3475 3644 0
3475 -3644 0
-3476 3645 0
3476 -3645 0
-3477 3646 0
3477 -3646 0
-3478 3647 0
3478 -3647 0
-3471 3655 0
3471 -3655 0
-3472 3656 0
3472 -3656 0
-3473 3657 0
3473 -3657 0
-3474 3658 0
3474 -3658 0
-3467 3666 0
3467 -3666 0
-3468 3667 0
3468 -3667 0
-3469 3668 0
3469 -3668 0
-3470 3669 0
3470 -3669 0
-3463 3677 0
3463 -3677 0
-3464 3678 0
3464 -3678 0
-3465 3679 0
3465 -3679 0
-3466 3680 0
3466 -3680 0
-3459 3688 0
3459 -3688 0
-3460 3689 0
3460 -3689 0
-3461 3690 0
3461 -3690 0
-3462 3691 0
3462 -3691 0
-3455 3699 0
3455 -3699 0
-3456 3700 0
3456 -3700 0
-3457 3701 0
3457 -3701 0
-3458 3702 0
3458 -3702 0
-3451 3710 0
3451 -3710 0
-3452 3711 0
3452 -3711 0
-3453 3712 0
3453 -3712 0
-3454 3713 0
3454 -3713 0
-3447 3721 0
3447 -3721 0
-3448 3722 0
3448 -3722 0
-3449 3723 0
3449 -3723 0
-3450 3724 0
3450 -3724 0
-3443 3732 0
3443 -3732 0
-3444 3733 0
3444 -3733 0
-3445 3734 0
3445 -3734 0
-3446 3735 0
3446 -3735 0
-3439 3743 0
3439 -3743 0
-3440 3744 0
3440 -3744 0
-3441 3745 0
3441 -3745 0
-3442 3746 0
3442 -3746 0
-3435 3754 0
3435 -3754 0
-3436 3755 0
3436 -3755 0
-3437 3756 0
3437 -3756 0
-3438 3757 0
3438 -3757 0
-3431 3765 0
3431 -3765 0
-3432 3766 0
3432 -3766 0
-3433 3767 0
3433 -3767 0
-3434 3768 0
3434 -3768 0
-3427 3776 0
3427 -3776 0
-3428 3777 0
3428 -3777 0
-3429 3778 0
3429 -3778 0
-3430 3779 0
3430 -3779 0
-3423 3787 0
3423 -3787 0
-3424 3788 0
3424 -3788 0
-3425 3789 0
3425 -3789 0
-3426 3790 0
3426 -3790 0
-3419 3798 0
3419 -3798 0
-3420 3799 0
3420 -3799 0
-3421 3800 0
3421 -3800 0
-3422 3801 0
3422 -3801 0
-3415 3809 0
3415 -3809 0
-3416 3810 0
3416 -3810 0
-3417 3811 0
3417 -3811 0
-3418 3812 0
3418 -3812 0
-3411 3820 0
3411 -3820 0
-3412 3821 0
3412 -3821 0
-3413 3822 0
3413 -3822 0
-3414 3823 0
3414 -3823 0
-3407 3831 0
3407 -3831 0
-3408 3832 0
3408 -3832 0
-3409 3833 0
3409 -3833 0
-3410 3834 0
3410 -3834 0
-3403 3842 0
3403 -3842 0
-3404 3843 0
3404 -3843 0
-3405 3844 0
3405 -3844 0
-3406 3845 0
3406 -3845 0
-3399 3853 0
3399 -3853 0
-3400 3854 0
3400 -3854 0
-3401 3855 0
3401 -3855 0
-3402 3856 0
3402 -3856 0
-3395 3864 0
3395 -3864 0
-3396 3865 0
3396 -3865 0
-3397 3866 0
3397 -3866 0
-3398 3867 0
3398 -3867 0
-3868 3875 0
3868 -3875 0
-3869 3876 0
3869 -3876 0
-3870 3877 0
3870 -3877 0
-3871 3878 0
3871 -3878 0
-3857 3879 0
3857 -3879 0
-3858 3880 0
3858 -3880 0
-3859 3881 0
3859 -3881 0
-3860 3882 0
3860 -3882 0
-3846 3883 0
3846 -3883 0
-3847 3884 0
3847 -3884 0
-3848 3885 0
3848 -3885 0
-3849 3886 0
3849 -3886 0
-3835 3887 0
3835 -3887 0
-3836 3888 0
3836 -3888 0
-3837 3889 0
3837 -3889 0
-3838 3890 0
3838 -3890 0
-3824 3891 0
3824 -3891 0
-3825 3892 0
3825 -3892 0
-3826 3893 0
3826 -3893 0
-3827 3894 0
3827 -3894 0
-3813 3895 0
3813 -3895 0
-3814 3896 0
3814 -3896 0
-3815 3897 0
3815 -3897 0
-3816 3898 0
3816 -3898 0
-3802 3899 0
3802 -3899 0
-3803 3900 0
3803 -3900 0
-3804 3901 0
3804 -3901 0
-3805 3902 0
3805 -3902 0
-3791 3903 0
3791 -3903 0
-3792 3904 0
3792 -3904 0
-3793 3905 0
3793 -3905 0
-3794 3906 0
3794 -3906 0
-3780 3907 0
3780 -3907 0
-3781 3908 0
3781 -3908 0
-3782 3909 0
3782 -3909 0
-3783 3910 0
3783 -3910 0
-3769 3911 0
3769 -3911 0
-3770 3912 0
3770 -3912 0
-3771 3913 0
3771 -3913 0
-3772 3914 0
3772 -3914 0
-3758 3915 0
3758 -3915 0
-3759 3916 0
3759 -3916 0
-3760 3917 0
3760 -3917 0
-3761 3918 0
3761 -3918 0
-3747 3919 0
3747 -3919 0
-3748 3920 0
3748 -3920 0
-3749 3921 0
3749 -3921 0
-3750 3922 0
3750 -3922 0
-3736 3923 0
3736 -3923 0
-3737 3924 0
3737 -3924 0
-3738 3925 0
3738 -3925 0
-3739 3926 0
3739 -3926 0
-3725 3927 0
3725 -3927 0
-3726 3928 0
3726 -3928 0
-3727 3929 0
3727 -3929 0
-3728 3930 0
3728 -3930 0
-3714 3931 0
3714 -3931 0
-3715 3932 0
3715 -3932 0
-3716 3933 0
3716 -3933 0
-3717 3934 0
3717 -3934 0
-3703 3935 0
3703 -3935 0
-3704 3936 0
3704 -3936 0
-3705 3937 0
3705 -3937 0
-3706 3938 0
3706 -3938 0
-3692 3939 0
3692 -3939 0
-3693 3940 0
3693 -3940 0
-3694 3941 0
3694 -3941 0
-3695 3942 0
3695 -3942 0
-3681 3943 0
3681 -3943 0
-3682 3944 0
3682 -3944 0
-3683 3945 0
3683 -3945 0
-3684 3946 0
3684 -3946 0
-3670 3947 0
3670 -3947 0
-3671 3948 0
3671 -3948 0
-3672 3949 0
3672 -3949 0
-3673 3950 0
3673 -3950 0
-3659 3951 0
3659 -3951 0
-3660 3952 0
3660 -3952 0
-3661 3953 0
3661 -3953 0
-3662 3954 0
3662 -3954 0
-3648 3955 0
3648 -3955 0
-3649 3956 0
3649 -3956 0
-3650 3957 0
3650 -3957 0
-3651 3958 0
3651 -3958 0
-3637 3959 0
3637 -3959 0
-3638 3960 0
3638 -3960 0
-3639 3961 0
3639 -3961 0
-3640 3962 0
3640 -3962 0
-3626 3963 0
3626 -3963 0
-3627 3964 0
3627 -3964 0
-3628 3965 0
3628 -3965 0
-3629 3966 0
3629 -3966 0
-3615 3967 0
3615 -3967 0
-3616 3968 0
3616 -3968 0
-3617 3969 0
3617 -3969 0
-3618 3970 0
3618 -3970 0
-3604 3971 0
3604 -3971 0
-3605 3972 0
3605 -3972 0
-3606 3973 0
3606 -3973 0
-3607 3974 0
3607 -3974 0
-3593 3975 0
3593 -3975 0
-3594 3976 0
3594 -3976 0
-3595 3977 0
3595 -3977 0
-3596 3978 0
3596 -3978 0
-3582 3979 0
3582 -3979 0
-3583 3980 0
3583 -3980 0
-3584 3981 0
3584 -3981 0
-3585 3982 0
3585 -3982 0
-3571 3983 0
3571 -3983 0
-3572 3984 0
3572 -3984 0
-3573 3985 0
3573 -3985 0
-3574 3986 0
3574 -3986 0
-3560 3987 0
3560 -3987 0
-3561 3988 0
3561 -3988 0
-3562 3989 0
3562 -3989 0
-3563 3990 0
3563 -3990 0
-3549 3991 0
3549 -3991 0
-3550 3992 0
3550 -3992 0
-3551 3993 0
3551 -3993 0
-3552 3994 0
3552 -3994 0
-3538 3995 0
3538 -3995 0
-3539 3996 0
3539 -3996 0
-3540 3997 0
3540 -3997 0
-3541 3998 0
3541 -3998 0
-3527 3999 0
3527 -3999 0
-3528 4000 0
3528 -4000 0
-3529 4001 0
3529 -4001 0
-3530 4002 0
3530 -4002 0
4159 4172 -4387 0
4159 -4172 4387 0
-4159 4172 4387 0
-4159 -4172 -4387 0
4387 4226 -4259 0
4387 -4226 4259 0
-4387 4226 4259 0
-4387 -4226 -4259 0
4132 4136 -4388 0
4132 -4136 4388 0
-4132 4136 4388 0
-4132 -4136 -4388 0
4388 4178 -4389 0
4388 -4178 4389 0
-4388 4178 4389 0
-4388 -4178 -4389 0
4389 4232 -4390 0
4389 -4232 4390 0
-4389 4232 4390 0
-4389 -4232 -4390 0
4390 4247 -4391 0
4390 -4247 4391 0
-4390 4247 4391 0
-4390 -4247 -4391 0
4391 4253 -4260 0
4391 -4253 4260 0
-4391 4253 4260 0
-4391 -4253 -4260 0
4137 4148 -4392 0
4137 -4148 4392 0
-4137 4148 4392 0
-4137 -4148 -4392 0
4392 4190 -4261 0
4392 -4190 4261 0
-4392 4190 4261 0
-4392 -4190 -4261 0
4157 4168 -4393 0
4157 -4168 4393 0
-4157 4168 4393 0
-4157 -4168 -4393 0
4393 4179 -4394 0
4393 -4179 4394 0
-4393 4179 4394 0
-4393 -4179 -4394 0
4394 4192 -4395 0
4394 -4192 4395 0
-4394 4192 4395 0
-4394 -4192 -4395 0
4395 4206 -4396 0
4395 -4206 4396 0
-4395 4206 4396 0
-4395 -4206 -4396 0
4396 4210 -4397 0
4396 -4210 4397 0
-4396 4210 4397 0
-4396 -4210 -4397 0
4397 4246 -4262 0
4397 -4246 4262 0
-4397 4246 4262 0
-4397 -4246 -4262 0
4163 4176 -4398 0
4163 -4176 4398 0
-4163 4176 4398 0
-4163 -4176 -4398 0
4398 4230 -4263 0
4398 -4230 4263 0
-4398 4230 4263 0
-4398 -4230 -4263 0
4136 4140 -4399 0
4136 -4140 4399 0
-4136 4140 4399 0
-4136 -4140 -4399 0
4399 4182 -4400 0
4399 -4182 4400 0
-4399 4182 4400 0
-4399 -4182 -4400 0
4400 4236 -4401 0
4400 -4236 4401 0
-4400 4236 4401 0
-4400 -4236 -4401 0
4401 4251 -4402 0
4401 -4251 4402 0
-4401 4251 4402 0
-4401 -4251 -4402 0
4402 4257 -4264 0
4402 -4257 4264 0
-4402 4257 4264 0
-4402 -4257 -4264 0
4141 4152 -4403 0
4141 -4152 4403 0
-4141 4152 4403 0
-4141 -4152 -4403 0
4403 4194 -4265 0
4403 -4194 4265 0
-4403 4194 4265 0
-4403 -4194 -4265 0
4161 4172 -4404 0
4161 -4172 4404 0
-4161 4172 4404 0
-4161 -4172 -4404 0
4404 4183 -4405 0
4404 -4183 4405 0
-4404 4183 4405 0
-4404 -4183 -4405 0
4405 4196 -4406 0
4405 -4196 4406 0
-4405 4196 4406 0
-4405 -4196 -4406 0
4406 4210 -4407 0
4406 -4210 4407 0
-4406 4210 4407 0
-4406 -4210 -4407 0
4407 4214 -4408 0
4407 -4214 4408 0
-4407 4214 4408 0
-4407 -4214 -4408 0
4408 4250 -4266 0
4408 -4250 4266 0
-4408 4250 4266 0
-4408 -4250 -4266 0
4167 4180 -4409 0
4167 -4180 4409 0
-4167 4180 4409 0
-4167 -4180 -4409 0
4409 4234 -4267 0
4409 -4234 4267 0
-4409 4234 4267 0
-4409 -4234 -4267 0
4133 4140 -4410 0
4133 -4140 4410 0
-4133 4140 4410 0
-4133 -4140 -4410 0
4410 4144 -4411 0
4410 -4144 4411 0
-4410 4144 4411 0
-4410 -4144 -4411 0
4411 4186 -4412 0
4411 -4186 4412 0
-4411 4186 4412 0
-4411 -4186 -4412 0
4412 4240 -4413 0
4412 -4240 4413 0
-4412 4240 4413 0
-4412 -4240 -4413 0
4413 4255 -4268 0
4413 -4255 4268 0
-4413 4255 4268 0
-4413 -4255 -4268 0
4145 4156 -4414 0
4145 -4156 4414 0
-4145 4156 4414 0
-4145 -4156 -4414 0
4414 4198 -4269 0
4414 -4198 4269 0
-4414 4198 4269 0
-4414 -4198 -4269 0
4165 4176 -4415 0
4165 -4176 4415 0
-4165 4176 4415 0
-4165 -4176 -4415 0
4415 4187 -4416 0
4415 -4187 4416 0
-4415 4187 4416 0
-4415 -4187 -4416 0
4416 4200 -4417 0
4416 -4200 4417 0
-4416 4200 4417 0
-4416 -4200 -4417 0
4417 4214 -4418 0
4417 -4214 4418 0
-4417 4214 4418 0
-4417 -4214 -4418 0
4418 4218 -4419 0
4418 -4218 4419 0
-4418 4218 4419 0
-4418 -4218 -4419 0
4419 4254 -4270 0
4419 -4254 4270 0
-4419 4254 4270 0
-4419 -4254 -4270 0
4171 4184 -4420 0
4171 -4184 4420 0
-4171 4184 4420 0
-4171 -4184 -4420 0
4420 4238 -4271 0
4420 -4238 4271 0
-4420 4238 4271 0
-4420 -4238 -4271 0
4131 4144 -4421 0
4131 -4144 4421 0
-4131 4144 4421 0
-4131 -4144 -4421 0
4421 4198 -4422 0
4421 -4198 4422 0
-4421 4198 4422 0
-4421 -4198 -4422 0
4422 4244 -4272 0
4422 -4244 4272 0
-4422 4244 4272 0
-4422 -4244 -4272 0
4149 4160 -4423 0
4149 -4160 4423 0
-4149 4160 4423 0
-4149 -4160 -4423 0
4423 4202 -4273 0
4423 -4202 4273 0
-4423 4202 4273 0
-4423 -4202 -4273 0
4169 4180 -4424 0
4169 -4180 4424 0
-4169 4180 4424 0
-4169 -4180 -4424 0
4424 4191 -4425 0
4424 -4191 4425 0
-4424 4191 4425 0
-4424 -4191 -4425 0
4425 4204 -4426 0
4425 -4204 4426 0
-4425 4204 4426 0
-4425 -4204 -4426 0
4426 4218 -4427 0
4426 -4218 4427 0
-4426 4218 4427 0
-4426 -4218 -4427 0
4427 4222 -4428 0
4427 -4222 4428 0
-4427 4222 4428 0
-4427 -4222 -4428 0
4428 4258 -4274 0
4428 -4258 4274 0
-4428 4258 4274 0
-4428 -4258 -4274 0
4175 4188 -4429 0
4175 -4188 4429 0
-4175 4188 4429 0
-4175 -4188 -4429 0
4429 4242 -4275 0
4429 -4242 4275 0
-4429 4242 4275 0
-4429 -4242 -4275 0
4135 4148 -4430 0
4135 -4148 4430 0
-4135 4148 4430 0
-4135 -4148 -4430 0
4430 4202 -4431 0
4430 -4202 4431 0
-4430 4202 4431 0
-4430 -4202 -4431 0
4431 4248 -4276 0
4431 -4248 4276 0
-4431 4248 4276 0
-4431 -4248 -4276 0
4153 4164 -4432 0
4153 -4164 4432 0
-4153 4164 4432 0
-4153 -4164 -4432 0
4432 4206 -4277 0
4432 -4206 4277 0
-4432 4206 4277 0
-4432 -4206 -4277 0
4134 4173 -4433 0
4134 -4173 4433 0
-4134 4173 4433 0
-4134 -4173 -4433 0
4433 4184 -4434 0
4433 -4184 4434 0
-4433 4184 4434 0
-4433 -4184 -4434 0
4434 4195 -4435 0
4434 -4195 4435 0
-4434 4195 4435 0
-4434 -4195 -4435 0
4435 4208 -4436 0
4435 -4208 4436 0
-4435 4208 4436 0
-4435 -4208 -4436 0
4436 4222 -4437 0
4436 -4222 4437 0
-4436 4222 4437 0
-4436 -4222 -4437 0
4437 4226 -4278 0
4437 -4226 4278 0
-4437 4226 4278 0
-4437 -4226 -4278 0
4179 4192 -4438 0
4179 -4192 4438 0
-4179 4192 4438 0
-4179 -4192 -4438 0
4438 4246 -4279 0
4438 -4246 4279 0
-4438 4246 4279 0
-4438 -4246 -4279 0
4139 4152 -4439 0
4139 -4152 4439 0
-4139 4152 4439 0
-4139 -4152 -4439 0
4439 4206 -4440 0
4439 -4206 4440 0
-4439 4206 4440 0
-4439 -4206 -4440 0
4440 4252 -4280 0
4440 -4252 4280 0
-4440 4252 4280 0
-4440 -4252 -4280 0
4157 4168 -4441 0
4157 -4168 4441 0
-4157 4168 4441 0
-4157 -4168 -4441 0
4441 4210 -4281 0
4441 -4210 4281 0
-4441 4210 4281 0
-4441 -4210 -4281 0
4138 4177 -4442 0
4138 -4177 4442 0
-4138 4177 4442 0
-4138 -4177 -4442 0
4442 4188 -4443 0
4442 -4188 4443 0
-4442 4188 4443 0
-4442 -4188 -4443 0
4443 4199 -4444 0
4443 -4199 4444 0
-4443 4199 4444 0
-4443 -4199 -4444 0
4444 4212 -4445 0
4444 -4212 4445 0
-4444 4212 4445 0
-4444 -4212 -4445 0
4445 4226 -4446 0
4445 -4226 4446 0
-4445 4226 4446 0
-4445 -4226 -4446 0
4446 4230 -4282 0
4446 -4230 4282 0
-4446 4230 4282 0
-4446 -4230 -4282 0
4183 4196 -4447 0
4183 -4196 4447 0
-4183 4196 4447 0
-4183 -4196 -4447 0
4447 4250 -4283 0
4447 -4250 4283 0
-4447 4250 4283 0
-4447 -4250 -4283 0
4143 4156 -4448 0
4143 -4156 4448 0
-4143 4156 4448 0
-4143 -4156 -4448 0
4448 4210 -4449 0
4448 -4210 4449 0
-4448 4210 4449 0
-4448 -4210 -4449 0
4449 4256 -4284 0
4449 -4256 4284 0
-4449 4256 4284 0
-4449 -4256 -4284 0
4161 4172 -4450 0
4161 -4172 4450 0
-4161 4172 4450 0
-4161 -4172 -4450 0
4450 4214 -4285 0
4450 -4214 4285 0
-4450 4214 4285 0
-4450 -4214 -4285 0
4142 4181 -4451 0
4142 -4181 4451 0
-4142 4181 4451 0
-4142 -4181 -4451 0
4451 4192 -4452 0
4451 -4192 4452 0
-4451 4192 4452 0
-4451 -4192 -4452 0
4452 4203 -4453 0
4452 -4203 4453 0
-4452 4203 4453 0
-4452 -4203 -4453 0
4453 4216 -4454 0
4453 -4216 4454 0
-4453 4216 4454 0
-4453 -4216 -4454 0
4454 4230 -4455 0
4454 -4230 4455 0
-4454 4230 4455 0
-4454 -4230 -4455 0
4455 4234 -4286 0
4455 -4234 4286 0
-4455 4234 4286 0
-4455 -4234 -4286 0
4187 4200 -4456 0
4187 -4200 4456 0
-4187 4200 4456 0
-4187 -4200 -4456 0
4456 4254 -4287 0
4456 -4254 4287 0
-4456 4254 4287 0
-4456 -4254 -4287 0
4132 4147 -4457 0
4132 -4147 4457 0
-4132 4147 4457 0
-4132 -4147 -4457 0
4457 4160 -4458 0
4457 -4160 4458 0
-4457 4160 4458 0
-4457 -4160 -4458 0
4458 4214 -4288 0
4458 -4214 4288 0
-4458 4214 4288 0
-4458 -4214 -4288 0
4165 4176 -4459 0
4165 -4176 4459 0
-4165 4176 4459 0
-4165 -4176 -4459 0
4459 4218 -4289 0
4459 -4218 4289 0
-4459 4218 4289 0
-4459 -4218 -4289 0
4146 4185 -4460 0
4146 -4185 4460 0
-4146 4185 4460 0
-4146 -4185 -4460 0
4460 4196 -4461 0
4460 -4196 4461 0
-4460 4196 4461 0
-4460 -4196 -4461 0
4461 4207 -4462 0
4461 -4207 4462 0
-4461 4207 4462 0
-4461 -4207 -4462 0
4462 4220 -4463 0
4462 -4220 4463 0
-4462 4220 4463 0
-4462 -4220 -4463 0
4463 4234 -4464 0
4463 -4234 4464 0
-4463 4234 4464 0
-4463 -4234 -4464 0
4464 4238 -4290 0
4464 -4238 4290 0
-4464 4238 4290 0
-4464 -4238 -4290 0
4191 4204 -4465 0
4191 -4204 4465 0
-4191 4204 4465 0
-4191 -4204 -4465 0
4465 4258 -4291 0
4465 -4258 4291 0
-4465 4258 4291 0
-4465 -4258 -4291 0
4136 4151 -4466 0
4136 -4151 4466 0
-4136 4151 4466 0
-4136 -4151 -4466 0
4466 4164 -4467 0
4466 -4164 4467 0
-4466 4164 4467 0
-4466 -4164 -4467 0
4467 4218 -4292 0
4467 -4218 4292 0
-4467 4218 4292 0
-4467 -4218 -4292 0
4169 4180 -4468 0
4169 -4180 4468 0
-4169 4180 4468 0
-4169 -4180 -4468 0
4468 4222 -4293 0
4468 -4222 4293 0
-4468 4222 4293 0
-4468 -4222 -4293 0
4150 4189 -4469 0
4150 -4189 4469 0
-4150 4189 4469 0
-4150 -4189 -4469 0
4469 4200 -4470 0
4469 -4200 4470 0
-4469 4200 4470 0
-4469 -4200 -4470 0
4470 4211 -4471 0
4470 -4211 4471 0
-4470 4211 4471 0
-4470 -4211 -4471 0
4471 4224 -4472 0
4471 -4224 4472 0
-4471 4224 4472 0
-4471 -4224 -4472 0
4472 4238 -4473 0
4472 -4238 4473 0
-4472 4238 4473 0
-4472 -4238 -4473 0
4473 4242 -4294 0
4473 -4242 4294 0
-4473 4242 4294 0
-4473 -4242 -4294 0
4134 4195 -4474 0
4134 -4195 4474 0
-4134 4195 4474 0
-4134 -4195 -4474 0
4474 4208 -4295 0
4474 -4208 4295 0
-4474 4208 4295 0
-4474 -4208 -4295 0
4140 4155 -4475 0
4140 -4155 4475 0
-4140 4155 4475 0
-4140 -4155 -4475 0
4475 4168 -4476 0
4475 -4168 4476 0
-4475 4168 4476 0
-4475 -4168 -4476 0
4476 4222 -4296 0
4476 -4222 4296 0
-4476 4222 4296 0
-4476 -4222 -4296 0
4173 4184 -4477 0
4173 -4184 4477 0
-4173 4184 4477 0
-4173 -4184 -4477 0
4477 4226 -4297 0
4477 -4226 4297 0
-4477 4226 4297 0
-4477 -4226 -4297 0
4154 4193 -4478 0
4154 -4193 4478 0
-4154 4193 4478 0
-4154 -4193 -4478 0
4478 4204 -4479 0
4478 -4204 4479 0
-4478 4204 4479 0
-4478 -4204 -4479 0
4479 4215 -4480 0
4479 -4215 4480 0
-4479 4215 4480 0
-4479 -4215 -4480 0
4480 4228 -4481 0
4480 -4228 4481 0
-4480 4228 4481 0
-4480 -4228 -4481 0
4481 4242 -4482 0
4481 -4242 4482 0
-4481 4242 4482 0
-4481 -4242 -4482 0
4482 4246 -4298 0
4482 -4246 4298 0
-4482 4246 4298 0
-4482 -4246 -4298 0
4138 4199 -4483 0
4138 -4199 4483 0
-4138 4199 4483 0
-4138 -4199 -4483 0
4483 4212 -4299 0
4483 -4212 4299 0
-4483 4212 4299 0
-4483 -4212 -4299 0
4144 4159 -4484 0
4144 -4159 4484 0
-4144 4159 4484 0
-4144 -4159 -4484 0
4484 4165 -4485 0
4484 -4165 4485 0
-4484 4165 4485 0
-4484 -4165 -4485 0
4485 4172 -4486 0
4485 -4172 4486 0
-4485 4172 4486 0
-4485 -4172 -4486 0
4486 4176 -4487 0
4486 -4176 4487 0
-4486 4176 4487 0
-4486 -4176 -4487 0
4487 4218 -4488 0
4487 -4218 4488 0
-4487 4218 4488 0
-4487 -4218 -4488 0
4488 4226 -4300 0
4488 -4226 4300 0
-4488 4226 4300 0
-4488 -4226 -4300 0
4177 4188 -4489 0
4177 -4188 4489 0
-4177 4188 4489 0
-4177 -4188 -4489 0
4489 4230 -4301 0
4489 -4230 4301 0
-4489 4230 4301 0
-4489 -4230 -4301 0
4158 4197 -4490 0
4158 -4197 4490 0
-4158 4197 4490 0
-4158 -4197 -4490 0
4490 4208 -4491 0
4490 -4208 4491 0
-4490 4208 4491 0
-4490 -4208 -4491 0
4491 4219 -4492 0
4491 -4219 4492 0
-4491 4219 4492 0
-4491 -4219 -4492 0
4492 4232 -4493 0
4492 -4232 4493 0
-4492 4232 4493 0
-4492 -4232 -4493 0
4493 4246 -4494 0
4493 -4246 4494 0
-4493 4246 4494 0
-4493 -4246 -4494 0
4494 4250 -4302 0
4494 -4250 4302 0
-4494 4250 4302 0
-4494 -4250 -4302 0
4142 4203 -4495 0
4142 -4203 4495 0
-4142 4203 4495 0
-4142 -4203 -4495 0
4495 4216 -4303 0
4495 -4216 4303 0
-4495 4216 4303 0
-4495 -4216 -4303 0
4148 4163 -4496 0
4148 -4163 4496 0
-4148 4163 4496 0
-4148 -4163 -4496 0
4496 4169 -4497 0
4496 -4169 4497 0
-4496 4169 4497 0
-4496 -4169 -4497 0
4497 4176 -4498 0
4497 -4176 4498 0
-4497 4176 4498 0
-4497 -4176 -4498 0
4498 4180 -4499 0
4498 -4180 4499 0
-4498 4180 4499 0
-4498 -4180 -4499 0
4499 4222 -4500 0
4499 -4222 4500 0
-4499 4222 4500 0
-4499 -4222 -4500 0
4500 4230 -4304 0
4500 -4230 4304 0
-4500 4230 4304 0
-4500 -4230 -4304 0
4181 4192 -4501 0
4181 -4192 4501 0
-4181 4192 4501 0
-4181 -4192 -4501 0
4501 4234 -4305 0
4501 -4234 4305 0
-4501 4234 4305 0
-4501 -4234 -4305 0
4162 4201 -4502 0
4162 -4201 4502 0
-4162 4201 4502 0
-4162 -4201 -4502 0
4502 4212 -4503 0
4502 -4212 4503 0
-4502 4212 4503 0
-4502 -4212 -4503 0
4503 4223 -4504 0
4503 -4223 4504 0
-4503 4223 4504 0
-4503 -4223 -4504 0
4504 4236 -4505 0
4504 -4236 4505 0
-4504 4236 4505 0
-4504 -4236 -4505 0
4505 4250 -4506 0
4505 -4250 4506 0
-4505 4250 4506 0
-4505 -4250 -4506 0
4506 4254 -4306 0
4506 -4254 4306 0
-4506 4254 4306 0
-4506 -4254 -4306 0
4146 4207 -4507 0
4146 -4207 4507 0
-4146 4207 4507 0
-4146 -4207 -4507 0
4507 4220 -4307 0
4507 -4220 4307 0
-4507 4220 4307 0
-4507 -4220 -4307 0
4152 4167 -4508 0
4152 -4167 4508 0
-4152 4167 4508 0
-4152 -4167 -4508 0
4508 4173 -4509 0
4508 -4173 4509 0
-4508 4173 4509 0
-4508 -4173 -4509 0
4509 4180 -4510 0
4509 -4180 4510 0
-4509 4180 4510 0
-4509 -4180 -4510 0
4510 4184 -4511 0
4510 -4184 4511 0
-4510 4184 4511 0
-4510 -4184 -4511 0
4511 4226 -4512 0
4511 -4226 4512 0
-4511 4226 4512 0
-4511 -4226 -4512 0
4512 4234 -4308 0
4512 -4234 4308 0
-4512 4234 4308 0
-4512 -4234 -4308 0
4185 4196 -4513 0
4185 -4196 4513 0
-4185 4196 4513 0
-4185 -4196 -4513 0
4513 4238 -4309 0
4513 -4238 4309 0
-4513 4238 4309 0
-4513 -4238 -4309 0
4166 4205 -4514 0
4166 -4205 4514 0
-4166 4205 4514 0
-4166 -4205 -4514 0
4514 4216 -4515 0
4514 -4216 4515 0
-4514 4216 4515 0
-4514 -4216 -4515 0
4515 4227 -4516 0
4515 -4227 4516 0
-4515 4227 4516 0
-4515 -4227 -4516 0
4516 4240 -4517 0
4516 -4240 4517 0
-4516 4240 4517 0
-4516 -4240 -4517 0
4517 4254 -4518 0
4517 -4254 4518 0
-4517 4254 4518 0
-4517 -4254 -4518 0
4518 4258 -4310 0
4518 -4258 4310 0
-4518 4258 4310 0
-4518 -4258 -4310 0
4150 4211 -4519 0
4150 -4211 4519 0
-4150 4211 4519 0
-4150 -4211 -4519 0
4519 4224 -4311 0
4519 -4224 4311 0
-4519 4224 4311 0
-4519 -4224 -4311 0
4156 4171 -4520 0
4156 -4171 4520 0
-4156 4171 4520 0
-4156 -4171 -4520 0
4520 4177 -4521 0
4520 -4177 4521 0
-4520 4177 4521 0
-4520 -4177 -4521 0
4521 4184 -4522 0
4521 -4184 4522 0
-4521 4184 4522 0
-4521 -4184 -4522 0
4522 4188 -4523 0
4522 -4188 4523 0
-4522 4188 4523 0
-4522 -4188 -4523 0
4523 4230 -4524 0
4523 -4230 4524 0
-4523 4230 4524 0
-4523 -4230 -4524 0
4524 4238 -4312 0
4524 -4238 4312 0
-4524 4238 4312 0
-4524 -4238 -4312 0
4189 4200 -4525 0
4189 -4200 4525 0
-4189 4200 4525 0
-4189 -4200 -4525 0
4525 4242 -4313 0
4525 -4242 4313 0
-4525 4242 4313 0
-4525 -4242 -4313 0
4134 4170 -4526 0
4134 -4170 4526 0
-4134 4170 4526 0
-4134 -4170 -4526 0
4526 4209 -4527 0
4526 -4209 4527 0
-4526 4209 4527 0
-4526 -4209 -4527 0
4527 4220 -4528 0
4527 -4220 4528 0
-4527 4220 4528 0
-4527 -4220 -4528 0
4528 4231 -4529 0
4528 -4231 4529 0
-4528 4231 4529 0
-4528 -4231 -4529 0
4529 4244 -4530 0
4529 -4244 4530 0
-4529 4244 4530 0
-4529 -4244 -4530 0
4530 4258 -4314 0
4530 -4258 4314 0
-4530 4258 4314 0
-4530 -4258 -4314 0
4154 4215 -4531 0
4154 -4215 4531 0
-4154 4215 4531 0
-4154 -4215 -4531 0
4531 4228 -4315 0
4531 -4228 4315 0
-4531 4228 4315 0
-4531 -4228 -4315 0
4160 4175 -4532 0
4160 -4175 4532 0
-4160 4175 4532 0
-4160 -4175 -4532 0
4532 4181 -4533 0
4532 -4181 4533 0
-4532 4181 4533 0
-4532 -4181 -4533 0
4533 4188 -4534 0
4533 -4188 4534 0
-4533 4188 4534 0
-4533 -4188 -4534 0
4534 4192 -4535 0
4534 -4192 4535 0
-4534 4192 4535 0
-4534 -4192 -4535 0
4535 4234 -4536 0
4535 -4234 4536 0
-4535 4234 4536 0
-4535 -4234 -4536 0
4536 4242 -4316 0
4536 -4242 4316 0
-4536 4242 4316 0
-4536 -4242 -4316 0
4193 4204 -4537 0
4193 -4204 4537 0
-4193 4204 4537 0
-4193 -4204 -4537 0
4537 4246 -4317 0
4537 -4246 4317 0
-4537 4246 4317 0
-4537 -4246 -4317 0
4134 4138 -4538 0
4134 -4138 4538 0
-4134 4138 4538 0
-4134 -4138 -4538 0
4538 4174 -4539 0
4538 -4174 4539 0
-4538 4174 4539 0
-4538 -4174 -4539 0
4539 4213 -4540 0
4539 -4213 4540 0
-4539 4213 4540 0
-4539 -4213 -4540 0
4540 4224 -4541 0
4540 -4224 4541 0
-4540 4224 4541 0
-4540 -4224 -4541 0
4541 4235 -4542 0
4541 -4235 4542 0
-4541 4235 4542 0
-4541 -4235 -4542 0
4542 4248 -4318 0
4542 -4248 4318 0
-4542 4248 4318 0
-4542 -4248 -4318 0
4158 4219 -4543 0
4158 -4219 4543 0
-4158 4219 4543 0
-4158 -4219 -4543 0
4543 4232 -4319 0
4543 -4232 4319 0
-4543 4232 4319 0
-4543 -4232 -4319 0
4164 4179 -4544 0
4164 -4179 4544 0
-4164 4179 4544 0
-4164 -4179 -4544 0
4544 4185 -4545 0
4544 -4185 4545 0
-4544 4185 4545 0
-4544 -4185 -4545 0
4545 4192 -4546 0
4545 -4192 4546 0
-4545 4192 4546 0
-4545 -4192 -4546 0
4546 4196 -4547 0
4546 -4196 4547 0
-4546 4196 4547 0
-4546 -4196 -4547 0
4547 4238 -4548 0
4547 -4238 4548 0
-4547 4238 4548 0
-4547 -4238 -4548 0
4548 4246 -4320 0
4548 -4246 4320 0
-4548 4246 4320 0
-4548 -4246 -4320 0
4197 4208 -4549 0
4197 -4208 4549 0
-4197 4208 4549 0
-4197 -4208 -4549 0
4549 4250 -4321 0
4549 -4250 4321 0
-4549 4250 4321 0
-4549 -4250 -4321 0
4138 4142 -4550 0
4138 -4142 4550 0
-4138 4142 4550 0
-4138 -4142 -4550 0
4550 4178 -4551 0
4550 -4178 4551 0
-4550 4178 4551 0
-4550 -4178 -4551 0
4551 4217 -4552 0
4551 -4217 4552 0
-4551 4217 4552 0
-4551 -4217 -4552 0
4552 4228 -4553 0
4552 -4228 4553 0
-4552 4228 4553 0
-4552 -4228 -4553 0
4553 4239 -4554 0
4553 -4239 4554 0
-4553 4239 4554 0
-4553 -4239 -4554 0
4554 4252 -4322 0
4554 -4252 4322 0
-4554 4252 4322 0
-4554 -4252 -4322 0
4162 4223 -4555 0
4162 -4223 4555 0
-4162 4223 4555 0
-4162 -4223 -4555 0
4555 4236 -4323 0
4555 -4236 4323 0
-4555 4236 4323 0
-4555 -4236 -4323 0
4168 4183 -4556 0
4168 -4183 4556 0
-4168 4183 4556 0
-4168 -4183 -4556 0
4556 4189 -4557 0
4556 -4189 4557 0
-4556 4189 4557 0
-4556 -4189 -4557 0
4557 4196 -4558 0
4557 -4196 4558 0
-4557 4196 4558 0
-4557 -4196 -4558 0
4558 4200 -4559 0
4558 -4200 4559 0
-4558 4200 4559 0
-4558 -4200 -4559 0
4559 4242 -4560 0
4559 -4242 4560 0
-4559 4242 4560 0
-4559 -4242 -4560 0
4560 4250 -4324 0
4560 -4250 4324 0
-4560 4250 4324 0
-4560 -4250 -4324 0
4201 4212 -4561 0
4201 -4212 4561 0
-4201 4212 4561 0
-4201 -4212 -4561 0
4561 4254 -4325 0
4561 -4254 4325 0
-4561 4254 4325 0
-4561 -4254 -4325 0
4142 4146 -4562 0
4142 -4146 4562 0
-4142 4146 4562 0
-4142 -4146 -4562 0
4562 4182 -4563 0
4562 -4182 4563 0
-4562 4182 4563 0
-4562 -4182 -4563 0
4563 4221 -4564 0
4563 -4221 4564 0
-4563 4221 4564 0
-4563 -4221 -4564 0
4564 4232 -4565 0
4564 -4232 4565 0
-4564 4232 4565 0
-4564 -4232 -4565 0
4565 4243 -4566 0
4565 -4243 4566 0
-4565 4243 4566 0
-4565 -4243 -4566 0
4566 4256 -4326 0
4566 -4256 4326 0
-4566 4256 4326 0
-4566 -4256 -4326 0
4166 4227 -4567 0
4166 -4227 4567 0
-4166 4227 4567 0
-4166 -4227 -4567 0
4567 4240 -4327 0
4567 -4240 4327 0
-4567 4240 4327 0
-4567 -4240 -4327 0
4172 4187 -4568 0
4172 -4187 4568 0
-4172 4187 4568 0
-4172 -4187 -4568 0
4568 4193 -4569 0
4568 -4193 4569 0
-4568 4193 4569 0
-4568 -4193 -4569 0
4569 4200 -4570 0
4569 -4200 4570 0
-4569 4200 4570 0
-4569 -4200 -4570 0
4570 4204 -4571 0
4570 -4204 4571 0
-4570 4204 4571 0
-4570 -4204 -4571 0
4571 4246 -4572 0
4571 -4246 4572 0
-4571 4246 4572 0
-4571 -4246 -4572 0
4572 4254 -4328 0
4572 -4254 4328 0
-4572 4254 4328 0
-4572 -4254 -4328 0
4205 4216 -4573 0
4205 -4216 4573 0
-4205 4216 4573 0
-4205 -4216 -4573 0
4573 4258 -4329 0
4573 -4258 4329 0
-4573 4258 4329 0
-4573 -4258 -4329 0
4132 4146 -4574 0
4132 -4146 4574 0
-4132 4146 4574 0
-4132 -4146 -4574 0
4574 4150 -4575 0
4574 -4150 4575 0
-4574 4150 4575 0
-4574 -4150 -4575 0
4575 4225 -4576 0
4575 -4225 4576 0
-4575 4225 4576 0
-4575 -4225 -4576 0
4576 4236 -4577 0
4576 -4236 4577 0
-4576 4236 4577 0
-4576 -4236 -4577 0
4577 4247 -4330 0
4577 -4247 4330 0
-4577 4247 4330 0
-4577 -4247 -4330 0
4170 4231 -4578 0
4170 -4231 4578 0
-4170 4231 4578 0
-4170 -4231 -4578 0
4578 4244 -4331 0
4578 -4244 4331 0
-4578 4244 4331 0
-4578 -4244 -4331 0
4176 4191 -4579 0
4176 -4191 4579 0
-4176 4191 4579 0
-4176 -4191 -4579 0
4579 4197 -4580 0
4579 -4197 4580 0
-4579 4197 4580 0
-4579 -4197 -4580 0
4580 4204 -4581 0
4580 -4204 4581 0
-4580 4204 4581 0
-4580 -4204 -4581 0
4581 4208 -4582 0
4581 -4208 4582 0
-4581 4208 4582 0
-4581 -4208 -4582 0
4582 4250 -4583 0
4582 -4250 4583 0
-4582 4250 4583 0
-4582 -4250 -4583 0
4583 4258 -4332 0
4583 -4258 4332 0
-4583 4258 4332 0
-4583 -4258 -4332 0
4134 4209 -4584 0
4134 -4209 4584 0
-4134 4209 4584 0
-4134 -4209 -4584 0
4584 4220 -4333 0
4584 -4220 4333 0
-4584 4220 4333 0
-4584 -4220 -4333 0
4136 4150 -4585 0
4136 -4150 4585 0
-4136 4150 4585 0
-4136 -4150 -4585 0
4585 4154 -4586 0
4585 -4154 4586 0
-4585 4154 4586 0
-4585 -4154 -4586 0
4586 4229 -4587 0
4586 -4229 4587 0
-4586 4229 4587 0
-4586 -4229 -4587 0
4587 4240 -4588 0
4587 -4240 4588 0
-4587 4240 4588 0
-4587 -4240 -4588 0
4588 4251 -4334 0
4588 -4251 4334 0
-4588 4251 4334 0
-4588 -4251 -4334 0
4174 4235 -4589 0
4174 -4235 4589 0
-4174 4235 4589 0
-4174 -4235 -4589 0
4589 4248 -4335 0
4589 -4248 4335 0
-4589 4248 4335 0
-4589 -4248 -4335 0
4134 4180 -4590 0
4134 -4180 4590 0
-4134 4180 4590 0
-4134 -4180 -4590 0
4590 4195 -4591 0
4590 -4195 4591 0
-4590 4195 4591 0
-4590 -4195 -4591 0
4591 4201 -4592 0
4591 -4201 4592 0
-4591 4201 4592 0
-4591 -4201 -4592 0
4592 4208 -4593 0
4592 -4208 4593 0
-4592 4208 4593 0
-4592 -4208 -4593 0
4593 4212 -4594 0
4593 -4212 4594 0
-4593 4212 4594 0
-4593 -4212 -4594 0
4594 4254 -4336 0
4594 -4254 4336 0
-4594 4254 4336 0
-4594 -4254 -4336 0
4138 4213 -4595 0
4138 -4213 4595 0
-4138 4213 4595 0
-4138 -4213 -4595 0
4595 4224 -4337 0
4595 -4224 4337 0
-4595 4224 4337 0
-4595 -4224 -4337 0
4140 4154 -4596 0
4140 -4154 4596 0
-4140 4154 4596 0
-4140 -4154 -4596 0
4596 4158 -4597 0
4596 -4158 4597 0
-4596 4158 4597 0
-4596 -4158 -4597 0
4597 4233 -4598 0
4597 -4233 4598 0
-4597 4233 4598 0
-4597 -4233 -4598 0
4598 4244 -4599 0
4598 -4244 4599 0
-4598 4244 4599 0
-4598 -4244 -4599 0
4599 4255 -4338 0
4599 -4255 4338 0
-4599 4255 4338 0
-4599 -4255 -4338 0
4178 4239 -4600 0
4178 -4239 4600 0
-4178 4239 4600 0
-4178 -4239 -4600 0
4600 4252 -4339 0
4600 -4252 4339 0
-4600 4252 4339 0
-4600 -4252 -4339 0
4138 4184 -4601 0
4138 -4184 4601 0
-4138 4184 4601 0
-4138 -4184 -4601 0
4601 4199 -4602 0
4601 -4199 4602 0
-4601 4199 4602 0
-4601 -4199 -4602 0
4602 4205 -4603 0
4602 -4205 4603 0
-4602 4205 4603 0
-4602 -4205 -4603 0
4603 4212 -4604 0
4603 -4212 4604 0
-4603 4212 4604 0
-4603 -4212 -4604 0
4604 4216 -4605 0
4604 -4216 4605 0
-4604 4216 4605 0
-4604 -4216 -4605 0
4605 4258 -4340 0
4605 -4258 4340 0
-4605 4258 4340 0
-4605 -4258 -4340 0
4142 4217 -4606 0
4142 -4217 4606 0
-4142 4217 4606 0
-4142 -4217 -4606 0
4606 4228 -4341 0
4606 -4228 4341 0
-4606 4228 4341 0
-4606 -4228 -4341 0
4131 4144 -4607 0
4131 -4144 4607 0
-4131 4144 4607 0
-4131 -4144 -4607 0
4607 4158 -4608 0
4607 -4158 4608 0
-4607 4158 4608 0
-4607 -4158 -4608 0
4608 4162 -4609 0
4608 -4162 4609 0
-4608 4162 4609 0
-4608 -4162 -4609 0
4609 4198 -4610 0
4609 -4198 4610 0
-4609 4198 4610 0
-4609 -4198 -4610 0
4610 4237 -4611 0
4610 -4237 4611 0
-4610 4237 4611 0
-4610 -4237 -4611 0
4611 4248 -4342 0
4611 -4248 4342 0
-4611 4248 4342 0
-4611 -4248 -4342 0
4182 4243 -4612 0
4182 -4243 4612 0
-4182 4243 4612 0
-4182 -4243 -4612 0
4612 4256 -4343 0
4612 -4256 4343 0
-4612 4256 4343 0
-4612 -4256 -4343 0
4134 4142 -4613 0
4134 -4142 4613 0
-4134 4142 4613 0
-4134 -4142 -4613 0
4613 4188 -4614 0
4613 -4188 4614 0
-4613 4188 4614 0
-4613 -4188 -4614 0
4614 4203 -4615 0
4614 -4203 4615 0
-4614 4203 4615 0
-4614 -4203 -4615 0
4615 4209 -4616 0
4615 -4209 4616 0
-4615 4209 4616 0
-4615 -4209 -4616 0
4616 4216 -4617 0
4616 -4216 4617 0
-4616 4216 4617 0
-4616 -4216 -4617 0
4617 4220 -4344 0
4617 -4220 4344 0
-4617 4220 4344 0
-4617 -4220 -4344 0
4146 4221 -4618 0
4146 -4221 4618 0
-4146 4221 4618 0
-4146 -4221 -4618 0
4618 4232 -4345 0
4618 -4232 4345 0
-4618 4232 4345 0
-4618 -4232 -4345 0
4135 4148 -4619 0
4135 -4148 4619 0
-4135 4148 4619 0
-4135 -4148 -4619 0
4619 4162 -4620 0
4619 -4162 4620 0
-4619 4162 4620 0
-4619 -4162 -4620 0
4620 4166 -4621 0
4620 -4166 4621 0
-4620 4166 4621 0
-4620 -4166 -4621 0
4621 4202 -4622 0
4621 -4202 4622 0
-4621 4202 4622 0
-4621 -4202 -4622 0
4622 4241 -4623 0
4622 -4241 4623 0
-4622 4241 4623 0
-4622 -4241 -4623 0
4623 4252 -4346 0
4623 -4252 4346 0
-4623 4252 4346 0
-4623 -4252 -4346 0
4132 4247 -4347 0
4132 -4247 4347 0
-4132 4247 4347 0
-4132 -4247 -4347 0
4138 4146 -4624 0
4138 -4146 4624 0
-4138 4146 4624 0
-4138 -4146 -4624 0
4624 4192 -4625 0
4624 -4192 4625 0
-4624 4192 4625 0
-4624 -4192 -4625 0
4625 4207 -4626 0
4625 -4207 4626 0
-4625 4207 4626 0
-4625 -4207 -4626 0
4626 4213 -4627 0
4626 -4213 4627 0
-4626 4213 4627 0
-4626 -4213 -4627 0
4627 4220 -4628 0
4627 -4220 4628 0
-4627 4220 4628 0
-4627 -4220 -4628 0
4628 4224 -4348 0
4628 -4224 4348 0
-4628 4224 4348 0
-4628 -4224 -4348 0
4150 4225 -4629 0
4150 -4225 4629 0
-4150 4225 4629 0
-4150 -4225 -4629 0
4629 4236 -4349 0
4629 -4236 4349 0
-4629 4236 4349 0
-4629 -4236 -4349 0
4139 4152 -4630 0
4139 -4152 4630 0
-4139 4152 4630 0
-4139 -4152 -4630 0
4630 4166 -4631 0
4630 -4166 4631 0
-4630 4166 4631 0
-4630 -4166 -4631 0
4631 4170 -4632 0
4631 -4170 4632 0
-4631 4170 4632 0
-4631 -4170 -4632 0
4632 4206 -4633 0
4632 -4206 4633 0
-4632 4206 4633 0
-4632 -4206 -4633 0
4633 4245 -4634 0
4633 -4245 4634 0
-4633 4245 4634 0
-4633 -4245 -4634 0
4634 4256 -4350 0
4634 -4256 4350 0
-4634 4256 4350 0
-4634 -4256 -4350 0
4136 4251 -4351 0
4136 -4251 4351 0
-4136 4251 4351 0
-4136 -4251 -4351 0
4142 4150 -4635 0
4142 -4150 4635 0
-4142 4150 4635 0
-4142 -4150 -4635 0
4635 4196 -4636 0
4635 -4196 4636 0
-4635 4196 4636 0
-4635 -4196 -4636 0
4636 4211 -4637 0
4636 -4211 4637 0
-4636 4211 4637 0
-4636 -4211 -4637 0
4637 4217 -4638 0
4637 -4217 4638 0
-4637 4217 4638 0
-4637 -4217 -4638 0
4638 4224 -4639 0
4638 -4224 4639 0
-4638 4224 4639 0
-4638 -4224 -4639 0
4639 4228 -4352 0
4639 -4228 4352 0
-4639 4228 4352 0
-4639 -4228 -4352 0
4154 4229 -4640 0
4154 -4229 4640 0
-4154 4229 4640 0
-4154 -4229 -4640 0
4640 4240 -4353 0
4640 -4240 4353 0
-4640 4240 4353 0
-4640 -4240 -4353 0
4132 4143 -4641 0
4132 -4143 4641 0
-4132 4143 4641 0
-4132 -4143 -4641 0
4641 4156 -4642 0
4641 -4156 4642 0
-4641 4156 4642 0
-4641 -4156 -4642 0
4642 4170 -4643 0
4642 -4170 4643 0
-4642 4170 4643 0
-4642 -4170 -4643 0
4643 4174 -4644 0
4643 -4174 4644 0
-4643 4174 4644 0
-4643 -4174 -4644 0
4644 4210 -4645 0
4644 -4210 4645 0
-4644 4210 4645 0
-4644 -4210 -4645 0
4645 4249 -4354 0
4645 -4249 4354 0
-4645 4249 4354 0
-4645 -4249 -4354 0
4140 4255 -4355 0
4140 -4255 4355 0
-4140 4255 4355 0
-4140 -4255 -4355 0
4146 4154 -4646 0
4146 -4154 4646 0
-4146 4154 4646 0
-4146 -4154 -4646 0
4646 4200 -4647 0
4646 -4200 4647 0
-4646 4200 4647 0
-4646 -4200 -4647 0
4647 4215 -4648 0
4647 -4215 4648 0
-4647 4215 4648 0
-4647 -4215 -4648 0
4648 4221 -4649 0
4648 -4221 4649 0
-4648 4221 4649 0
-4648 -4221 -4649 0
4649 4228 -4650 0
4649 -4228 4650 0
-4649 4228 4650 0
-4649 -4228 -4650 0
4650 4232 -4356 0
4650 -4232 4356 0
-4650 4232 4356 0
-4650 -4232 -4356 0
4158 4233 -4651 0
4158 -4233 4651 0
-4158 4233 4651 0
-4158 -4233 -4651 0
4651 4244 -4357 0
4651 -4244 4357 0
-4651 4244 4357 0
-4651 -4244 -4357 0
4136 4147 -4652 0
4136 -4147 4652 0
-4136 4147 4652 0
-4136 -4147 -4652 0
4652 4160 -4653 0
4652 -4160 4653 0
-4652 4160 4653 0
-4652 -4160 -4653 0
4653 4174 -4654 0
4653 -4174 4654 0
-4653 4174 4654 0
-4653 -4174 -4654 0
4654 4178 -4655 0
4654 -4178 4655 0
-4654 4178 4655 0
-4654 -4178 -4655 0
4655 4214 -4656 0
4655 -4214 4656 0
-4655 4214 4656 0
-4655 -4214 -4656 0
4656 4253 -4358 0
4656 -4253 4358 0
-4656 4253 4358 0
-4656 -4253 -4358 0
4131 4144 -4657 0
4131 -4144 4657 0
-4131 4144 4657 0
-4131 -4144 -4657 0
4657 4198 -4359 0
4657 -4198 4359 0
-4657 4198 4359 0
-4657 -4198 -4359 0
4150 4158 -4658 0
4150 -4158 4658 0
-4150 4158 4658 0
-4150 -4158 -4658 0
4658 4204 -4659 0
4658 -4204 4659 0
-4658 4204 4659 0
-4658 -4204 -4659 0
4659 4219 -4660 0
4659 -4219 4660 0
-4659 4219 4660 0
-4659 -4219 -4660 0
4660 4225 -4661 0
4660 -4225 4661 0
-4660 4225 4661 0
-4660 -4225 -4661 0
4661 4232 -4662 0
4661 -4232 4662 0
-4661 4232 4662 0
-4661 -4232 -4662 0
4662 4236 -4360 0
4662 -4236 4360 0
-4662 4236 4360 0
-4662 -4236 -4360 0
4162 4237 -4663 0
4162 -4237 4663 0
-4162 4237 4663 0
-4162 -4237 -4663 0
4663 4248 -4361 0
4663 -4248 4361 0
-4663 4248 4361 0
-4663 -4248 -4361 0
4140 4151 -4664 0
4140 -4151 4664 0
-4140 4151 4664 0
-4140 -4151 -4664 0
4664 4164 -4665 0
4664 -4164 4665 0
-4664 4164 4665 0
-4664 -4164 -4665 0
4665 4178 -4666 0
4665 -4178 4666 0
-4665 4178 4666 0
-4665 -4178 -4666 0
4666 4182 -4667 0
4666 -4182 4667 0
-4666 4182 4667 0
-4666 -4182 -4667 0
4667 4218 -4668 0
4667 -4218 4668 0
-4667 4218 4668 0
-4667 -4218 -4668 0
4668 4257 -4362 0
4668 -4257 4362 0
-4668 4257 4362 0
-4668 -4257 -4362 0
4135 4148 -4669 0
4135 -4148 4669 0
-4135 4148 4669 0
-4135 -4148 -4669 0
4669 4202 -4363 0
4669 -4202 4363 0
-4669 4202 4363 0
-4669 -4202 -4363 0
4154 4162 -4670 0
4154 -4162 4670 0
-4154 4162 4670 0
-4154 -4162 -4670 0
4670 4208 -4671 0
4670 -4208 4671 0
-4670 4208 4671 0
-4670 -4208 -4671 0
4671 4223 -4672 0
4671 -4223 4672 0
-4671 4223 4672 0
-4671 -4223 -4672 0
4672 4229 -4673 0
4672 -4229 4673 0
-4672 4229 4673 0
-4672 -4229 -4673 0
4673 4236 -4674 0
4673 -4236 4674 0
-4673 4236 4674 0
-4673 -4236 -4674 0
4674 4240 -4364 0
4674 -4240 4364 0
-4674 4240 4364 0
-4674 -4240 -4364 0
4166 4241 -4675 0
4166 -4241 4675 0
-4166 4241 4675 0
-4166 -4241 -4675 0
4675 4252 -4365 0
4675 -4252 4365 0
-4675 4252 4365 0
-4675 -4252 -4365 0
4133 4144 -4676 0
4133 -4144 4676 0
-4133 4144 4676 0
-4133 -4144 -4676 0
4676 4155 -4677 0
4676 -4155 4677 0
-4676 4155 4677 0
-4676 -4155 -4677 0
4677 4168 -4678 0
4677 -4168 4678 0
-4677 4168 4678 0
-4677 -4168 -4678 0
4678 4182 -4679 0
4678 -4182 4679 0
-4678 4182 4679 0
-4678 -4182 -4679 0
4679 4186 -4680 0
4679 -4186 4680 0
-4679 4186 4680 0
-4679 -4186 -4680 0
4680 4222 -4366 0
4680 -4222 4366 0
-4680 4222 4366 0
-4680 -4222 -4366 0
4139 4152 -4681 0
4139 -4152 4681 0
-4139 4152 4681 0
-4139 -4152 -4681 0
4681 4206 -4367 0
4681 -4206 4367 0
-4681 4206 4367 0
-4681 -4206 -4367 0
4158 4166 -4682 0
4158 -4166 4682 0
-4158 4166 4682 0
-4158 -4166 -4682 0
4682 4212 -4683 0
4682 -4212 4683 0
-4682 4212 4683 0
-4682 -4212 -4683 0
4683 4227 -4684 0
4683 -4227 4684 0
-4683 4227 4684 0
-4683 -4227 -4684 0
4684 4233 -4685 0
4684 -4233 4685 0
-4684 4233 4685 0
-4684 -4233 -4685 0
4685 4240 -4686 0
4685 -4240 4686 0
-4685 4240 4686 0
-4685 -4240 -4686 0
4686 4244 -4368 0
4686 -4244 4368 0
-4686 4244 4368 0
-4686 -4244 -4368 0
4170 4245 -4687 0
4170 -4245 4687 0
-4170 4245 4687 0
-4170 -4245 -4687 0
4687 4256 -4369 0
4687 -4256 4369 0
-4687 4256 4369 0
-4687 -4256 -4369 0
4137 4148 -4688 0
4137 -4148 4688 0
-4137 4148 4688 0
-4137 -4148 -4688 0
4688 4159 -4689 0
4688 -4159 4689 0
-4688 4159 4689 0
-4688 -4159 -4689 0
4689 4172 -4690 0
4689 -4172 4690 0
-4689 4172 4690 0
-4689 -4172 -4690 0
4690 4186 -4691 0
4690 -4186 4691 0
-4690 4186 4691 0
-4690 -4186 -4691 0
4691 4190 -4692 0
4691 -4190 4692 0
-4691 4190 4692 0
-4691 -4190 -4692 0
4692 4226 -4370 0
4692 -4226 4370 0
-4692 4226 4370 0
-4692 -4226 -4370 0
4143 4156 -4693 0
4143 -4156 4693 0
-4143 4156 4693 0
-4143 -4156 -4693 0
4693 4210 -4371 0
4693 -4210 4371 0
-4693 4210 4371 0
-4693 -4210 -4371 0
4162 4170 -4694 0
4162 -4170 4694 0
-4162 4170 4694 0
-4162 -4170 -4694 0
4694 4216 -4695 0
4694 -4216 4695 0
-4694 4216 4695 0
-4694 -4216 -4695 0
4695 4231 -4696 0
4695 -4231 4696 0
-4695 4231 4696 0
-4695 -4231 -4696 0
4696 4237 -4697 0
4696 -4237 4697 0
-4696 4237 4697 0
-4696 -4237 -4697 0
4697 4244 -4698 0
4697 -4244 4698 0
-4697 4244 4698 0
-4697 -4244 -4698 0
4698 4248 -4372 0
4698 -4248 4372 0
-4698 4248 4372 0
-4698 -4248 -4372 0
4132 4174 -4699 0
4132 -4174 4699 0
-4132 4174 4699 0
-4132 -4174 -4699 0
4699 4249 -4373 0
4699 -4249 4373 0
-4699 4249 4373 0
-4699 -4249 -4373 0
4141 4152 -4700 0
4141 -4152 4700 0
-4141 4152 4700 0
-4141 -4152 -4700 0
4700 4163 -4701 0
4700 -4163 4701 0
-4700 4163 4701 0
-4700 -4163 -4701 0
4701 4176 -4702 0
4701 -4176 4702 0
-4701 4176 4702 0
-4701 -4176 -4702 0
4702 4190 -4703 0
4702 -4190 4703 0
-4702 4190 4703 0
-4702 -4190 -4703 0
4703 4194 -4704 0
4703 -4194 4704 0
-4703 4194 4704 0
-4703 -4194 -4704 0
4704 4230 -4374 0
4704 -4230 4374 0
-4704 4230 4374 0
-4704 -4230 -4374 0
4147 4160 -4705 0
4147 -4160 4705 0
-4147 4160 4705 0
-4147 -4160 -4705 0
4705 4214 -4375 0
4705 -4214 4375 0
-4705 4214 4375 0
-4705 -4214 -4375 0
4166 4174 -4706 0
4166 -4174 4706 0
-4166 4174 4706 0
-4166 -4174 -4706 0
4706 4220 -4707 0
4706 -4220 4707 0
-4706 4220 4707 0
-4706 -4220 -4707 0
4707 4235 -4708 0
4707 -4235 4708 0
-4707 4235 4708 0
-4707 -4235 -4708 0
4708 4241 -4709 0
4708 -4241 4709 0
-4708 4241 4709 0
-4708 -4241 -4709 0
4709 4248 -4710 0
4709 -4248 4710 0
-4709 4248 4710 0
-4709 -4248 -4710 0
4710 4252 -4376 0
4710 -4252 4376 0
-4710 4252 4376 0
-4710 -4252 -4376 0
4136 4178 -4711 0
4136 -4178 4711 0
-4136 4178 4711 0
-4136 -4178 -4711 0
4711 4253 -4377 0
4711 -4253 4377 0
-4711 4253 4377 0
-4711 -4253 -4377 0
4145 4156 -4712 0
4145 -4156 4712 0
-4145 4156 4712 0
-4145 -4156 -4712 0
4712 4167 -4713 0
4712 -4167 4713 0
-4712 4167 4713 0
-4712 -4167 -4713 0
4713 4180 -4714 0
4713 -4180 4714 0
-4713 4180 4714 0
-4713 -4180 -4714 0
4714 4194 -4715 0
4714 -4194 4715 0
-4714 4194 4715 0
-4714 -4194 -4715 0
4715 4198 -4716 0
4715 -4198 4716 0
-4715 4198 4716 0
-4715 -4198 -4716 0
4716 4234 -4378 0
4716 -4234 4378 0
-4716 4234 4378 0
-4716 -4234 -4378 0
4151 4164 -4717 0
4151 -4164 4717 0
-4151 4164 4717 0
-4151 -4164 -4717 0
4717 4218 -4379 0
4717 -4218 4379 0
-4717 4218 4379 0
-4717 -4218 -4379 0
4170 4178 -4718 0
4170 -4178 4718 0
-4170 4178 4718 0
-4170 -4178 -4718 0
4718 4224 -4719 0
4718 -4224 4719 0
-4718 4224 4719 0
-4718 -4224 -4719 0
4719 4239 -4720 0
4719 -4239 4720 0
-4719 4239 4720 0
-4719 -4239 -4720 0
4720 4245 -4721 0
4720 -4245 4721 0
-4720 4245 4721 0
-4720 -4245 -4721 0
4721 4252 -4722 0
4721 -4252 4722 0
-4721 4252 4722 0
-4721 -4252 -4722 0
4722 4256 -4380 0
4722 -4256 4380 0
-4722 4256 4380 0
-4722 -4256 -4380 0
4140 4182 -4723 0
4140 -4182 4723 0
-4140 4182 4723 0
-4140 -4182 -4723 0
4723 4257 -4381 0
4723 -4257 4381 0
-4723 4257 4381 0
-4723 -4257 -4381 0
4149 4160 -4724 0
4149 -4160 4724 0
-4149 4160 4724 0
-4149 -4160 -4724 0
4724 4171 -4725 0
4724 -4171 4725 0
-4724 4171 4725 0
-4724 -4171 -4725 0
4725 4184 -4726 0
4725 -4184 4726 0
-4725 4184 4726 0
-4725 -4184 -4726 0
4726 4198 -4727 0
4726 -4198 4727 0
-4726 4198 4727 0
-4726 -4198 -4727 0
4727 4202 -4728 0
4727 -4202 4728 0
-4727 4202 4728 0
-4727 -4202 -4728 0
4728 4238 -4382 0
4728 -4238 4382 0
-4728 4238 4382 0
-4728 -4238 -4382 0
4155 4168 -4729 0
4155 -4168 4729 0
-4155 4168 4729 0
-4155 -4168 -4729 0
4729 4222 -4383 0
4729 -4222 4383 0
-4729 4222 4383 0
-4729 -4222 -4383 0
4132 4174 -4730 0
4132 -4174 4730 0
-4132 4174 4730 0
-4132 -4174 -4730 0
4730 4182 -4731 0
4730 -4182 4731 0
-4730 4182 4731 0
-4730 -4182 -4731 0
4731 4228 -4732 0
4731 -4228 4732 0
-4731 4228 4732 0
-4731 -4228 -4732 0
4732 4243 -4733 0
4732 -4243 4733 0
-4732 4243 4733 0
-4732 -4243 -4733 0
4733 4249 -4734 0
4733 -4249 4734 0
-4733 4249 4734 0
-4733 -4249 -4734 0
4734 4256 -4384 0
4734 -4256 4384 0
-4734 4256 4384 0
-4734 -4256 -4384 0
4133 4144 -4735 0
4133 -4144 4735 0
-4133 4144 4735 0
-4133 -4144 -4735 0
4735 4186 -4385 0
4735 -4186 4385 0
-4735 4186 4385 0
-4735 -4186 -4385 0
4153 4164 -4736 0
4153 -4164 4736 0
-4153 4164 4736 0
-4153 -4164 -4736 0
4736 4175 -4737 0
4736 -4175 4737 0
-4736 4175 4737 0
-4736 -4175 -4737 0
4737 4188 -4738 0
4737 -4188 4738 0
-4737 4188 4738 0
-4737 -4188 -4738 0
4738 4202 -4739 0
4738 -4202 4739 0
-4738 4202 4739 0
-4738 -4202 -4739 0
4739 4206 -4740 0
4739 -4206 4740 0
-4739 4206 4740 0
-4739 -4206 -4740 0
4740 4242 -4386 0
4740 -4242 4386 0
-4740 4242 4386 0
-4740 -4242 -4386 0
4869 -4741 0
-4869 4741 0
4870 -4742 0
-4870 4742 0
4871 -4743 0
-4871 4743 0
4872 -4744 0
-4872 4744 0
4873 -4745 0
-4873 4745 0
4874 -4746 0
-4874 4746 0
4875 -4747 0
-4875 4747 0
4876 -4748 0
-4876 4748 0
4877 -4749 0
-4877 4749 0
4878 -4750 0
-4878 4750 0
4879 -4751 0
-4879 4751 0
4880 -4752 0
-4880 4752 0
4881 -4753 0
-4881 4753 0
4882 -4754 0
-4882 4754 0
4883 -4755 0
-4883 4755 0
4884 -4756 0
-4884 4756 0
4885 -4757 0
-4885 4757 0
4886 -4758 0
-4886 4758 0
4887 -4759 0
-4887 4759 0
4888 -4760 0
-4888 4760 0
4889 -4761 0
-4889 4761 0
4890 -4762 0
-4890 4762 0
4891 -4763 0
-4891 4763 0
4892 -4764 0
-4892 4764 0
4893 -4765 0
-4893 4765 0
4894 -4766 0
-4894 4766 0
4895 -4767 0
-4895 4767 0
4896 -4768 0
-4896 4768 0
4897 -4769 0
-4897 4769 0
4898 -4770 0
-4898 4770 0
4899 -4771 0
-4899 4771 0
4900 -4772 0
-4900 4772 0
4901 -4773 0
-4901 4773 0
4902 -4774 0
-4902 4774 0
4903 -4775 0
-4903 4775 0
4904 -4776 0
-4904 4776 0
4905 -4777 0
-4905 4777 0
4906 -4778 0
-4906 4778 0
4907 -4779 0
-4907 4779 0
4908 -4780 0
-4908 4780 0
4909 -4781 0
-4909 4781 0
4910 -4782 0
-4910 4782 0
4911 -4783 0
-4911 4783 0
4912 -4784 0
-4912 4784 0
4913 -4785 0
-4913 4785 0
4914 -4786 0
-4914 4786 0
4915 -4787 0
-4915 4787 0
4916 -4788 0
-4916 4788 0
4917 -4789 0
-4917 4789 0
4918 -4790 0
-4918 4790 0
4919 -4791 0
-4919 4791 0
4920 -4792 0
-4920 4792 0
4921 -4793 0
-4921 4793 0
4922 -4794 0
-4922 4794 0
4923 -4795 0
-4923 4795 0
4924 -4796 0
-4924 4796 0
4925 -4797 0
-4925 4797 0
4926 -4798 0
-4926 4798 0
4927 -4799 0
-4927 4799 0
4928 -4800 0
-4928 4800 0
4929 -4801 0
-4929 4801 0
4930 -4802 0
-4930 4802 0
4931 -4803 0
-4931 4803 0
4932 -4804 0
-4932 4804 0
4933 -4805 0
-4933 4805 0
4934 -4806 0
-4934 4806 0
4935 -4807 0
-4935 4807 0
4936 -4808 0
-4936 4808 0
4937 -4809 0
-4937 4809 0
4938 -4810 0
-4938 4810 0
4939 -4811 0
-4939 4811 0
4940 -4812 0
-4940 4812 0
4941 -4813 0
-4941 4813 0
4942 -4814 0
-4942 4814 0
4943 -4815 0
-4943 4815 0
4944 -4816 0
-4944 4816 0
4945 -4817 0
-4945 4817 0
4946 -4818 0
-4946 4818 0
4947 -4819 0
-4947 4819 0
4948 -4820 0
-4948 4820 0
4949 -4821 0
-4949 4821 0
4950 -4822 0
-4950 4822 0
4951 -4823 0
-4951 4823 0
4952 -4824 0
-4952 4824 0
4953 -4825 0
-4953 4825 0
4954 -4826 0
-4954 4826 0
4955 -4827 0
-4955 4827 0
4956 -4828 0
-4956 4828 0
4957 -4829 0
-4957 4829 0
4958 -4830 0
-4958 4830 0
4959 -4831 0
-4959 4831 0
4960 -4832 0
-4960 4832 0
4961 -4833 0
-4961 4833 0
4962 -4834 0
-4962 4834 0
4963 -4835 0
-4963 4835 0
4964 -4836 0
-4964 4836 0
4965 -4837 0
-4965 4837 0
4966 -4838 0
-4966 4838 0
4967 -4839 0
-4967 4839 0
4968 -4840 0
-4968 4840 0
4969 -4841 0
-4969 4841 0
4970 -4842 0
-4970 4842 0
4971 -4843 0
-4971 4843 0
4972 -4844 0
-4972 4844 0
4973 -4845 0
-4973 4845 0
4974 -4846 0
-4974 4846 0
4975 -4847 0
-4975 4847 0
4976 -4848 0
-4976 4848 0
4977 -4849 0
-4977 4849 0
4978 -4850 0
-4978 4850 0
4979 -4851 0
-4979 4851 0
4980 -4852 0
-4980 4852 0
4981 -4853 0
-4981 4853 0
4982 -4854 0
-4982 4854 0
4983 -4855 0
-4983 4855 0
4984 -4856 0
-4984 4856 0
4985 -4857 0
-4985 4857 0
4986 -4858 0
-4986 4858 0
4987 -4859 0
-4987 4859 0
4988 -4860 0
-4988 4860 0
4989 -4861 0
-4989 4861 0
4990 -4862 0
-4990 4862 0
4991 -4863 0
-4991 4863 0
4992 -4864 0
-4992 4864 0
4993 -4865 0
-4993 4865 0
4994 -4866 0
-4994 4866 0
4995 -4867 0
-4995 4867 0
4996 -4868 0
-4996 4868 0
-5381 5253 0
5381 -5253 0
-5382 5254 0
5382 -5254 0
-5383 5255 0
5383 -5255 0
-5384 5256 0
5384 -5256 0
-5385 5257 0
5385 -5257 0
-5386 5258 0
5386 -5258 0
-5387 5259 0
5387 -5259 0
-5388 5260 0
5388 -5260 0
-5389 5261 0
5389 -5261 0
-5390 5262 0
5390 -5262 0
-5391 5263 0
5391 -5263 0
-5392 5264 0
5392 -5264 0
-5393 5265 0
5393 -5265 0
-5394 5266 0
5394 -5266 0
-5395 5267 0
5395 -5267 0
-5396 5268 0
5396 -5268 0
-5397 5269 0
5397 -5269 0
-5398 5270 0
5398 -5270 0
-5399 5271 0
5399 -5271 0
-5400 5272 0
5400 -5272 0
-5401 5273 0
5401 -5273 0
-5402 5274 0
5402 -5274 0
-5403 5275 0
5403 -5275 0
-5404 5276 0
5404 -5276 0
-5405 5277 0
5405 -5277 0
-5406 5278 0
5406 -5278 0
-5407 5279 0
5407 -5279 0
-5408 5280 0
5408 -5280 0
-5409 5281 0
5409 -5281 0
-5410 5282 0
5410 -5282 0
-5411 5283 0
5411 -5283 0
-5412 5284 0
5412 -5284 0
-5413 5285 0
5413 -5285 0
-5414 5286 0
5414 -5286 0
-5415 5287 0
5415 -5287 0
-5416 5288 0
5416 -5288 0
-5417 5289 0
5417 -5289 0
-5418 5290 0
5418 -5290 0
-5419 5291 0
5419 -5291 0
-5420 5292 0
5420 -5292 0
-5421 5293 0
5421 -5293 0
-5422 5294 0
5422 -5294 0
-5423 5295 0
5423 -5295 0
-5424 5296 0
5424 -5296 0
-5425 5297 0
5425 -5297 0
-5426 5298 0
5426 -5298 0
-5427 5299 0
5427 -5299 0
-5428 5300 0
5428 -5300 0
-5429 5301 0
5429 -5301 0
-5430 5302 0
5430 -5302 0
-5431 5303 0
5431 -5303 0
-5432 5304 0
5432 -5304 0
-5433 5305 0
5433 -5305 0
-5434 5306 0
5434 -5306 0
-5435 5307 0
5435 -5307 0
-5436 5308 0
5436 -5308 0
-5437 5309 0
5437 -5309 0
-5438 5310 0
5438 -5310 0
-5439 5311 0
5439 -5311 0
-5440 5312 0
5440 -5312 0
-5441 5313 0
5441 -5313 0
-5442 5314 0
5442 -5314 0
-5443 5315 0
5443 -5315 0
-5444 5316 0
5444 -5316 0
-5445 5317 0
5445 -5317 0
-5446 5318 0
5446 -5318 0
-5447 5319 0
5447 -5319 0
-5448 5320 0
5448 -5320 0
-5449 5321 0
5449 -5321 0
-5450 5322 0
5450 -5322 0
-5451 5323 0
5451 -5323 0
-5452 5324 0
5452 -5324 0
-5453 5325 0
5453 -5325 0
-5454 5326 0
5454 -5326 0
-5455 5327 0
5455 -5327 0
-5456 5328 0
5456 -5328 0
-5457 5329 0
5457 -5329 0
-5458 5330 0
5458 -5330 0
-5459 5331 0
5459 -5331 0
-5460 5332 0
5460 -5332 0
-5461 5333 0
5461 -5333 0
-5462 5334 0
5462 -5334 0
-5463 5335 0
5463 -5335 0
-5464 5336 0
5464 -5336 0
-5465 5337 0
5465 -5337 0
-5466 5338 0
5466 -5338 0
-5467 5339 0
5467 -5339 0
-5468 5340 0
5468 -5340 0
-5469 5341 0
5469 -5341 0
-5470 5342 0
5470 -5342 0
-5471 5343 0
5471 -5343 0
-5472 5344 0
5472 -5344 0
-5473 5345 0
5473 -5345 0
-5474 5346 0
5474 -5346 0
-5475 5347 0
5475 -5347 0
-5476 5348 0
5476 -5348 0
-5477 5349 0
5477 -5349 0
-5478 5350 0
5478 -5350 0
-5479 5351 0
5479 -5351 0
-5480 5352 0
5480 -5352 0
-5481 5353 0
5481 -5353 0
-5482 5354 0
5482 -5354 0
-5483 5355 0
5483 -5355 0
-5484 5356 0
5484 -5356 0
-5485 5357 0
5485 -5357 0
-5486 5358 0
5486 -5358 0
-5487 5359 0
5487 -5359 0
-5488 5360 0
5488 -5360 0
-5489 5361 0
5489 -5361 0
-5490 5362 0
5490 -5362 0
-5491 5363 0
5491 -5363 0
-5492 5364 0
5492 -5364 0
-5493 5365 0
5493 -5365 0
-5494 5366 0
5494 -5366 0
-5495 5367 0
5495 -5367 0
-5496 5368 0
5496 -5368 0
-5497 5369 0
5497 -5369 0
-5498 5370 0
5498 -5370 0
-5499 5371 0
5499 -5371 0
-5500 5372 0
5500 -5372 0
-5501 5373 0
5501 -5373 0
-5502 5374 0
5502 -5374 0
-5503 5375 0
5503 -5375 0
-5504 5376 0
5504 -5376 0
-5505 5377 0
5505 -5377 0
-5506 5378 0
5506 -5378 0
-5507 5379 0
5507 -5379 0
-5508 5380 0
5508 -5380 0
5510 5513 5514 5516 -5518 0
-5510 5511 -5513 -5516 5518 0
5510 -5511 -5513 -5514 5515 -5518 0
5510 5511 5514 5515 5516 -5517 0
-5509 -5511 -5512 -5513 -5514 -5515 5516 0
5509 -5511 -5512 5514 5515 5516 0
5512 -5513 5514 -5515 5518 0
5510 5511 -5514 -5515 5516 5518 0
5510 -5511 -5512 -5514 5515 -5516 0
-5510 5511 -5513 5514 -5515 5518 0
5511 5512 -5513 -5514 -5515 -5518 0
-5509 -5510 -5513 -5514 -5515 -5516 0
-5510 -5511 5514 -5516 -5518 0
5509 5510 5511 -5516 -5518 0
-5510 -5511 -5512 5513 5516 5518 0
5510 -5511 -5513 5514 -5515 5518 0
5509 -5510 -5512 -5513 -5514 -5515 5516 0
5513 5514 5515 -5517 0
-5513 -5514 5515 -5516 5518 0
5509 5511 -5512 5513 5514 5516 0
5510 -5511 5515 5516 -5518 0
5511 -5513 5514 5515 -5516 -5518 0
-5509 -5510 -5512 5514 5515 5516 0
5510 5511 5512 -5515 5516 0
5509 -5512 -5513 5515 -5518 0
5510 -5511 -5512 5514 -5515 -5516 0
5509 5510 5511 -5513 5514 5515 0
-5509 -5510 5512 -5516 5518 0
5512 5513 -5514 -5515 5518 0
-5509 -5510 5512 5516 -5518 0
5509 5510 5512 -5517 0
5509 -5510 -5511 -5516 -5518 0
5511 5513 5514 -5515 -5518 0
5509 -5511 -5515 5516 -5518 0
-5509 -5511 5513 -5514 5515 -5516 0
-5509 -5513 -5514 5516 -5518 0
-5512 5513 -5514 -5515 -5518 0
5510 -5511 5513 -5514 -5515 -5516 0
-5509 -5510 -5512 5513 5515 5516 0
5510 5512 -5513 5514 -5515 -5516 0
5509 -5510 -5511 -5512 5513 5514 0
-5509 5511 -5512 -5513 -5514 -5516 0
5509 -5510 -5512 -5513 5515 -5516 0
5512 5515 5516 -5518 0
-5512 -5513 5514 -5515 -5518 0
-5509 5510 5511 -5512 5513 5515 0
5509 5510 5511 5513 5514 5519 0
-5512 -5513 -5516 -5518 0
5509 5510 5513 5515 5516 5519 0
-5509 5510 -5512 5513 5514 5516 0
-5509 5510 -5511 5512 -5516 0
-5512 -5519 0
5512 -5513 -5514 5515 5518 0
5511 5513 -5514 5515 5517 0
-5509 5510 5511 5512 5516 0
5512 5513 5514 5515 5519 0
-5516 -5519 0
5509 5511 5512 -5517 0
-5511 -5519 0
-5510 -5519 0
-5517 -5518 0
5517 5518 5519 0
-5510 5511 -5514 -5515 -5516 0
5521 5524 5525 5527 -5529 0
-5521 5522 -5524 -5527 5529 0
5521 -5522 -5524 -5525 5526 -5529 0
5521 5522 5525 5526 5527 -5528 0
-5520 -5522 -5523 -5524 -5525 -5526 5527 0
5520 -5522 -5523 5525 5526 5527 0
5523 -5524 5525 -5526 5529 0
5521 5522 -5525 -5526 5527 5529 0
5521 -5522 -5523 -5525 5526 -5527 0
-5521 5522 -5524 5525 -5526 5529 0
5522 5523 -5524 -5525 -5526 -5529 0
-5520 -5521 -5524 -5525 -5526 -5527 0
-5521 -5522 5525 -5527 -5529 0
5520 5521 5522 -5527 -5529 0
-5521 -5522 -5523 5524 5527 5529 0
5521 -5522 -5524 5525 -5526 5529 0
5520 -5521 -5523 -5524 -5525 -5526 5527 0
5524 5525 5526 -5528 0
-5524 -5525 5526 -5527 5529 0
5520 5522 -5523 5524 5525 5527 0
5521 -5522 5526 5527 -5529 0
5522 -5524 5525 5526 -5527 -5529 0
-5520 -5521 -5523 5525 5526 5527 0
5521 5522 5523 -5526 5527 0
5520 -5523 -5524 5526 -5529 0
5521 -5522 -5523 5525 -5526 -5527 0
5520 5521 5522 -5524 5525 5526 0
-5520 -5521 5523 -5527 5529 0
5523 5524 -5525 -5526 5529 0
-5520 -5521 5523 5527 -5529 0
5520 5521 5523 -5528 0
5520 -5521 -5522 -5527 -5529 0
5522 5524 5525 -5526 -5529 0
5520 -5522 -5526 5527 -5529 0
-5520 -5522 5524 -5525 5526 -5527 0
-5520 -5524 -5525 5527 -5529 0
-5523 5524 -5525 -5526 -5529 0
5521 -5522 5524 -5525 -5526 -5527 0
-5520 -5521 -5523 5524 5526 5527 0
5521 5523 -5524 5525 -5526 -5527 0
5520 -5521 -5522 -5523 5524 5525 0
-5520 5522 -5523 -5524 -5525 -5527 0
5520 -5521 -5523 -5524 5526 -5527 0
5523 5526 5527 -5529 0
-5523 -5524 5525 -5526 -5529 0
-5520 5521 5522 -5523 5524 5526 0
5520 5521 5522 5524 5525 5530 0
-5523 -5524 -5527 -5529 0
5520 5521 5524 5526 5527 5530 0
-5520 5521 -5523 5524 5525 5527 0
-5520 5521 -5522 5523 -5527 0
-5523 -5530 0
5523 -5524 -5525 5526 5529 0
5522 5524 -5525 5526 5528 0
-5520 5521 5522 5523 5527 0
5523 5524 5525 5526 5530 0
-5527 -5530 0
5520 5522 5523 -5528 0
-5522 -5530 0
-5521 -5530 0
-5528 -5529 0
5528 5529 5530 0
-5521 5522 -5525 -5526 -5527 0
5532 5535 5536 5538 -5540 0
-5532 5533 -5535 -5538 5540 0
5532 -5533 -5535 -5536 5537 -5540 0
5532 5533 5536 5537 5538 -5539 0
-5531 -5533 -5534 -5535 -5536 -5537 5538 0
5531 -5533 -5534 5536 5537 5538 0
5534 -5535 5536 -5537 5540 0
5532 5533 -5536 -5537 5538 5540 0
5532 -5533 -5534 -5536 5537 -5538 0
-5532 5533 -5535 5536 -5537 5540 0
5533 5534 -5535 -5536 -5537 -5540 0
-5531 -5532 -5535 -5536 -5537 -5538 0
-5532 -5533 5536 -5538 -5540 0
5531 5532 5533 -5538 -5540 0
-5532 -5533 -5534 5535 5538 5540 0
5532 -5533 -5535 5536 -5537 5540 0
5531 -5532 -5534 -5535 -5536 -5537 5538 0
5535 5536 5537 -5539 0
-5535 -5536 5537 -5538 5540 0
5531 5533 -5534 5535 5536 5538 0
5532 -5533 5537 5538 -5540 0
5533 -5535 5536 5537 -5538 -5540 0
-5531 -5532 -5534 5536 5537 5538 0
5532 5533 5534 -5537 5538 0
5531 -5534 -5535 5537 -5540 0
5532 -5533 -5534 5536 -5537 -5538 0
5531 5532 5533 -5535 5536 5537 0
-5531 -5532 5534 -5538 5540 0
5534 5535 -5536 -5537 5540 0
-5531 -5532 5534 5538 -5540 0
5531 5532 5534 -5539 0
5531 -5532 -5533 -5538 -5540 0
5533 5535 5536 -5537 -5540 0
5531 -5533 -5537 5538 -5540 0
-5531 -5533 5535 -5536 5537 -5538 0
-5531 -5535 -5536 5538 -5540 0
-5534 5535 -5536 -5537 -5540 0
5532 -5533 5535 -5536 -5537 -5538 0
-5531 -5532 -5534 5535 5537 5538 0
5532 5534 -5535 5536 -5537 -5538 0
5531 -5532 -5533 -5534 5535 5536 0
-5531 5533 -5534 -5535 -5536 -5538 0
5531 -5532 -5534 -5535 5537 -5538 0
5534 5537 5538 -5540 0
-5534 -5535 5536 -5537 -5540 0
-5531 5532 5533 -5534 5535 5537 0
5531 5532 5533 5535 5536 5541 0
-5534 -5535 -5538 -5540 0
5531 5532 5535 5537 5538 5541 0
-5531 5532 -5534 5535 5536 5538 0
-5531 5532 -5533 5534 -5538 0
-5534 -5541 0
5534 -5535 -5536 5537 5540 0
5533 5535 -5536 5537 5539 0
-5531 5532 5533 5534 5538 0
5534 5535 5536 5537 5541 0
-5538 -5541 0
5531 5533 5534 -5539 0
-5533 -5541 0
-5532 -5541 0
-5539 -5540 0
5539 5540 5541 0
-5532 5533 -5536 -5537 -5538 0
5543 5546 5547 5549 -5551 0
-5543 5544 -5546 -5549 5551 0
5543 -5544 -5546 -5547 5548 -5551 0
5543 5544 5547 5548 5549 -5550 0
-5542 -5544 -5545 -5546 -5547 -5548 5549 0
5542 -5544 -5545 5547 5548 5549 0
5545 -5546 5547 -5548 5551 0
5543 5544 -5547 -5548 5549 5551 0
5543 -5544 -5545 -5547 5548 -5549 0
-5543 5544 -5546 5547 -5548 5551 0
5544 5545 -5546 -5547 -5548 -5551 0
-5542 -5543 -5546 -5547 -5548 -5549 0
-5543 -5544 5547 -5549 -5551 0
5542 5543 5544 -5549 -5551 0
-5543 -5544 -5545 5546 5549 5551 0
5543 -5544 -5546 5547 -5548 5551 0
5542 -5543 -5545 -5546 -5547 -5548 5549 0
5546 5547 5548 -5550 0
-5546 -5547 5548 -5549 5551 0
5542 5544 -5545 5546 5547 5549 0
5543 -5544 5548 5549 -5551 0
5544 -5546 5547 5548 -5549 -5551 0
-5542 -5543 -5545 5547 5548 5549 0
5543 5544 5545 -5548 5549 0
5542 -5545 -5546 5548 -5551 0
5543 -5544 -5545 5547 -5548 -5549 0
5542 5543 5544 -5546 5547 5548 0
-5542 -5543 5545 -5549 5551 0
5545 5546 -5547 -5548 5551 0
-5542 -5543 5545 5549 -5551 0
5542 5543 5545 -5550 0
5542 -5543 -5544 -5549 -5551 0
5544 5546 5547 -5548 -5551 0
5542 -5544 -5548 5549 -5551 0
-5542 -5544 5546 -5547 5548 -5549 0
-5542 -5546 -5547 5549 -5551 0
-5545 5546 -5547 -5548 -5551 0
5543 -5544 5546 -5547 -5548 -5549 0
-5542 -5543 -5545 5546 5548 5549 0
5543 5545 -5546 5547 -5548 -5549 0
5542 -5543 -5544 -5545 5546 5547 0
-5542 5544 -5545 -5546 -5547 -5549 0
5542 -5543 -5545 -5546 5548 -5549 0
5545 5548 5549 -5551 0
-5545 -5546 5547 -5548 -5551 0
-5542 5543 5544 -5545 5546 5548 0
5542 5543 5544 5546 5547 5552 0
-5545 -5546 -5549 -5551 0
5542 5543 5546 5548 5549 5552 0
-5542 5543 -5545 5546 5547 5549 0
-5542 5543 -5544 5545 -5549 0
-5545 -5552 0
5545 -5546 -5547 5548 5551 0
5544 5546 -5547 5548 5550 0
-5542 5543 5544 5545 5549 0
5545 5546 5547 5548 5552 0
-5549 -5552 0
5542 5544 5545 -5550 0
-5544 -5552 0
-5543 -5552 0
-5550 -5551 0
5550 5551 5552 0
-5543 5544 -5547 -5548 -5549 0
5554 5557 5558 5560 -5562 0
-5554 5555 -5557 -5560 5562 0
5554 -5555 -5557 -5558 5559 -5562 0
5554 5555 5558 5559 5560 -5561 0
-5553 -5555 -5556 -5557 -5558 -5559 5560 0
5553 -5555 -5556 5558 5559 5560 0
5556 -5557 5558 -5559 5562 0
5554 5555 -5558 -5559 5560 5562 0
5554 -5555 -5556 -5558 5559 -5560 0
-5554 5555 -5557 5558 -5559 5562 0
5555 5556 -5557 -5558 -5559 -5562 0
-5553 -5554 -5557 -5558 -5559 -5560 0
-5554 -5555 5558 -5560 -5562 0
5553 5554 5555 -5560 -5562 0
-5554 -5555 -5556 5557 5560 5562 0
5554 -5555 -5557 5558 -5559 5562 0
5553 -5554 -5556 -5557 -5558 -5559 5560 0
5557 5558 5559 -5561 0
-5557 -5558 5559 -5560 5562 0
5553 5555 -5556 5557 5558 5560 0
5554 -5555 5559 5560 -5562 0
5555 -5557 5558 5559 -5560 -5562 0
-5553 -5554 -5556 5558 5559 5560 0
5554 5555 5556 -5559 5560 0
5553 -5556 -5557 5559 -5562 0
5554 -5555 -5556 5558 -5559 -5560 0
5553 5554 5555 -5557 5558 5559 0
-5553 -5554 5556 -5560 5562 0
5556 5557 -5558 -5559 5562 0
-5553 -5554 5556 5560 -5562 0
5553 5554 5556 -5561 0
5553 -5554 -5555 -5560 -5562 0
5555 5557 5558 -5559 -5562 0
5553 -5555 -5559 5560 -5562 0
-5553 -5555 5557 -5558 5559 -5560 0
-5553 -5557 -5558 5560 -5562 0
-5556 5557 -5558 -5559 -5562 0
5554 -5555 5557 -5558 -5559 -5560 0
-5553 -5554 -5556 5557 5559 5560 0
5554 5556 -5557 5558 -5559 -5560 0
5553 -5554 -5555 -5556 5557 5558 0
-5553 5555 -5556 -5557 -5558 -5560 0
5553 -5554 -5556 -5557 5559 -5560 0
5556 5559 5560 -5562 0
-5556 -5557 5558 -5559 -5562 0
-5553 5554 5555 -5556 5557 5559 0
5553 5554 5555 5557 5558 5563 0
-5556 -5557 -5560 -5562 0
5553 5554 5557 5559 5560 5563 0
-5553 5554 -5556 5557 5558 5560 0
-5553 5554 -5555 5556 -5560 0
-5556 -5563 0
5556 -5557 -5558 5559 5562 0
5555 5557 -5558 5559 5561 0
-5553 5554 5555 5556 5560 0
5556 5557 5558 5559 5563 0
-5560 -5563 0
5553 5555 5556 -5561 0
-5555 -5563 0
-5554 -5563 0
-5561 -5562 0
5561 5562 5563 0
-5554 5555 -5558 -5559 -5560 0
5565 5568 5569 5571 -5573 0
-5565 5566 -5568 -5571 5573 0
5565 -5566 -5568 -5569 5570 -5573 0
5565 5566 5569 5570 5571 -5572 0
-5564 -5566 -5567 -5568 -5569 -5570 5571 0
5564 -5566 -5567 5569 5570 5571 0
5567 -5568 5569 -5570 5573 0
5565 5566 -5569 -5570 5571 5573 0
5565 -5566 -5567 -5569 5570 -5571 0
-5565 5566 -5568 5569 -5570 5573 0
5566 5567 -5568 -5569 -5570 -5573 0
-5564 -5565 -5568 -5569 -5570 -5571 0
-5565 -5566 5569 -5571 -5573 0
5564 5565 5566 -5571 -5573 0
-5565 -5566 -5567 5568 5571 5573 0
5565 -5566 -5568 5569 -5570 5573 0
5564 -5565 -5567 -5568 -5569 -5570 5571 0
5568 5569 5570 -5572 0
-5568 -5569 5570 -5571 5573 0
5564 5566 -5567 5568 5569 5571 0
5565 -5566 5570 5571 -5573 0
5566 -5568 5569 5570 -5571 -5573 0
-5564 -5565 -5567 5569 5570 5571 0
5565 5566 5567 -5570 5571 0
5564 -5567 -5568 5570 -5573 0
5565 -5566 -5567 5569 -5570 -5571 0
5564 5565 5566 -5568 5569 5570 0
-5564 -5565 5567 -5571 5573 0
5567 5568 -5569 -5570 5573 0
-5564 -5565 5567 5571 -5573 0
5564 5565 5567 -5572 0
5564 -5565 -5566 -5571 -5573 0
5566 5568 5569 -5570 -5573 0
5564 -5566 -5570 5571 -5573 0
-5564 -5566 5568 -5569 5570 -5571 0
-5564 -5568 -5569 5571 -5573 0
-5567 5568 -5569 -5570 -5573 0
5565 -5566 5568 -5569 -5570 -5571 0
-5564 -5565 -5567 5568 5570 5571 0
5565 5567 -5568 5569 -5570 -5571 0
5564 -5565 -5566 -5567 5568 5569 0
-5564 5566 -5567 -5568 -5569 -5571 0
5564 -5565 -5567 -5568 5570 -5571 0
5567 5570 5571 -5573 0
-5567 -5568 5569 -5570 -5573 0
-5564 5565 5566 -5567 5568 5570 0
5564 5565 5566 5568 5569 5574 0
-5567 -5568 -5571 -5573 0
5564 5565 5568 5570 5571 5574 0
-5564 5565 -5567 5568 5569 5571 0
-5564 5565 -5566 5567 -5571 0
-5567 -5574 0
5567 -5568 -5569 5570 5573 0
5566 5568 -5569 5570 5572 0
-5564 5565 5566 5567 5571 0
5567 5568 5569 5570 5574 0
-5571 -5574 0
5564 5566 5567 -5572 0
-5566 -5574 0
-5565 -5574 0
-5572 -5573 0
5572 5573 5574 0
-5565 5566 -5569 -5570 -5571 0
5576 5579 5580 5582 -5584 0
-5576 5577 -5579 -5582 5584 0
5576 -5577 -5579 -5580 5581 -5584 0
5576 5577 5580 5581 5582 -5583 0
-5575 -5577 -5578 -5579 -5580 -5581 5582 0
5575 -5577 -5578 5580 5581 5582 0
5578 -5579 5580 -5581 5584 0
5576 5577 -5580 -5581 5582 5584 0
5576 -5577 -5578 -5580 5581 -5582 0
-5576 5577 -5579 5580 -5581 5584 0
5577 5578 -5579 -5580 -5581 -5584 0
-5575 -5576 -5579 -5580 -5581 -5582 0
-5576 -5577 5580 -5582 -5584 0
5575 5576 5577 -5582 -5584 0
-5576 -5577 -5578 5579 5582 5584 0
5576 -5577 -5579 5580 -5581 5584 0
5575 -5576 -5578 -5579 -5580 -5581 5582 0
5579 5580 5581 -5583 0
-5579 -5580 5581 -5582 5584 0
5575 5577 -5578 5579 5580 5582 0
5576 -5577 5581 5582 -5584 0
5577 -5579 5580 5581 -5582 -5584 0
-5575 -5576 -5578 5580 5581 5582 0
5576 5577 5578 -5581 5582 0
5575 -5578 -5579 5581 -5584 0
5576 -5577 -5578 5580 -5581 -5582 0
5575 5576 5577 -5579 5580 5581 0
-5575 -5576 5578 -5582 5584 0
5578 5579 -5580 -5581 5584 0
-5575 -5576 5578 5582 -5584 0
5575 5576 5578 -5583 0
5575 -5576 -5577 -5582 -5584 0
5577 5579 5580 -5581 -5584 0
5575 -5577 -5581 5582 -5584 0
-5575 -5577 5579 -5580 5581 -5582 0
-5575 -5579 -5580 5582 -5584 0
-5578 5579 -5580 -5581 -5584 0
5576 -5577 5579 -5580 -5581 -5582 0
-5575 -5576 -5578 5579 5581 5582 0
5576 5578 -5579 5580 -5581 -5582 0
5575 -5576 -5577 -5578 5579 5580 0
-5575 5577 -5578 -5579 -5580 -5582 0
5575 -5576 -5578 -5579 5581 -5582 0
5578 5581 5582 -5584 0
-5578 -5579 5580 -5581 -5584 0
-5575 5576 5577 -5578 5579 5581 0
5575 5576 5577 5579 5580 5585 0
-5578 -5579 -5582 -5584 0
5575 5576 5579 5581 5582 5585 0
-5575 5576 -5578 5579 5580 5582 0
-5575 5576 -5577 5578 -5582 0
-5578 -5585 0
5578 -5579 -5580 5581 5584 0
5577 5579 -5580 5581 5583 0
-5575 5576 5577 5578 5582 0
5578 5579 5580 5581 5585 0
-5582 -5585 0
5575 5577 5578 -5583 0
-5577 -5585 0
-5576 -5585 0
-5583 -5584 0
5583 5584 5585 0
-5576 5577 -5580 -5581 -5582 0
5587 5590 5591 5593 -5595 0
-5587 5588 -5590 -5593 5595 0
5587 -5588 -5590 -5591 5592 -5595 0
5587 5588 5591 5592 5593 -5594 0
-5586 -5588 -5589 -5590 -5591 -5592 5593 0
5586 -5588 -5589 5591 5592 5593 0
5589 -5590 5591 -5592 5595 0
5587 5588 -5591 -5592 5593 5595 0
5587 -5588 -5589 -5591 5592 -5593 0
-5587 5588 -5590 5591 -5592 5595 0
5588 5589 -5590 -5591 -5592 -5595 0
-5586 -5587 -5590 -5591 -5592 -5593 0
-5587 -5588 5591 -5593 -5595 0
5586 5587 5588 -5593 -5595 0
-5587 -5588 -5589 5590 5593 5595 0
5587 -5588 -5590 5591 -5592 5595 0
5586 -5587 -5589 -5590 -5591 -5592 5593 0
5590 5591 5592 -5594 0
-5590 -5591 5592 -5593 5595 0
5586 5588 -5589 5590 5591 5593 0
5587 -5588 5592 5593 -5595 0
5588 -5590 5591 5592 -5593 -5595 0
-5586 -5587 -5589 5591 5592 5593 0
5587 5588 5589 -5592 5593 0
5586 -5589 -5590 5592 -5595 0
5587 -5588 -5589 5591 -5592 -5593 0
5586 5587 5588 -5590 5591 5592 0
-5586 -5587 5589 -5593 5595 0
5589 5590 -5591 -5592 5595 0
-5586 -5587 5589 5593 -5595 0
5586 5587 5589 -5594 0
5586 -5587 -5588 -5593 -5595 0
5588 5590 5591 -5592 -5595 0
5586 -5588 -5592 5593 -5595 0
-5586 -5588 5590 -5591 5592 -5593 0
-5586 -5590 -5591 5593 -5595 0
-5589 5590 -5591 -5592 -5595 0
5587 -5588 5590 -5591 -5592 -5593 0
-5586 -5587 -5589 5590 5592 5593 0
5587 5589 -5590 5591 -5592 -5593 0
5586 -5587 -5588 -5589 5590 5591 0
-5586 5588 -5589 -5590 -5591 -5593 0
5586 -5587 -5589 -5590 5592 -5593 0
5589 5592 5593 -5595 0
-5589 -5590 5591 -5592 -5595 0
-5586 5587 5588 -5589 5590 5592 0
5586 5587 5588 5590 5591 5596 0
-5589 -5590 -5593 -5595 0
5586 5587 5590 5592 5593 5596 0
-5586 5587 -5589 5590 5591 5593 0
-5586 5587 -5588 5589 -5593 0
-5589 -5596 0
5589 -5590 -5591 5592 5595 0
5588 5590 -5591 5592 5594 0
-5586 5587 5588 5589 5593 0
5589 5590 5591 5592 5596 0
-5593 -5596 0
5586 5588 5589 -5594 0
-5588 -5596 0
-5587 -5596 0
-5594 -5595 0
5594 5595 5596 0
-5587 5588 -5591 -5592 -5593 0
5598 5601 5602 5604 -5606 0
-5598 5599 -5601 -5604 5606 0
5598 -5599 -5601 -5602 5603 -5606 0
5598 5599 5602 5603 5604 -5605 0
-5597 -5599 -5600 -5601 -5602 -5603 5604 0
5597 -5599 -5600 5602 5603 5604 0
5600 -5601 5602 -5603 5606 0
5598 5599 -5602 -5603 5604 5606 0
5598 -5599 -5600 -5602 5603 -5604 0
-5598 5599 -5601 5602 -5603 5606 0
5599 5600 -5601 -5602 -5603 -5606 0
-5597 -5598 -5601 -5602 -5603 -5604 0
-5598 -5599 5602 -5604 -5606 0
5597 5598 5599 -5604 -5606 0
-5598 -5599 -5600 5601 5604 5606 0
5598 -5599 -5601 5602 -5603 5606 0
5597 -5598 -5600 -5601 -5602 -5603 5604 0
5601 5602 5603 -5605 0
-5601 -5602 5603 -5604 5606 0
5597 5599 -5600 5601 5602 5604 0
5598 -5599 5603 5604 -5606 0
5599 -5601 5602 5603 -5604 -5606 0
-5597 -5598 -5600 5602 5603 5604 0
5598 5599 5600 -5603 5604 0
5597 -5600 -5601 5603 -5606 0
5598 -5599 -5600 5602 -5603 -5604 0
5597 5598 5599 -5601 5602 5603 0
-5597 -5598 5600 -5604 5606 0
5600 5601 -5602 -5603 5606 0
-5597 -5598 5600 5604 -5606 0
5597 5598 5600 -5605 0
5597 -5598 -5599 -5604 -5606 0
5599 5601 5602 -5603 -5606 0
5597 -5599 -5603 5604 -5606 0
-5597 -5599 5601 -5602 5603 -5604 0
-5597 -5601 -5602 5604 -5606 0
-5600 5601 -5602 -5603 -5606 0
5598 -5599 5601 -5602 -5603 -5604 0
-5597 -5598 -5600 5601 5603 5604 0
5598 5600 -5601 5602 -5603 -5604 0
5597 -5598 -5599 -5600 5601 5602 0
-5597 5599 -5600 -5601 -5602 -5604 0
5597 -5598 -5600 -5601 5603 -5604 0
5600 5603 5604 -5606 0
-5600 -5601 5602 -5603 -5606 0
-5597 5598 5599 -5600 5601 5603 0
5597 5598 5599 5601 5602 5607 0
-5600 -5601 -5604 -5606 0
5597 5598 5601 5603 5604 5607 0
-5597 5598 -5600 5601 5602 5604 0
-5597 5598 -5599 5600 -5604 0
-5600 -5607 0
5600 -5601 -5602 5603 5606 0
5599 5601 -5602 5603 5605 0
-5597 5598 5599 5600 5604 0
5600 5601 5602 5603 5607 0
-5604 -5607 0
5597 5599 5600 -5605 0
-5599 -5607 0
-5598 -5607 0
-5605 -5606 0
5605 5606 5607 0
-5598 5599 -5602 -5603 -5604 0
5609 5612 5613 5615 -5617 0
-5609 5610 -5612 -5615 5617 0
5609 -5610 -5612 -5613 5614 -5617 0
5609 5610 5613 5614 5615 -5616 0
-5608 -5610 -5611 -5612 -5613 -5614 5615 0
5608 -5610 -5611 5613 5614 5615 0
5611 -5612 5613 -5614 5617 0
5609 5610 -5613 -5614 5615 5617 0
5609 -5610 -5611 -5613 5614 -5615 0
-5609 5610 -5612 5613 -5614 5617 0
5610 5611 -5612 -5613 -5614 -5617 0
-5608 -5609 -5612 -5613 -5614 -5615 0
-5609 -5610 5613 -5615 -5617 0
5608 5609 5610 -5615 -5617 0
-5609 -5610 -5611 5612 5615 5617 0
5609 -5610 -5612 5613 -5614 5617 0
5608 -5609 -5611 -5612 -5613 -5614 5615 0
5612 5613 5614 -5616 0
-5612 -5613 5614 -5615 5617 0
5608 5610 -5611 5612 5613 5615 0
5609 -5610 5614 5615 -5617 0
5610 -5612 5613 5614 -5615 -5617 0
-5608 -5609 -5611 5613 5614 5615 0
5609 5610 5611 -5614 5615 0
5608 -5611 -5612 5614 -5617 0
5609 -5610 -5611 5613 -5614 -5615 0
5608 5609 5610 -5612 5613 5614 0
-5608 -5609 5611 -5615 5617 0
5611 5612 -5613 -5614 5617 0
-5608 -5609 5611 5615 -5617 0
5608 5609 5611 -5616 0
5608 -5609 -5610 -5615 -5617 0
5610 5612 5613 -5614 -5617 0
5608 -5610 -5614 5615 -5617 0
-5608 -5610 5612 -5613 5614 -5615 0
-5608 -5612 -5613 5615 -5617 0
-5611 5612 -5613 -5614 -5617 0
5609 -5610 5612 -5613 -5614 -5615 0
-5608 -5609 -5611 5612 5614 5615 0
5609 5611 -5612 5613 -5614 -5615 0
5608 -5609 -5610 -5611 5612 5613 0
-5608 5610 -5611 -5612 -5613 -5615 0
5608 -5609 -5611 -5612 5614 -5615 0
5611 5614 5615 -5617 0
-5611 -5612 5613 -5614 -5617 0
-5608 5609 5610 -5611 5612 5614 0
5608 5609 5610 5612 5613 5618 0
-5611 -5612 -5615 -5617 0
5608 5609 5612 5614 5615 5618 0
-5608 5609 -5611 5612 5613 5615 0
-5608 5609 -5610 5611 -5615 0
-5611 -5618 0
5611 -5612 -5613 5614 5617 0
5610 5612 -5613 5614 5616 0
-5608 5609 5610 5611 5615 0
5611 5612 5613 5614 5618 0
-5615 -5618 0
5608 5610 5611 -5616 0
-5610 -5618 0
-5609 -5618 0
-5616 -5617 0
5616 5617 5618 0
-5609 5610 -5613 -5614 -5615 0
5620 5623 5624 5626 -5628 0
-5620 5621 -5623 -5626 5628 0
5620 -5621 -5623 -5624 5625 -5628 0
5620 5621 5624 5625 5626 -5627 0
-5619 -5621 -5622 -5623 -5624 -5625 5626 0
5619 -5621 -5622 5624 5625 5626 0
5622 -5623 5624 -5625 5628 0
5620 5621 -5624 -5625 5626 5628 0
5620 -5621 -5622 -5624 5625 -5626 0
-5620 5621 -5623 5624 -5625 5628 0
5621 5622 -5623 -5624 -5625 -5628 0
-5619 -5620 -5623 -5624 -5625 -5626 0
-5620 -5621 5624 -5626 -5628 0
5619 5620 5621 -5626 -5628 0
-5620 -5621 -5622 5623 5626 5628 0
5620 -5621 -5623 5624 -5625 5628 0
5619 -5620 -5622 -5623 -5624 -5625 5626 0
5623 5624 5625 -5627 0
-5623 -5624 5625 -5626 5628 0
5619 5621 -5622 5623 5624 5626 0
5620 -5621 5625 5626 -5628 0
5621 -5623 5624 5625 -5626 -5628 0
-5619 -5620 -5622 5624 5625 5626 0
5620 5621 5622 -5625 5626 0
5619 -5622 -5623 5625 -5628 0
5620 -5621 -5622 5624 -5625 -5626 0
5619 5620 5621 -5623 5624 5625 0
-5619 -5620 5622 -5626 5628 0
5622 5623 -5624 -5625 5628 0
-5619 -5620 5622 5626 -5628 0
5619 5620 5622 -5627 0
5619 -5620 -5621 -5626 -5628 0
5621 5623 5624 -5625 -5628 0
5619 -5621 -5625 5626 -5628 0
-5619 -5621 5623 -5624 5625 -5626 0
-5619 -5623 -5624 5626 -5628 0
-5622 5623 -5624 -5625 -5628 0
5620 -5621 5623 -5624 -5625 -5626 0
-5619 -5620 -5622 5623 5625 5626 0
5620 5622 -5623 5624 -5625 -5626 0
5619 -5620 -5621 -5622 5623 5624 0
-5619 5621 -5622 -5623 -5624 -5626 0
5619 -5620 -5622 -5623 5625 -5626 0
5622 5625 5626 -5628 0
-5622 -5623 5624 -5625 -5628 0
-5619 5620 5621 -5622 5623 5625 0
5619 5620 5621 5623 5624 5629 0
-5622 -5623 -5626 -5628 0
5619 5620 5623 5625 5626 5629 0
-5619 5620 -5622 5623 5624 5626 0
-5619 5620 -5621 5622 -5626 0
-5622 -5629 0
5622 -5623 -5624 5625 5628 0
5621 5623 -5624 5625 5627 0
-5619 5620 5621 5622 5626 0
5622 5623 5624 5625 5629 0
-5626 -5629 0
5619 5621 5622 -5627 0
-5621 -5629 0
-5620 -5629 0
-5627 -5628 0
5627 5628 5629 0
-5620 5621 -5624 -5625 -5626 0
5631 5634 5635 5637 -5639 0
-5631 5632 -5634 -5637 5639 0
5631 -5632 -5634 -5635 5636 -5639 0
5631 5632 5635 5636 5637 -5638 0
-5630 -5632 -5633 -5634 -5635 -5636 5637 0
5630 -5632 -5633 5635 5636 5637 0
5633 -5634 5635 -5636 5639 0
5631 5632 -5635 -5636 5637 5639 0
5631 -5632 -5633 -5635 5636 -5637 0
-5631 5632 -5634 5635 -5636 5639 0
5632 5633 -5634 -5635 -5636 -5639 0
-5630 -5631 -5634 -5635 -5636 -5637 0
-5631 -5632 5635 -5637 -5639 0
5630 5631 5632 -5637 -5639 0
-5631 -5632 -5633 5634 5637 5639 0
5631 -5632 -5634 5635 -5636 5639 0
5630 -5631 -5633 -5634 -5635 -5636 5637 0
5634 5635 5636 -5638 0
-5634 -5635 5636 -5637 5639 0
5630 5632 -5633 5634 5635 5637 0
5631 -5632 5636 5637 -5639 0
5632 -5634 5635 5636 -5637 -5639 0
-5630 -5631 -5633 5635 5636 5637 0
5631 5632 5633 -5636 5637 0
5630 -5633 -5634 5636 -5639 0
5631 -5632 -5633 5635 -5636 -5637 0
5630 5631 5632 -5634 5635 5636 0
-5630 -5631 5633 -5637 5639 0
5633 5634 -5635 -5636 5639 0
-5630 -5631 5633 5637 -5639 0
5630 5631 5633 -5638 0
5630 -5631 -5632 -5637 -5639 0
5632 5634 5635 -5636 -5639 0
5630 -5632 -5636 5637 -5639 0
-5630 -5632 5634 -5635 5636 -5637 0
-5630 -5634 -5635 5637 -5639 0
-5633 5634 -5635 -5636 -5639 0
5631 -5632 5634 -5635 -5636 -5637 0
-5630 -5631 -5633 5634 5636 5637 0
5631 5633 -5634 5635 -5636 -5637 0
5630 -5631 -5632 -5633 5634 5635 0
-5630 5632 -5633 -5634 -5635 -5637 0
5630 -5631 -5633 -5634 5636 -5637 0
5633 5636 5637 -5639 0
-5633 -5634 5635 -5636 -5639 0
-5630 5631 5632 -5633 5634 5636 0
5630 5631 5632 5634 5635 5640 0
-5633 -5634 -5637 -5639 0
5630 5631 5634 5636 5637 5640 0
-5630 5631 -5633 5634 5635 5637 0
-5630 5631 -5632 5633 -5637 0
-5633 -5640 0
5633 -5634 -5635 5636 5639 0
5632 5634 -5635 5636 5638 0
-5630 5631 5632 5633 5637 0
5633 5634 5635 5636 5640 0
-5637 -5640 0
5630 5632 5633 -5638 0
-5632 -5640 0
-5631 -5640 0
-5638 -5639 0
5638 5639 5640 0
-5631 5632 -5635 -5636 -5637 0
5642 5645 5646 5648 -5650 0
-5642 5643 -5645 -5648 5650 0
5642 -5643 -5645 -5646 5647 -5650 0
5642 5643 5646 5647 5648 -5649 0
-5641 -5643 -5644 -5645 -5646 -5647 5648 0
5641 -5643 -5644 5646 5647 5648 0
5644 -5645 5646 -5647 5650 0
5642 5643 -5646 -5647 5648 5650 0
5642 -5643 -5644 -5646 5647 -5648 0
-5642 5643 -5645 5646 -5647 5650 0
5643 5644 -5645 -5646 -5647 -5650 0
-5641 -5642 -5645 -5646 -5647 -5648 0
-5642 -5643 5646 -5648 -5650 0
5641 5642 5643 -5648 -5650 0
-5642 -5643 -5644 5645 5648 5650 0
5642 -5643 -5645 5646 -5647 5650 0
5641 -5642 -5644 -5645 -5646 -5647 5648 0
5645 5646 5647 -5649 0
-5645 -5646 5647 -5648 5650 0
5641 5643 -5644 5645 5646 5648 0
5642 -5643 5647 5648 -5650 0
5643 -5645 5646 5647 -5648 -5650 0
-5641 -5642 -5644 5646 5647 5648 0
5642 5643 5644 -5647 5648 0
5641 -5644 -5645 5647 -5650 0
5642 -5643 -5644 5646 -5647 -5648 0
5641 5642 5643 -5645 5646 5647 0
-5641 -5642 5644 -5648 5650 0
5644 5645 -5646 -5647 5650 0
-5641 -5642 5644 5648 -5650 0
5641 5642 5644 -5649 0
5641 -5642 -5643 -5648 -5650 0
5643 5645 5646 -5647 -5650 0
5641 -5643 -5647 5648 -5650 0
-5641 -5643 5645 -5646 5647 -5648 0
-5641 -5645 -5646 5648 -5650 0
-5644 5645 -5646 -5647 -5650 0
5642 -5643 5645 -5646 -5647 -5648 0
-5641 -5642 -5644 5645 5647 5648 0
5642 5644 -5645 5646 -5647 -5648 0
5641 -5642 -5643 -5644 5645 5646 0
-5641 5643 -5644 -5645 -5646 -5648 0
5641 -5642 -5644 -5645 5647 -5648 0
5644 5647 5648 -5650 0
-5644 -5645 5646 -5647 -5650 0
-5641 5642 5643 -5644 5645 5647 0
5641 5642 5643 5645 5646 5651 0
-5644 -5645 -5648 -5650 0
5641 5642 5645 5647 5648 5651 0
-5641 5642 -5644 5645 5646 5648 0
-5641 5642 -5643 5644 -5648 0
-5644 -5651 0
5644 -5645 -5646 5647 5650 0
5643 5645 -5646 5647 5649 0
-5641 5642 5643 5644 5648 0
5644 5645 5646 5647 5651 0
-5648 -5651 0
5641 5643 5644 -5649 0
-5643 -5651 0
-5642 -5651 0
-5649 -5650 0
5649 5650 5651 0
-5642 5643 -5646 -5647 -5648 0
5653 5656 5657 5659 -5661 0
-5653 5654 -5656 -5659 5661 0
5653 -5654 -5656 -5657 5658 -5661 0
5653 5654 5657 5658 5659 -5660 0
-5652 -5654 -5655 -5656 -5657 -5658 5659 0
5652 -5654 -5655 5657 5658 5659 0
5655 -5656 5657 -5658 5661 0
5653 5654 -5657 -5658 5659 5661 0
5653 -5654 -5655 -5657 5658 -5659 0
-5653 5654 -5656 5657 -5658 5661 0
5654 5655 -5656 -5657 -5658 -5661 0
-5652 -5653 -5656 -5657 -5658 -5659 0
-5653 -5654 5657 -5659 -5661 0
5652 5653 5654 -5659 -5661 0
-5653 -5654 -5655 5656 5659 5661 0
5653 -5654 -5656 5657 -5658 5661 0
5652 -5653 -5655 -5656 -5657 -5658 5659 0
5656 5657 5658 -5660 0
-5656 -5657 5658 -5659 5661 0
5652 5654 -5655 5656 5657 5659 0
5653 -5654 5658 5659 -5661 0
5654 -5656 5657 5658 -5659 -5661 0
-5652 -5653 -5655 5657 5658 5659 0
5653 5654 5655 -5658 5659 0
5652 -5655 -5656 5658 -5661 0
5653 -5654 -5655 5657 -5658 -5659 0
5652 5653 5654 -5656 5657 5658 0
-5652 -5653 5655 -5659 5661 0
5655 5656 -5657 -5658 5661 0
-5652 -5653 5655 5659 -5661 0
5652 5653 5655 -5660 0
5652 -5653 -5654 -5659 -5661 0
5654 5656 5657 -5658 -5661 0
5652 -5654 -5658 5659 -5661 0
-5652 -5654 5656 -5657 5658 -5659 0
-5652 -5656 -5657 5659 -5661 0
-5655 5656 -5657 -5658 -5661 0
5653 -5654 5656 -5657 -5658 -5659 0
-5652 -5653 -5655 5656 5658 5659 0
5653 5655 -5656 5657 -5658 -5659 0
5652 -5653 -5654 -5655 5656 5657 0
-5652 5654 -5655 -5656 -5657 -5659 0
5652 -5653 -5655 -5656 5658 -5659 0
5655 5658 5659 -5661 0
-5655 -5656 5657 -5658 -5661 0
-5652 5653 5654 -5655 5656 5658 0
5652 5653 5654 5656 5657 5662 0
-5655 -5656 -5659 -5661 0
5652 5653 5656 5658 5659 5662 0
-5652 5653 -5655 5656 5657 5659 0
-5652 5653 -5654 5655 -5659 0
-5655 -5662 0
5655 -5656 -5657 5658 5661 0
5654 5656 -5657 5658 5660 0
-5652 5653 5654 5655 5659 0
5655 5656 5657 5658 5662 0
-5659 -5662 0
5652 5654 5655 -5660 0
-5654 -5662 0
-5653 -5662 0
-5660 -5661 0
5660 5661 5662 0
-5653 5654 -5657 -5658 -5659 0
5664 5667 5668 5670 -5672 0
-5664 5665 -5667 -5670 5672 0
5664 -5665 -5667 -5668 5669 -5672 0
5664 5665 5668 5669 5670 -5671 0
-5663 -5665 -5666 -5667 -5668 -5669 5670 0
5663 -5665 -5666 5668 5669 5670 0
5666 -5667 5668 -5669 5672 0
5664 5665 -5668 -5669 5670 5672 0
5664 -5665 -5666 -5668 5669 -5670 0
-5664 5665 -5667 5668 -5669 5672 0
5665 5666 -5667 -5668 -5669 -5672 0
-5663 -5664 -5667 -5668 -5669 -5670 0
-5664 -5665 5668 -5670 -5672 0
5663 5664 5665 -5670 -5672 0
-5664 -5665 -5666 5667 5670 5672 0
5664 -5665 -5667 5668 -5669 5672 0
5663 -5664 -5666 -5667 -5668 -5669 5670 0
5667 5668 5669 -5671 0
-5667 -5668 5669 -5670 5672 0
5663 5665 -5666 5667 5668 5670 0
5664 -5665 5669 5670 -5672 0
5665 -5667 5668 5669 -5670 -5672 0
-5663 -5664 -5666 5668 5669 5670 0
5664 5665 5666 -5669 5670 0
5663 -5666 -5667 5669 -5672 0
5664 -5665 -5666 5668 -5669 -5670 0
5663 5664 5665 -5667 5668 5669 0
-5663 -5664 5666 -5670 5672 0
5666 5667 -5668 -5669 5672 0
-5663 -5664 5666 5670 -5672 0
5663 5664 5666 -5671 0
5663 -5664 -5665 -5670 -5672 0
5665 5667 5668 -5669 -5672 0
5663 -5665 -5669 5670 -5672 0
-5663 -5665 5667 -5668 5669 -5670 0
-5663 -5667 -5668 5670 -5672 0
-5666 5667 -5668 -5669 -5672 0
5664 -5665 5667 -5668 -5669 -5670 0
-5663 -5664 -5666 5667 5669 5670 0
5664 5666 -5667 5668 -5669 -5670 0
5663 -5664 -5665 -5666 5667 5668 0
-5663 5665 -5666 -5667 -5668 -5670 0
5663 -5664 -5666 -5667 5669 -5670 0
5666 5669 5670 -5672 0
-5666 -5667 5668 -5669 -5672 0
-5663 5664 5665 -5666 5667 5669 0
5663 5664 5665 5667 5668 5673 0
-5666 -5667 -5670 -5672 0
5663 5664 5667 5669 5670 5673 0
-5663 5664 -5666 5667 5668 5670 0
-5663 5664 -5665 5666 -5670 0
-5666 -5673 0
5666 -5667 -5668 5669 5672 0
5665 5667 -5668 5669 5671 0
-5663 5664 5665 5666 5670 0
5666 5667 5668 5669 5673 0
-5670 -5673 0
5663 5665 5666 -5671 0
-5665 -5673 0
-5664 -5673 0
-5671 -5672 0
5671 5672 5673 0
-5664 5665 -5668 -5669 -5670 0
5675 5678 5679 5681 -5683 0
-5675 5676 -5678 -5681 5683 0
5675 -5676 -5678 -5679 5680 -5683 0
5675 5676 5679 5680 5681 -5682 0
-5674 -5676 -5677 -5678 -5679 -5680 5681 0
5674 -5676 -5677 5679 5680 5681 0
5677 -5678 5679 -5680 5683 0
5675 5676 -5679 -5680 5681 5683 0
5675 -5676 -5677 -5679 5680 -5681 0
-5675 5676 -5678 5679 -5680 5683 0
5676 5677 -5678 -5679 -5680 -5683 0
-5674 -5675 -5678 -5679 -5680 -5681 0
-5675 -5676 5679 -5681 -5683 0
5674 5675 5676 -5681 -5683 0
-5675 -5676 -5677 5678 5681 5683 0
5675 -5676 -5678 5679 -5680 5683 0
5674 -5675 -5677 -5678 -5679 -5680 5681 0
5678 5679 5680 -5682 0
-5678 -5679 5680 -5681 5683 0
5674 5676 -5677 5678 5679 5681 0
5675 -5676 5680 5681 -5683 0
5676 -5678 5679 5680 -5681 -5683 0
-5674 -5675 -5677 5679 5680 5681 0
5675 5676 5677 -5680 5681 0
5674 -5677 -5678 5680 -5683 0
5675 -5676 -5677 5679 -5680 -5681 0
5674 5675 5676 -5678 5679 5680 0
-5674 -5675 5677 -5681 5683 0
5677 5678 -5679 -5680 5683 0
-5674 -5675 5677 5681 -5683 0
5674 5675 5677 -5682 0
5674 -5675 -5676 -5681 -5683 0
5676 5678 5679 -5680 -5683 0
5674 -5676 -5680 5681 -5683 0
-5674 -5676 5678 -5679 5680 -5681 0
-5674 -5678 -5679 5681 -5683 0
-5677 5678 -5679 -5680 -5683 0
5675 -5676 5678 -5679 -5680 -5681 0
-5674 -5675 -5677 5678 5680 5681 0
5675 5677 -5678 5679 -5680 -5681 0
5674 -5675 -5676 -5677 5678 5679 0
-5674 5676 -5677 -5678 -5679 -5681 0
5674 -5675 -5677 -5678 5680 -5681 0
5677 5680 5681 -5683 0
-5677 -5678 5679 -5680 -5683 0
-5674 5675 5676 -5677 5678 5680 0
5674 5675 5676 5678 5679 5684 0
-5677 -5678 -5681 -5683 0
5674 5675 5678 5680 5681 5684 0
-5674 5675 -5677 5678 5679 5681 0
-5674 5675 -5676 5677 -5681 0
-5677 -5684 0
5677 -5678 -5679 5680 5683 0
5676 5678 -5679 5680 5682 0
-5674 5675 5676 5677 5681 0
5677 5678 5679 5680 5684 0
-5681 -5684 0
5674 5676 5677 -5682 0
-5676 -5684 0
-5675 -5684 0
-5682 -5683 0
5682 5683 5684 0
-5675 5676 -5679 -5680 -5681 0
5686 5689 5690 5692 -5694 0
-5686 5687 -5689 -5692 5694 0
5686 -5687 -5689 -5690 5691 -5694 0
5686 5687 5690 5691 5692 -5693 0
-5685 -5687 -5688 -5689 -5690 -5691 5692 0
5685 -5687 -5688 5690 5691 5692 0
5688 -5689 5690 -5691 5694 0
5686 5687 -5690 -5691 5692 5694 0
5686 -5687 -5688 -5690 5691 -5692 0
-5686 5687 -5689 5690 -5691 5694 0
5687 5688 -5689 -5690 -5691 -5694 0
-5685 -5686 -5689 -5690 -5691 -5692 0
-5686 -5687 5690 -5692 -5694 0
5685 5686 5687 -5692 -5694 0
-5686 -5687 -5688 5689 5692 5694 0
5686 -5687 -5689 5690 -5691 5694 0
5685 -5686 -5688 -5689 -5690 -5691 5692 0
5689 5690 5691 -5693 0
-5689 -5690 5691 -5692 5694 0
5685 5687 -5688 5689 5690 5692 0
5686 -5687 5691 5692 -5694 0
5687 -5689 5690 5691 -5692 -5694 0
-5685 -5686 -5688 5690 5691 5692 0
5686 5687 5688 -5691 5692 0
5685 -5688 -5689 5691 -5694 0
5686 -5687 -5688 5690 -5691 -5692 0
5685 5686 5687 -5689 5690 5691 0
-5685 -5686 5688 -5692 5694 0
5688 5689 -5690 -5691 5694 0
-5685 -5686 5688 5692 -5694 0
5685 5686 5688 -5693 0
5685 -5686 -5687 -5692 -5694 0
5687 5689 5690 -5691 -5694 0
5685 -5687 -5691 5692 -5694 0
-5685 -5687 5689 -5690 5691 -5692 0
-5685 -5689 -5690 5692 -5694 0
-5688 5689 -5690 -5691 -5694 0
5686 -5687 5689 -5690 -5691 -5692 0
-5685 -5686 -5688 5689 5691 5692 0
5686 5688 -5689 5690 -5691 -5692 0
5685 -5686 -5687 -5688 5689 5690 0
-5685 5687 -5688 -5689 -5690 -5692 0
5685 -5686 -5688 -5689 5691 -5692 0
5688 5691 5692 -5694 0
-5688 -5689 5690 -5691 -5694 0
-5685 5686 5687 -5688 5689 5691 0
5685 5686 5687 5689 5690 5695 0
-5688 -5689 -5692 -5694 0
5685 5686 5689 5691 5692 5695 0
-5685 5686 -5688 5689 5690 5692 0
-5685 5686 -5687 5688 -5692 0
-5688 -5695 0
5688 -5689 -5690 5691 5694 0
5687 5689 -5690 5691 5693 0
-5685 5686 5687 5688 5692 0
5688 5689 5690 5691 5695 0
-5692 -5695 0
5685 5687 5688 -5693 0
-5687 -5695 0
-5686 -5695 0
-5693 -5694 0
5693 5694 5695 0
-5686 5687 -5690 -5691 -5692 0
5697 5700 5701 5703 -5705 0
-5697 5698 -5700 -5703 5705 0
5697 -5698 -5700 -5701 5702 -5705 0
5697 5698 5701 5702 5703 -5704 0
-5696 -5698 -5699 -5700 -5701 -5702 5703 0
5696 -5698 -5699 5701 5702 5703 0
5699 -5700 5701 -5702 5705 0
5697 5698 -5701 -5702 5703 5705 0
5697 -5698 -5699 -5701 5702 -5703 0
-5697 5698 -5700 5701 -5702 5705 0
5698 5699 -5700 -5701 -5702 -5705 0
-5696 -5697 -5700 -5701 -5702 -5703 0
-5697 -5698 5701 -5703 -5705 0
5696 5697 5698 -5703 -5705 0
-5697 -5698 -5699 5700 5703 5705 0
5697 -5698 -5700 5701 -5702 5705 0
5696 -5697 -5699 -5700 -5701 -5702 5703 0
5700 5701 5702 -5704 0
-5700 -5701 5702 -5703 5705 0
5696 5698 -5699 5700 5701 5703 0
5697 -5698 5702 5703 -5705 0
5698 -5700 5701 5702 -5703 -5705 0
-5696 -5697 -5699 5701 5702 5703 0
5697 5698 5699 -5702 5703 0
5696 -5699 -5700 5702 -5705 0
5697 -5698 -5699 5701 -5702 -5703 0
5696 5697 5698 -5700 5701 5702 0
-5696 -5697 5699 -5703 5705 0
5699 5700 -5701 -5702 5705 0
-5696 -5697 5699 5703 -5705 0
5696 5697 5699 -5704 0
5696 -5697 -5698 -5703 -5705 0
5698 5700 5701 -5702 -5705 0
5696 -5698 -5702 5703 -5705 0
-5696 -5698 5700 -5701 5702 -5703 0
-5696 -5700 -5701 5703 -5705 0
-5699 5700 -5701 -5702 -5705 0
5697 -5698 5700 -5701 -5702 -5703 0
-5696 -5697 -5699 5700 5702 5703 0
5697 5699 -5700 5701 -5702 -5703 0
5696 -5697 -5698 -5699 5700 5701 0
-5696 5698 -5699 -5700 -5701 -5703 0
5696 -5697 -5699 -5700 5702 -5703 0
5699 5702 5703 -5705 0
-5699 -5700 5701 -5702 -5705 0
-5696 5697 5698 -5699 5700 5702 0
5696 5697 5698 5700 5701 5706 0
-5699 -5700 -5703 -5705 0
5696 5697 5700 5702 5703 5706 0
-5696 5697 -5699 5700 5701 5703 0
-5696 5697 -5698 5699 -5703 0
-5699 -5706 0
5699 -5700 -5701 5702 5705 0
5698 5700 -5701 5702 5704 0
-5696 5697 5698 5699 5703 0
5699 5700 5701 5702 5706 0
-5703 -5706 0
5696 5698 5699 -5704 0
-5698 -5706 0
-5697 -5706 0
-5704 -5705 0
5704 5705 5706 0
-5697 5698 -5701 -5702 -5703 0
5708 5711 5712 5714 -5716 0
-5708 5709 -5711 -5714 5716 0
5708 -5709 -5711 -5712 5713 -5716 0
5708 5709 5712 5713 5714 -5715 0
-5707 -5709 -5710 -5711 -5712 -5713 5714 0
5707 -5709 -5710 5712 5713 5714 0
5710 -5711 5712 -5713 5716 0
5708 5709 -5712 -5713 5714 5716 0
5708 -5709 -5710 -5712 5713 -5714 0
-5708 5709 -5711 5712 -5713 5716 0
5709 5710 -5711 -5712 -5713 -5716 0
-5707 -5708 -5711 -5712 -5713 -5714 0
-5708 -5709 5712 -5714 -5716 0
5707 5708 5709 -5714 -5716 0
-5708 -5709 -5710 5711 5714 5716 0
5708 -5709 -5711 5712 -5713 5716 0
5707 -5708 -5710 -5711 -5712 -5713 5714 0
5711 5712 5713 -5715 0
-5711 -5712 5713 -5714 5716 0
5707 5709 -5710 5711 5712 5714 0
5708 -5709 5713 5714 -5716 0
5709 -5711 5712 5713 -5714 -5716 0
-5707 -5708 -5710 5712 5713 5714 0
5708 5709 5710 -5713 5714 0
5707 -5710 -5711 5713 -5716 0
5708 -5709 -5710 5712 -5713 -5714 0
5707 5708 5709 -5711 5712 5713 0
-5707 -5708 5710 -5714 5716 0
5710 5711 -5712 -5713 5716 0
-5707 -5708 5710 5714 -5716 0
5707 5708 5710 -5715 0
5707 -5708 -5709 -5714 -5716 0
5709 5711 5712 -5713 -5716 0
5707 -5709 -5713 5714 -5716 0
-5707 -5709 5711 -5712 5713 -5714 0
-5707 -5711 -5712 5714 -5716 0
-5710 5711 -5712 -5713 -5716 0
5708 -5709 5711 -5712 -5713 -5714 0
-5707 -5708 -5710 5711 5713 5714 0
5708 5710 -5711 5712 -5713 -5714 0
5707 -5708 -5709 -5710 5711 5712 0
-5707 5709 -5710 -5711 -5712 -5714 0
5707 -5708 -5710 -5711 5713 -5714 0
5710 5713 5714 -5716 0
-5710 -5711 5712 -5713 -5716 0
-5707 5708 5709 -5710 5711 5713 0
5707 5708 5709 5711 5712 5717 0
-5710 -5711 -5714 -5716 0
5707 5708 5711 5713 5714 5717 0
-5707 5708 -5710 5711 5712 5714 0
-5707 5708 -5709 5710 -5714 0
-5710 -5717 0
5710 -5711 -5712 5713 5716 0
5709 5711 -5712 5713 5715 0
-5707 5708 5709 5710 5714 0
5710 5711 5712 5713 5717 0
-5714 -5717 0
5707 5709 5710 -5715 0
-5709 -5717 0
-5708 -5717 0
-5715 -5716 0
5715 5716 5717 0
-5708 5709 -5712 -5713 -5714 0
5719 5722 5723 5725 -5727 0
-5719 5720 -5722 -5725 5727 0
5719 -5720 -5722 -5723 5724 -5727 0
5719 5720 5723 5724 5725 -5726 0
-5718 -5720 -5721 -5722 -5723 -5724 5725 0
5718 -5720 -5721 5723 5724 5725 0
5721 -5722 5723 -5724 5727 0
5719 5720 -5723 -5724 5725 5727 0
5719 -5720 -5721 -5723 5724 -5725 0
-5719 5720 -5722 5723 -5724 5727 0
5720 5721 -5722 -5723 -5724 -5727 0
-5718 -5719 -5722 -5723 -5724 -5725 0
-5719 -5720 5723 -5725 -5727 0
5718 5719 5720 -5725 -5727 0
-5719 -5720 -5721 5722 5725 5727 0
5719 -5720 -5722 5723 -5724 5727 0
5718 -5719 -5721 -5722 -5723 -5724 5725 0
5722 5723 5724 -5726 0
-5722 -5723 5724 -5725 5727 0
5718 5720 -5721 5722 5723 5725 0
5719 -5720 5724 5725 -5727 0
5720 -5722 5723 5724 -5725 -5727 0
-5718 -5719 -5721 5723 5724 5725 0
5719 5720 5721 -5724 5725 0
5718 -5721 -5722 5724 -5727 0
5719 -5720 -5721 5723 -5724 -5725 0
5718 5719 5720 -5722 5723 5724 0
-5718 -5719 5721 -5725 5727 0
5721 5722 -5723 -5724 5727 0
-5718 -5719 5721 5725 -5727 0
5718 5719 5721 -5726 0
5718 -5719 -5720 -5725 -5727 0
5720 5722 5723 -5724 -5727 0
5718 -5720 -5724 5725 -5727 0
-5718 -5720 5722 -5723 5724 -5725 0
-5718 -5722 -5723 5725 -5727 0
-5721 5722 -5723 -5724 -5727 0
5719 -5720 5722 -5723 -5724 -5725 0
-5718 -5719 -5721 5722 5724 5725 0
5719 5721 -5722 5723 -5724 -5725 0
5718 -5719 -5720 -5721 5722 5723 0
-5718 5720 -5721 -5722 -5723 -5725 0
5718 -5719 -5721 -5722 5724 -5725 0
5721 5724 5725 -5727 0
-5721 -5722 5723 -5724 -5727 0
-5718 5719 5720 -5721 5722 5724 0
5718 5719 5720 5722 5723 5728 0
-5721 -5722 -5725 -5727 0
5718 5719 5722 5724 5725 5728 0
-5718 5719 -5721 5722 5723 5725 0
-5718 5719 -5720 5721 -5725 0
-5721 -5728 0
5721 -5722 -5723 5724 5727 0
5720 5722 -5723 5724 5726 0
-5718 5719 5720 5721 5725 0
5721 5722 5723 5724 5728 0
-5725 -5728 0
5718 5720 5721 -5726 0
-5720 -5728 0
-5719 -5728 0
-5726 -5727 0
5726 5727 5728 0
-5719 5720 -5723 -5724 -5725 0
5730 5733 5734 5736 -5738 0
-5730 5731 -5733 -5736 5738 0
5730 -5731 -5733 -5734 5735 -5738 0
5730 5731 5734 5735 5736 -5737 0
-5729 -5731 -5732 -5733 -5734 -5735 5736 0
5729 -5731 -5732 5734 5735 5736 0
5732 -5733 5734 -5735 5738 0
5730 5731 -5734 -5735 5736 5738 0
5730 -5731 -5732 -5734 5735 -5736 0
-5730 5731 -5733 5734 -5735 5738 0
5731 5732 -5733 -5734 -5735 -5738 0
-5729 -5730 -5733 -5734 -5735 -5736 0
-5730 -5731 5734 -5736 -5738 0
5729 5730 5731 -5736 -5738 0
-5730 -5731 -5732 5733 5736 5738 0
5730 -5731 -5733 5734 -5735 5738 0
5729 -5730 -5732 -5733 -5734 -5735 5736 0
5733 5734 5735 -5737 0
-5733 -5734 5735 -5736 5738 0
5729 5731 -5732 5733 5734 5736 0
5730 -5731 5735 5736 -5738 0
5731 -5733 5734 5735 -5736 -5738 0
-5729 -5730 -5732 5734 5735 5736 0
5730 5731 5732 -5735 5736 0
5729 -5732 -5733 5735 -5738 0
5730 -5731 -5732 5734 -5735 -5736 0
5729 5730 5731 -5733 5734 5735 0
-5729 -5730 5732 -5736 5738 0
5732 5733 -5734 -5735 5738 0
-5729 -5730 5732 5736 -5738 0
5729 5730 5732 -5737 0
5729 -5730 -5731 -5736 -5738 0
5731 5733 5734 -5735 -5738 0
5729 -5731 -5735 5736 -5738 0
-5729 -5731 5733 -5734 5735 -5736 0
-5729 -5733 -5734 5736 -5738 0
-5732 5733 -5734 -5735 -5738 0
5730 -5731 5733 -5734 -5735 -5736 0
-5729 -5730 -5732 5733 5735 5736 0
5730 5732 -5733 5734 -5735 -5736 0
5729 -5730 -5731 -5732 5733 5734 0
-5729 5731 -5732 -5733 -5734 -5736 0
5729 -5730 -5732 -5733 5735 -5736 0
5732 5735 5736 -5738 0
-5732 -5733 5734 -5735 -5738 0
-5729 5730 5731 -5732 5733 5735 0
5729 5730 5731 5733 5734 5739 0
-5732 -5733 -5736 -5738 0
5729 5730 5733 5735 5736 5739 0
-5729 5730 -5732 5733 5734 5736 0
-5729 5730 -5731 5732 -5736 0
-5732 -5739 0
5732 -5733 -5734 5735 5738 0
5731 5733 -5734 5735 5737 0
-5729 5730 5731 5732 5736 0
5732 5733 5734 5735 5739 0
-5736 -5739 0
5729 5731 5732 -5737 0
-5731 -5739 0
-5730 -5739 0
-5737 -5738 0
5737 5738 5739 0
-5730 5731 -5734 -5735 -5736 0
5741 5744 5745 5747 -5749 0
-5741 5742 -5744 -5747 5749 0
5741 -5742 -5744 -5745 5746 -5749 0
5741 5742 5745 5746 5747 -5748 0
-5740 -5742 -5743 -5744 -5745 -5746 5747 0
5740 -5742 -5743 5745 5746 5747 0
5743 -5744 5745 -5746 5749 0
5741 5742 -5745 -5746 5747 5749 0
5741 -5742 -5743 -5745 5746 -5747 0
-5741 5742 -5744 5745 -5746 5749 0
5742 5743 -5744 -5745 -5746 -5749 0
-5740 -5741 -5744 -5745 -5746 -5747 0
-5741 -5742 5745 -5747 -5749 0
5740 5741 5742 -5747 -5749 0
-5741 -5742 -5743 5744 5747 5749 0
5741 -5742 -5744 5745 -5746 5749 0
5740 -5741 -5743 -5744 -5745 -5746 5747 0
5744 5745 5746 -5748 0
-5744 -5745 5746 -5747 5749 0
5740 5742 -5743 5744 5745 5747 0
5741 -5742 5746 5747 -5749 0
5742 -5744 5745 5746 -5747 -5749 0
-5740 -5741 -5743 5745 5746 5747 0
5741 5742 5743 -5746 5747 0
5740 -5743 -5744 5746 -5749 0
5741 -5742 -5743 5745 -5746 -5747 0
5740 5741 5742 -5744 5745 5746 0
-5740 -5741 5743 -5747 5749 0
5743 5744 -5745 -5746 5749 0
-5740 -5741 5743 5747 -5749 0
5740 5741 5743 -5748 0
5740 -5741 -5742 -5747 -5749 0
5742 5744 5745 -5746 -5749 0
5740 -5742 -5746 5747 -5749 0
-5740 -5742 5744 -5745 5746 -5747 0
-5740 -5744 -5745 5747 -5749 0
-5743 5744 -5745 -5746 -5749 0
5741 -5742 5744 -5745 -5746 -5747 0
-5740 -5741 -5743 5744 5746 5747 0
5741 5743 -5744 5745 -5746 -5747 0
5740 -5741 -5742 -5743 5744 5745 0
-5740 5742 -5743 -5744 -5745 -5747 0
5740 -5741 -5743 -5744 5746 -5747 0
5743 5746 5747 -5749 0
-5743 -5744 5745 -5746 -5749 0
-5740 5741 5742 -5743 5744 5746 0
5740 5741 5742 5744 5745 5750 0
-5743 -5744 -5747 -5749 0
5740 5741 5744 5746 5747 5750 0
-5740 5741 -5743 5744 5745 5747 0
-5740 5741 -5742 5743 -5747 0
-5743 -5750 0
5743 -5744 -5745 5746 5749 0
5742 5744 -5745 5746 5748 0
-5740 5741 5742 5743 5747 0
5743 5744 5745 5746 5750 0
-5747 -5750 0
5740 5742 5743 -5748 0
-5742 -5750 0
-5741 -5750 0
-5748 -5749 0
5748 5749 5750 0
-5741 5742 -5745 -5746 -5747 0
5752 5755 5756 5758 -5760 0
-5752 5753 -5755 -5758 5760 0
5752 -5753 -5755 -5756 5757 -5760 0
5752 5753 5756 5757 5758 -5759 0
-5751 -5753 -5754 -5755 -5756 -5757 5758 0
5751 -5753 -5754 5756 5757 5758 0
5754 -5755 5756 -5757 5760 0
5752 5753 -5756 -5757 5758 5760 0
5752 -5753 -5754 -5756 5757 -5758 0
-5752 5753 -5755 5756 -5757 5760 0
5753 5754 -5755 -5756 -5757 -5760 0
-5751 -5752 -5755 -5756 -5757 -5758 0
-5752 -5753 5756 -5758 -5760 0
5751 5752 5753 -5758 -5760 0
-5752 -5753 -5754 5755 5758 5760 0
5752 -5753 -5755 5756 -5757 5760 0
5751 -5752 -5754 -5755 -5756 -5757 5758 0
5755 5756 5757 -5759 0
-5755 -5756 5757 -5758 5760 0
5751 5753 -5754 5755 5756 5758 0
5752 -5753 5757 5758 -5760 0
5753 -5755 5756 5757 -5758 -5760 0
-5751 -5752 -5754 5756 5757 5758 0
5752 5753 5754 -5757 5758 0
5751 -5754 -5755 5757 -5760 0
5752 -5753 -5754 5756 -5757 -5758 0
5751 5752 5753 -5755 5756 5757 0
-5751 -5752 5754 -5758 5760 0
5754 5755 -5756 -5757 5760 0
-5751 -5752 5754 5758 -5760 0
5751 5752 5754 -5759 0
5751 -5752 -5753 -5758 -5760 0
5753 5755 5756 -5757 -5760 0
5751 -5753 -5757 5758 -5760 0
-5751 -5753 5755 -5756 5757 -5758 0
-5751 -5755 -5756 5758 -5760 0
-5754 5755 -5756 -5757 -5760 0
5752 -5753 5755 -5756 -5757 -5758 0
-5751 -5752 -5754 5755 5757 5758 0
5752 5754 -5755 5756 -5757 -5758 0
5751 -5752 -5753 -5754 5755 5756 0
-5751 5753 -5754 -5755 -5756 -5758 0
5751 -5752 -5754 -5755 5757 -5758 0
5754 5757 5758 -5760 0
-5754 -5755 5756 -5757 -5760 0
-5751 5752 5753 -5754 5755 5757 0
5751 5752 5753 5755 5756 5761 0
-5754 -5755 -5758 -5760 0
5751 5752 5755 5757 5758 5761 0
-5751 5752 -5754 5755 5756 5758 0
-5751 5752 -5753 5754 -5758 0
-5754 -5761 0
5754 -5755 -5756 5757 5760 0
5753 5755 -5756 5757 5759 0
-5751 5752 5753 5754 5758 0
5754 5755 5756 5757 5761 0
-5758 -5761 0
5751 5753 5754 -5759 0
-5753 -5761 0
-5752 -5761 0
-5759 -5760 0
5759 5760 5761 0
-5752 5753 -5756 -5757 -5758 0
5763 5766 5767 5769 -5771 0
-5763 5764 -5766 -5769 5771 0
5763 -5764 -5766 -5767 5768 -5771 0
5763 5764 5767 5768 5769 -5770 0
-5762 -5764 -5765 -5766 -5767 -5768 5769 0
5762 -5764 -5765 5767 5768 5769 0
5765 -5766 5767 -5768 5771 0
5763 5764 -5767 -5768 5769 5771 0
5763 -5764 -5765 -5767 5768 -5769 0
-5763 5764 -5766 5767 -5768 5771 0
5764 5765 -5766 -5767 -5768 -5771 0
-5762 -5763 -5766 -5767 -5768 -5769 0
-5763 -5764 5767 -5769 -5771 0
5762 5763 5764 -5769 -5771 0
-5763 -5764 -5765 5766 5769 5771 0
5763 -5764 -5766 5767 -5768 5771 0
5762 -5763 -5765 -5766 -5767 -5768 5769 0
5766 5767 5768 -5770 0
-5766 -5767 5768 -5769 5771 0
5762 5764 -5765 5766 5767 5769 0
5763 -5764 5768 5769 -5771 0
5764 -5766 5767 5768 -5769 -5771 0
-5762 -5763 -5765 5767 5768 5769 0
5763 5764 5765 -5768 5769 0
5762 -5765 -5766 5768 -5771 0
5763 -5764 -5765 5767 -5768 -5769 0
5762 5763 5764 -5766 5767 5768 0
-5762 -5763 5765 -5769 5771 0
5765 5766 -5767 -5768 5771 0
-5762 -5763 5765 5769 -5771 0
5762 5763 5765 -5770 0
5762 -5763 -5764 -5769 -5771 0
5764 5766 5767 -5768 -5771 0
5762 -5764 -5768 5769 -5771 0
-5762 -5764 5766 -5767 5768 -5769 0
-5762 -5766 -5767 5769 -5771 0
-5765 5766 -5767 -5768 -5771 0
5763 -5764 5766 -5767 -5768 -5769 0
-5762 -5763 -5765 5766 5768 5769 0
5763 5765 -5766 5767 -5768 -5769 0
5762 -5763 -5764 -5765 5766 5767 0
-5762 5764 -5765 -5766 -5767 -5769 0
5762 -5763 -5765 -5766 5768 -5769 0
5765 5768 5769 -5771 0
-5765 -5766 5767 -5768 -5771 0
-5762 5763 5764 -5765 5766 5768 0
5762 5763 5764 5766 5767 5772 0
-5765 -5766 -5769 -5771 0
5762 5763 5766 5768 5769 5772 0
-5762 5763 -5765 5766 5767 5769 0
-5762 5763 -5764 5765 -5769 0
-5765 -5772 0
5765 -5766 -5767 5768 5771 0
5764 5766 -5767 5768 5770 0
-5762 5763 5764 5765 5769 0
5765 5766 5767 5768 5772 0
-5769 -5772 0
5762 5764 5765 -5770 0
-5764 -5772 0
-5763 -5772 0
-5770 -5771 0
5770 5771 5772 0
-5763 5764 -5767 -5768 -5769 0
5774 5777 5778 5780 -5782 0
-5774 5775 -5777 -5780 5782 0
5774 -5775 -5777 -5778 5779 -5782 0
5774 5775 5778 5779 5780 -5781 0
-5773 -5775 -5776 -5777 -5778 -5779 5780 0
5773 -5775 -5776 5778 5779 5780 0
5776 -5777 5778 -5779 5782 0
5774 5775 -5778 -5779 5780 5782 0
5774 -5775 -5776 -5778 5779 -5780 0
-5774 5775 -5777 5778 -5779 5782 0
5775 5776 -5777 -5778 -5779 -5782 0
-5773 -5774 -5777 -5778 -5779 -5780 0
-5774 -5775 5778 -5780 -5782 0
5773 5774 5775 -5780 -5782 0
-5774 -5775 -5776 5777 5780 5782 0
5774 -5775 -5777 5778 -5779 5782 0
5773 -5774 -5776 -5777 -5778 -5779 5780 0
5777 5778 5779 -5781 0
-5777 -5778 5779 -5780 5782 0
5773 5775 -5776 5777 5778 5780 0
5774 -5775 5779 5780 -5782 0
5775 -5777 5778 5779 -5780 -5782 0
-5773 -5774 -5776 5778 5779 5780 0
5774 5775 5776 -5779 5780 0
5773 -5776 -5777 5779 -5782 0
5774 -5775 -5776 5778 -5779 -5780 0
5773 5774 5775 -5777 5778 5779 0
-5773 -5774 5776 -5780 5782 0
5776 5777 -5778 -5779 5782 0
-5773 -5774 5776 5780 -5782 0
5773 5774 5776 -5781 0
5773 -5774 -5775 -5780 -5782 0
5775 5777 5778 -5779 -5782 0
5773 -5775 -5779 5780 -5782 0
-5773 -5775 5777 -5778 5779 -5780 0
-5773 -5777 -5778 5780 -5782 0
-5776 5777 -5778 -5779 -5782 0
5774 -5775 5777 -5778 -5779 -5780 0
-5773 -5774 -5776 5777 5779 5780 0
5774 5776 -5777 5778 -5779 -5780 0
5773 -5774 -5775 -5776 5777 5778 0
-5773 5775 -5776 -5777 -5778 -5780 0
5773 -5774 -5776 -5777 5779 -5780 0
5776 5779 5780 -5782 0
-5776 -5777 5778 -5779 -5782 0
-5773 5774 5775 -5776 5777 5779 0
5773 5774 5775 5777 5778 5783 0
-5776 -5777 -5780 -5782 0
5773 5774 5777 5779 5780 5783 0
-5773 5774 -5776 5777 5778 5780 0
-5773 5774 -5775 5776 -5780 0
-5776 -5783 0
5776 -5777 -5778 5779 5782 0
5775 5777 -5778 5779 5781 0
-5773 5774 5775 5776 5780 0
5776 5777 5778 5779 5783 0
-5780 -5783 0
5773 5775 5776 -5781 0
-5775 -5783 0
-5774 -5783 0
-5781 -5782 0
5781 5782 5783 0
-5774 5775 -5778 -5779 -5780 0
5785 5788 5789 5791 -5793 0
-5785 5786 -5788 -5791 5793 0
5785 -5786 -5788 -5789 5790 -5793 0
5785 5786 5789 5790 5791 -5792 0
-5784 -5786 -5787 -5788 -5789 -5790 5791 0
5784 -5786 -5787 5789 5790 5791 0
5787 -5788 5789 -5790 5793 0
5785 5786 -5789 -5790 5791 5793 0
5785 -5786 -5787 -5789 5790 -5791 0
-5785 5786 -5788 5789 -5790 5793 0
5786 5787 -5788 -5789 -5790 -5793 0
-5784 -5785 -5788 -5789 -5790 -5791 0
-5785 -5786 5789 -5791 -5793 0
5784 5785 5786 -5791 -5793 0
-5785 -5786 -5787 5788 5791 5793 0
5785 -5786 -5788 5789 -5790 5793 0
5784 -5785 -5787 -5788 -5789 -5790 5791 0
5788 5789 5790 -5792 0
-5788 -5789 5790 -5791 5793 0
5784 5786 -5787 5788 5789 5791 0
5785 -5786 5790 5791 -5793 0
5786 -5788 5789 5790 -5791 -5793 0
-5784 -5785 -5787 5789 5790 5791 0
5785 5786 5787 -5790 5791 0
5784 -5787 -5788 5790 -5793 0
5785 -5786 -5787 5789 -5790 -5791 0
5784 5785 5786 -5788 5789 5790 0
-5784 -5785 5787 -5791 5793 0
5787 5788 -5789 -5790 5793 0
-5784 -5785 5787 5791 -5793 0
5784 5785 5787 -5792 0
5784 -5785 -5786 -5791 -5793 0
5786 5788 5789 -5790 -5793 0
5784 -5786 -5790 5791 -5793 0
-5784 -5786 5788 -5789 5790 -5791 0
-5784 -5788 -5789 5791 -5793 0
-5787 5788 -5789 -5790 -5793 0
5785 -5786 5788 -5789 -5790 -5791 0
-5784 -5785 -5787 5788 5790 5791 0
5785 5787 -5788 5789 -5790 -5791 0
5784 -5785 -5786 -5787 5788 5789 0
-5784 5786 -5787 -5788 -5789 -5791 0
5784 -5785 -5787 -5788 5790 -5791 0
5787 5790 5791 -5793 0
-5787 -5788 5789 -5790 -5793 0
-5784 5785 5786 -5787 5788 5790 0
5784 5785 5786 5788 5789 5794 0
-5787 -5788 -5791 -5793 0
5784 5785 5788 5790 5791 5794 0
-5784 5785 -5787 5788 5789 5791 0
-5784 5785 -5786 5787 -5791 0
-5787 -5794 0
5787 -5788 -5789 5790 5793 0
5786 5788 -5789 5790 5792 0
-5784 5785 5786 5787 5791 0
5787 5788 5789 5790 5794 0
-5791 -5794 0
5784 5786 5787 -5792 0
-5786 -5794 0
-5785 -5794 0
-5792 -5793 0
5792 5793 5794 0
-5785 5786 -5789 -5790 -5791 0
5796 5799 5800 5802 -5804 0
-5796 5797 -5799 -5802 5804 0
5796 -5797 -5799 -5800 5801 -5804 0
5796 5797 5800 5801 5802 -5803 0
-5795 -5797 -5798 -5799 -5800 -5801 5802 0
5795 -5797 -5798 5800 5801 5802 0
5798 -5799 5800 -5801 5804 0
5796 5797 -5800 -5801 5802 5804 0
5796 -5797 -5798 -5800 5801 -5802 0
-5796 5797 -5799 5800 -5801 5804 0
5797 5798 -5799 -5800 -5801 -5804 0
-5795 -5796 -5799 -5800 -5801 -5802 0
-5796 -5797 5800 -5802 -5804 0
5795 5796 5797 -5802 -5804 0
-5796 -5797 -5798 5799 5802 5804 0
5796 -5797 -5799 5800 -5801 5804 0
5795 -5796 -5798 -5799 -5800 -5801 5802 0
5799 5800 5801 -5803 0
-5799 -5800 5801 -5802 5804 0
5795 5797 -5798 5799 5800 5802 0
5796 -5797 5801 5802 -5804 0
5797 -5799 5800 5801 -5802 -5804 0
-5795 -5796 -5798 5800 5801 5802 0
5796 5797 5798 -5801 5802 0
5795 -5798 -5799 5801 -5804 0
5796 -5797 -5798 5800 -5801 -5802 0
5795 5796 5797 -5799 5800 5801 0
-5795 -5796 5798 -5802 5804 0
5798 5799 -5800 -5801 5804 0
-5795 -5796 5798 5802 -5804 0
5795 5796 5798 -5803 0
5795 -5796 -5797 -5802 -5804 0
5797 5799 5800 -5801 -5804 0
5795 -5797 -5801 5802 -5804 0
-5795 -5797 5799 -5800 5801 -5802 0
-5795 -5799 -5800 5802 -5804 0
-5798 5799 -5800 -5801 -5804 0
5796 -5797 5799 -5800 -5801 -5802 0
-5795 -5796 -5798 5799 5801 5802 0
5796 5798 -5799 5800 -5801 -5802 0
5795 -5796 -5797 -5798 5799 5800 0
-5795 5797 -5798 -5799 -5800 -5802 0
5795 -5796 -5798 -5799 5801 -5802 0
5798 5801 5802 -5804 0
-5798 -5799 5800 -5801 -5804 0
-5795 5796 5797 -5798 5799 5801 0
5795 5796 5797 5799 5800 5805 0
-5798 -5799 -5802 -5804 0
5795 5796 5799 5801 5802 5805 0
-5795 5796 -5798 5799 5800 5802 0
-5795 5796 -5797 5798 -5802 0
-5798 -5805 0
5798 -5799 -5800 5801 5804 0
5797 5799 -5800 5801 5803 0
-5795 5796 5797 5798 5802 0
5798 5799 5800 5801 5805 0
-5802 -5805 0
5795 5797 5798 -5803 0
-5797 -5805 0
-5796 -5805 0
-5803 -5804 0
5803 5804 5805 0
-5796 5797 -5800 -5801 -5802 0
5807 5810 5811 5813 -5815 0
-5807 5808 -5810 -5813 5815 0
5807 -5808 -5810 -5811 5812 -5815 0
5807 5808 5811 5812 5813 -5814 0
-5806 -5808 -5809 -5810 -5811 -5812 5813 0
5806 -5808 -5809 5811 5812 5813 0
5809 -5810 5811 -5812 5815 0
5807 5808 -5811 -5812 5813 5815 0
5807 -5808 -5809 -5811 5812 -5813 0
-5807 5808 -5810 5811 -5812 5815 0
5808 5809 -5810 -5811 -5812 -5815 0
-5806 -5807 -5810 -5811 -5812 -5813 0
-5807 -5808 5811 -5813 -5815 0
5806 5807 5808 -5813 -5815 0
-5807 -5808 -5809 5810 5813 5815 0
5807 -5808 -5810 5811 -5812 5815 0
5806 -5807 -5809 -5810 -5811 -5812 5813 0
5810 5811 5812 -5814 0
-5810 -5811 5812 -5813 5815 0
5806 5808 -5809 5810 5811 5813 0
5807 -5808 5812 5813 -5815 0
5808 -5810 5811 5812 -5813 -5815 0
-5806 -5807 -5809 5811 5812 5813 0
5807 5808 5809 -5812 5813 0
5806 -5809 -5810 5812 -5815 0
5807 -5808 -5809 5811 -5812 -5813 0
5806 5807 5808 -5810 5811 5812 0
-5806 -5807 5809 -5813 5815 0
5809 5810 -5811 -5812 5815 0
-5806 -5807 5809 5813 -5815 0
5806 5807 5809 -5814 0
5806 -5807 -5808 -5813 -5815 0
5808 5810 5811 -5812 -5815 0
5806 -5808 -5812 5813 -5815 0
-5806 -5808 5810 -5811 5812 -5813 0
-5806 -5810 -5811 5813 -5815 0
-5809 5810 -5811 -5812 -5815 0
5807 -5808 5810 -5811 -5812 -5813 0
-5806 -5807 -5809 5810 5812 5813 0
5807 5809 -5810 5811 -5812 -5813 0
5806 -5807 -5808 -5809 5810 5811 0
-5806 5808 -5809 -5810 -5811 -5813 0
5806 -5807 -5809 -5810 5812 -5813 0
5809 5812 5813 -5815 0
-5809 -5810 5811 -5812 -5815 0
-5806 5807 5808 -5809 5810 5812 0
5806 5807 5808 5810 5811 5816 0
-5809 -5810 -5813 -5815 0
5806 5807 5810 5812 5813 5816 0
-5806 5807 -5809 5810 5811 5813 0
-5806 5807 -5808 5809 -5813 0
-5809 -5816 0
5809 -5810 -5811 5812 5815 0
5808 5810 -5811 5812 5814 0
-5806 5807 5808 5809 5813 0
5809 5810 5811 5812 5816 0
-5813 -5816 0
5806 5808 5809 -5814 0
-5808 -5816 0
-5807 -5816 0
-5814 -5815 0
5814 5815 5816 0
-5807 5808 -5811 -5812 -5813 0
5818 5821 5822 5824 -5826 0
-5818 5819 -5821 -5824 5826 0
5818 -5819 -5821 -5822 5823 -5826 0
5818 5819 5822 5823 5824 -5825 0
-5817 -5819 -5820 -5821 -5822 -5823 5824 0
5817 -5819 -5820 5822 5823 5824 0
5820 -5821 5822 -5823 5826 0
5818 5819 -5822 -5823 5824 5826 0
5818 -5819 -5820 -5822 5823 -5824 0
-5818 5819 -5821 5822 -5823 5826 0
5819 5820 -5821 -5822 -5823 -5826 0
-5817 -5818 -5821 -5822 -5823 -5824 0
-5818 -5819 5822 -5824 -5826 0
5817 5818 5819 -5824 -5826 0
-5818 -5819 -5820 5821 5824 5826 0
5818 -5819 -5821 5822 -5823 5826 0
5817 -5818 -5820 -5821 -5822 -5823 5824 0
5821 5822 5823 -5825 0
-5821 -5822 5823 -5824 5826 0
5817 5819 -5820 5821 5822 5824 0
5818 -5819 5823 5824 -5826 0
5819 -5821 5822 5823 -5824 -5826 0
-5817 -5818 -5820 5822 5823 5824 0
5818 5819 5820 -5823 5824 0
5817 -5820 -5821 5823 -5826 0
5818 -5819 -5820 5822 -5823 -5824 0
5817 5818 5819 -5821 5822 5823 0
-5817 -5818 5820 -5824 5826 0
5820 5821 -5822 -5823 5826 0
-5817 -5818 5820 5824 -5826 0
5817 5818 5820 -5825 0
5817 -5818 -5819 -5824 -5826 0
5819 5821 5822 -5823 -5826 0
5817 -5819 -5823 5824 -5826 0
-5817 -5819 5821 -5822 5823 -5824 0
-5817 -5821 -5822 5824 -5826 0
-5820 5821 -5822 -5823 -5826 0
5818 -5819 5821 -5822 -5823 -5824 0
-5817 -5818 -5820 5821 5823 5824 0
5818 5820 -5821 5822 -5823 -5824 0
5817 -5818 -5819 -5820 5821 5822 0
-5817 5819 -5820 -5821 -5822 -5824 0
5817 -5818 -5820 -5821 5823 -5824 0
5820 5823 5824 -5826 0
-5820 -5821 5822 -5823 -5826 0
-5817 5818 5819 -5820 5821 5823 0
5817 5818 5819 5821 5822 5827 0
-5820 -5821 -5824 -5826 0
5817 5818 5821 5823 5824 5827 0
-5817 5818 -5820 5821 5822 5824 0
-5817 5818 -5819 5820 -5824 0
-5820 -5827 0
5820 -5821 -5822 5823 5826 0
5819 5821 -5822 5823 5825 0
-5817 5818 5819 5820 5824 0
5820 5821 5822 5823 5827 0
-5824 -5827 0
5817 5819 5820 -5825 0
-5819 -5827 0
-5818 -5827 0
-5825 -5826 0
5825 5826 5827 0
-5818 5819 -5822 -5823 -5824 0
5829 5832 5833 5835 -5837 0
-5829 5830 -5832 -5835 5837 0
5829 -5830 -5832 -5833 5834 -5837 0
5829 5830 5833 5834 5835 -5836 0
-5828 -5830 -5831 -5832 -5833 -5834 5835 0
5828 -5830 -5831 5833 5834 5835 0
5831 -5832 5833 -5834 5837 0
5829 5830 -5833 -5834 5835 5837 0
5829 -5830 -5831 -5833 5834 -5835 0
-5829 5830 -5832 5833 -5834 5837 0
5830 5831 -5832 -5833 -5834 -5837 0
-5828 -5829 -5832 -5833 -5834 -5835 0
-5829 -5830 5833 -5835 -5837 0
5828 5829 5830 -5835 -5837 0
-5829 -5830 -5831 5832 5835 5837 0
5829 -5830 -5832 5833 -5834 5837 0
5828 -5829 -5831 -5832 -5833 -5834 5835 0
5832 5833 5834 -5836 0
-5832 -5833 5834 -5835 5837 0
5828 5830 -5831 5832 5833 5835 0
5829 -5830 5834 5835 -5837 0
5830 -5832 5833 5834 -5835 -5837 0
-5828 -5829 -5831 5833 5834 5835 0
5829 5830 5831 -5834 5835 0
5828 -5831 -5832 5834 -5837 0
5829 -5830 -5831 5833 -5834 -5835 0
5828 5829 5830 -5832 5833 5834 0
-5828 -5829 5831 -5835 5837 0
5831 5832 -5833 -5834 5837 0
-5828 -5829 5831 5835 -5837 0
5828 5829 5831 -5836 0
5828 -5829 -5830 -5835 -5837 0
5830 5832 5833 -5834 -5837 0
5828 -5830 -5834 5835 -5837 0
-5828 -5830 5832 -5833 5834 -5835 0
-5828 -5832 -5833 5835 -5837 0
-5831 5832 -5833 -5834 -5837 0
5829 -5830 5832 -5833 -5834 -5835 0
-5828 -5829 -5831 5832 5834 5835 0
5829 5831 -5832 5833 -5834 -5835 0
5828 -5829 -5830 -5831 5832 5833 0
-5828 5830 -5831 -5832 -5833 -5835 0
5828 -5829 -5831 -5832 5834 -5835 0
5831 5834 5835 -5837 0
-5831 -5832 5833 -5834 -5837 0
-5828 5829 5830 -5831 5832 5834 0
5828 5829 5830 5832 5833 5838 0
-5831 -5832 -5835 -5837 0
5828 5829 5832 5834 5835 5838 0
-5828 5829 -5831 5832 5833 5835 0
-5828 5829 -5830 5831 -5835 0
-5831 -5838 0
5831 -5832 -5833 5834 5837 0
5830 5832 -5833 5834 5836 0
-5828 5829 5830 5831 5835 0
5831 5832 5833 5834 5838 0
-5835 -5838 0
5828 5830 5831 -5836 0
-5830 -5838 0
-5829 -5838 0
-5836 -5837 0
5836 5837 5838 0
-5829 5830 -5833 -5834 -5835 0
5840 5843 5844 5846 -5848 0
-5840 5841 -5843 -5846 5848 0
5840 -5841 -5843 -5844 5845 -5848 0
5840 5841 5844 5845 5846 -5847 0
-5839 -5841 -5842 -5843 -5844 -5845 5846 0
5839 -5841 -5842 5844 5845 5846 0
5842 -5843 5844 -5845 5848 0
5840 5841 -5844 -5845 5846 5848 0
5840 -5841 -5842 -5844 5845 -5846 0
-5840 5841 -5843 5844 -5845 5848 0
5841 5842 -5843 -5844 -5845 -5848 0
-5839 -5840 -5843 -5844 -5845 -5846 0
-5840 -5841 5844 -5846 -5848 0
5839 5840 5841 -5846 -5848 0
-5840 -5841 -5842 5843 5846 5848 0
5840 -5841 -5843 5844 -5845 5848 0
5839 -5840 -5842 -5843 -5844 -5845 5846 0
5843 5844 5845 -5847 0
-5843 -5844 5845 -5846 5848 0
5839 5841 -5842 5843 5844 5846 0
5840 -5841 5845 5846 -5848 0
5841 -5843 5844 5845 -5846 -5848 0
-5839 -5840 -5842 5844 5845 5846 0
5840 5841 5842 -5845 5846 0
5839 -5842 -5843 5845 -5848 0
5840 -5841 -5842 5844 -5845 -5846 0
5839 5840 5841 -5843 5844 5845 0
-5839 -5840 5842 -5846 5848 0
5842 5843 -5844 -5845 5848 0
-5839 -5840 5842 5846 -5848 0
5839 5840 5842 -5847 0
5839 -5840 -5841 -5846 -5848 0
5841 5843 5844 -5845 -5848 0
5839 -5841 -5845 5846 -5848 0
-5839 -5841 5843 -5844 5845 -5846 0
-5839 -5843 -5844 5846 -5848 0
-5842 5843 -5844 -5845 -5848 0
5840 -5841 5843 -5844 -5845 -5846 0
-5839 -5840 -5842 5843 5845 5846 0
5840 5842 -5843 5844 -5845 -5846 0
5839 -5840 -5841 -5842 5843 5844 0
-5839 5841 -5842 -5843 -5844 -5846 0
5839 -5840 -5842 -5843 5845 -5846 0
5842 5845 5846 -5848 0
-5842 -5843 5844 -5845 -5848 0
-5839 5840 5841 -5842 5843 5845 0
5839 5840 5841 5843 5844 5849 0
-5842 -5843 -5846 -5848 0
5839 5840 5843 5845 5846 5849 0
-5839 5840 -5842 5843 5844 5846 0
-5839 5840 -5841 5842 -5846 0
-5842 -5849 0
5842 -5843 -5844 5845 5848 0
5841 5843 -5844 5845 5847 0
-5839 5840 5841 5842 5846 0
5842 5843 5844 5845 5849 0
-5846 -5849 0
5839 5841 5842 -5847 0
-5841 -5849 0
-5840 -5849 0
-5847 -5848 0
5847 5848 5849 0
-5840 5841 -5844 -5845 -5846 0
5851 5854 5855 5857 -5859 0
-5851 5852 -5854 -5857 5859 0
5851 -5852 -5854 -5855 5856 -5859 0
5851 5852 5855 5856 5857 -5858 0
-5850 -5852 -5853 -5854 -5855 -5856 5857 0
5850 -5852 -5853 5855 5856 5857 0
5853 -5854 5855 -5856 5859 0
5851 5852 -5855 -5856 5857 5859 0
5851 -5852 -5853 -5855 5856 -5857 0
-5851 5852 -5854 5855 -5856 5859 0
5852 5853 -5854 -5855 -5856 -5859 0
-5850 -5851 -5854 -5855 -5856 -5857 0
-5851 -5852 5855 -5857 -5859 0
5850 5851 5852 -5857 -5859 0
-5851 -5852 -5853 5854 5857 5859 0
5851 -5852 -5854 5855 -5856 5859 0
5850 -5851 -5853 -5854 -5855 -5856 5857 0
5854 5855 5856 -5858 0
-5854 -5855 5856 -5857 5859 0
5850 5852 -5853 5854 5855 5857 0
5851 -5852 5856 5857 -5859 0
5852 -5854 5855 5856 -5857 -5859 0
-5850 -5851 -5853 5855 5856 5857 0
5851 5852 5853 -5856 5857 0
5850 -5853 -5854 5856 -5859 0
5851 -5852 -5853 5855 -5856 -5857 0
5850 5851 5852 -5854 5855 5856 0
-5850 -5851 5853 -5857 5859 0
5853 5854 -5855 -5856 5859 0
-5850 -5851 5853 5857 -5859 0
5850 5851 5853 -5858 0
5850 -5851 -5852 -5857 -5859 0
5852 5854 5855 -5856 -5859 0
5850 -5852 -5856 5857 -5859 0
-5850 -5852 5854 -5855 5856 -5857 0
-5850 -5854 -5855 5857 -5859 0
-5853 5854 -5855 -5856 -5859 0
5851 -5852 5854 -5855 -5856 -5857 0
-5850 -5851 -5853 5854 5856 5857 0
5851 5853 -5854 5855 -5856 -5857 0
5850 -5851 -5852 -5853 5854 5855 0
-5850 5852 -5853 -5854 -5855 -5857 0
5850 -5851 -5853 -5854 5856 -5857 0
5853 5856 5857 -5859 0
-5853 -5854 5855 -5856 -5859 0
-5850 5851 5852 -5853 5854 5856 0
5850 5851 5852 5854 5855 5860 0
-5853 -5854 -5857 -5859 0
5850 5851 5854 5856 5857 5860 0
-5850 5851 -5853 5854 5855 5857 0
-5850 5851 -5852 5853 -5857 0
-5853 -5860 0
5853 -5854 -5855 5856 5859 0
5852 5854 -5855 5856 5858 0
-5850 5851 5852 5853 5857 0
5853 5854 5855 5856 5860 0
-5857 -5860 0
5850 5852 5853 -5858 0
-5852 -5860 0
-5851 -5860 0
-5858 -5859 0
5858 5859 5860 0
-5851 5852 -5855 -5856 -5857 0
-5989 5861 0
5989 -5861 0
-5990 5862 0
5990 -5862 0
-5991 5863 0
5991 -5863 0
-5992 5864 0
5992 -5864 0
-5993 5865 0
5993 -5865 0
-5994 5866 0
5994 -5866 0
-5995 5867 0
5995 -5867 0
-5996 5868 0
5996 -5868 0
-5997 5869 0
5997 -5869 0
-5998 5870 0
5998 -5870 0
-5999 5871 0
5999 -5871 0
-6000 5872 0
6000 -5872 0
-6001 5873 0
6001 -5873 0
-6002 5874 0
6002 -5874 0
-6003 5875 0
6003 -5875 0
-6004 5876 0
6004 -5876 0
-6005 5877 0
6005 -5877 0
-6006 5878 0
6006 -5878 0
-6007 5879 0
6007 -5879 0
-6008 5880 0
6008 -5880 0
-6009 5881 0
6009 -5881 0
-6010 5882 0
6010 -5882 0
-6011 5883 0
6011 -5883 0
-6012 5884 0
6012 -5884 0
-6013 5885 0
6013 -5885 0
-6014 5886 0
6014 -5886 0
-6015 5887 0
6015 -5887 0
-6016 5888 0
6016 -5888 0
-6017 5889 0
6017 -5889 0
-6018 5890 0
6018 -5890 0
-6019 5891 0
6019 -5891 0
-6020 5892 0
6020 -5892 0
-6021 5893 0
6021 -5893 0
-6022 5894 0
6022 -5894 0
-6023 5895 0
6023 -5895 0
-6024 5896 0
6024 -5896 0
-6025 5897 0
6025 -5897 0
-6026 5898 0
6026 -5898 0
-6027 5899 0
6027 -5899 0
-6028 5900 0
6028 -5900 0
-6029 5901 0
6029 -5901 0
-6030 5902 0
6030 -5902 0
-6031 5903 0
6031 -5903 0
-6032 5904 0
6032 -5904 0
-6033 5905 0
6033 -5905 0
-6034 5906 0
6034 -5906 0
-6035 5907 0
6035 -5907 0
-6036 5908 0
6036 -5908 0
-6037 5909 0
6037 -5909 0
-6038 5910 0
6038 -5910 0
-6039 5911 0
6039 -5911 0
-6040 5912 0
6040 -5912 0
-6041 5913 0
6041 -5913 0
-6042 5914 0
6042 -5914 0
-6043 5915 0
6043 -5915 0
-6044 5916 0
6044 -5916 0
-6045 5917 0
6045 -5917 0
-6046 5918 0
6046 -5918 0
-6047 5919 0
6047 -5919 0
-6048 5920 0
6048 -5920 0
-6049 5921 0
6049 -5921 0
-6050 5922 0
6050 -5922 0
-6051 5923 0
6051 -5923 0
-6052 5924 0
6052 -5924 0
-6053 5925 0
6053 -5925 0
-6054 5926 0
6054 -5926 0
-6055 5927 0
6055 -5927 0
-6056 5928 0
6056 -5928 0
-6057 5929 0
6057 -5929 0
-6058 5930 0
6058 -5930 0
-6059 5931 0
6059 -5931 0
-6060 5932 0
6060 -5932 0
-6061 5933 0
6061 -5933 0
-6062 5934 0
6062 -5934 0
-6063 5935 0
6063 -5935 0
-6064 5936 0
6064 -5936 0
-6065 5937 0
6065 -5937 0
-6066 5938 0
6066 -5938 0
-6067 5939 0
6067 -5939 0
-6068 5940 0
6068 -5940 0
-6069 5941 0
6069 -5941 0
-6070 5942 0
6070 -5942 0
-6071 5943 0
6071 -5943 0
-6072 5944 0
6072 -5944 0
-6073 5945 0
6073 -5945 0
-6074 5946 0
6074 -5946 0
-6075 5947 0
6075 -5947 0
-6076 5948 0
6076 -5948 0
-6077 5949 0
6077 -5949 0
-6078 5950 0
6078 -5950 0
-6079 5951 0
6079 -5951 0
-6080 5952 0
6080 -5952 0
-6081 5953 0
6081 -5953 0
-6082 5954 0
6082 -5954 0
-6083 5955 0
6083 -5955 0
-6084 5956 0
6084 -5956 0
-6085 5957 0
6085 -5957 0
-6086 5958 0
6086 -5958 0
-6087 5959 0
6087 -5959 0
-6088 5960 0
6088 -5960 0
-6089 5961 0
6089 -5961 0
-6090 5962 0
6090 -5962 0
-6091 5963 0
6091 -5963 0
-6092 5964 0
6092 -5964 0
-6093 5965 0
6093 -5965 0
-6094 5966 0
6094 -5966 0
-6095 5967 0
6095 -5967 0
-6096 5968 0
6096 -5968 0
-6097 5969 0
6097 -5969 0
-6098 5970 0
6098 -5970 0
-6099 5971 0
6099 -5971 0
-6100 5972 0
6100 -5972 0
-6101 5973 0
6101 -5973 0
-6102 5974 0
6102 -5974 0
-6103 5975 0
6103 -5975 0
-6104 5976 0
6104 -5976 0
-6105 5977 0
6105 -5977 0
-6106 5978 0
6106 -5978 0
-6107 5979 0
6107 -5979 0
-6108 5980 0
6108 -5980 0
-6109 5981 0
6109 -5981 0
-6110 5982 0
6110 -5982 0
-6111 5983 0
6111 -5983 0
-6112 5984 0
6112 -5984 0
-6113 5985 0
6113 -5985 0
-6114 5986 0
6114 -5986 0
-6115 5987 0
6115 -5987 0
-6116 5988 0
6116 -5988 0
4997 -5253 0
-4997 5253 0
4998 -5254 0
-4998 5254 0
4999 -5255 0
-4999 5255 0
5000 -5256 0
-5000 5256 0
5001 -5257 0
-5001 5257 0
5002 -5258 0
-5002 5258 0
5003 -5259 0
-5003 5259 0
5004 -5260 0
-5004 5260 0
5005 -5261 0
-5005 5261 0
5006 -5262 0
-5006 5262 0
5007 -5263 0
-5007 5263 0
5008 -5264 0
-5008 5264 0
5009 -5265 0
-5009 5265 0
5010 -5266 0
-5010 5266 0
5011 -5267 0
-5011 5267 0
5012 -5268 0
-5012 5268 0
5013 -5269 0
-5013 5269 0
5014 -5270 0
-5014 5270 0
5015 -5271 0
-5015 5271 0
5016 -5272 0
-5016 5272 0
5017 -5273 0
-5017 5273 0
5018 -5274 0
-5018 5274 0
5019 -5275 0
-5019 5275 0
5020 -5276 0
-5020 5276 0
5021 -5277 0
-5021 5277 0
5022 -5278 0
-5022 5278 0
5023 -5279 0
-5023 5279 0
5024 -5280 0
-5024 5280 0
5025 -5281 0
-5025 5281 0
5026 -5282 0
-5026 5282 0
5027 -5283 0
-5027 5283 0
5028 -5284 0
-5028 5284 0
5029 -5285 0
-5029 5285 0
5030 -5286 0
-5030 5286 0
5031 -5287 0
-5031 5287 0
5032 -5288 0
-5032 5288 0
5033 -5289 0
-5033 5289 0
5034 -5290 0
-5034 5290 0
5035 -5291 0
-5035 5291 0
5036 -5292 0
-5036 5292 0
5037 -5293 0
-5037 5293 0
5038 -5294 0
-5038 5294 0
5039 -5295 0
-5039 5295 0
5040 -5296 0
-5040 5296 0
5041 -5297 0
-5041 5297 0
5042 -5298 0
-5042 5298 0
5043 -5299 0
-5043 5299 0
5044 -5300 0
-5044 5300 0
5045 -5301 0
-5045 5301 0
5046 -5302 0
-5046 5302 0
5047 -5303 0
-5047 5303 0
5048 -5304 0
-5048 5304 0
5049 -5305 0
-5049 5305 0
5050 -5306 0
-5050 5306 0
5051 -5307 0
-5051 5307 0
5052 -5308 0
-5052 5308 0
5053 -5309 0
-5053 5309 0
5054 -5310 0
-5054 5310 0
5055 -5311 0
-5055 5311 0
5056 -5312 0
-5056 5312 0
5057 -5313 0
-5057 5313 0
5058 -5314 0
-5058 5314 0
5059 -5315 0
-5059 5315 0
5060 -5316 0
-5060 5316 0
5061 -5317 0
-5061 5317 0
5062 -5318 0
-5062 5318 0
5063 -5319 0
-5063 5319 0
5064 -5320 0
-5064 5320 0
5065 -5321 0
-5065 5321 0
5066 -5322 0
-5066 5322 0
5067 -5323 0
-5067 5323 0
5068 -5324 0
-5068 5324 0
5069 -5325 0
-5069 5325 0
5070 -5326 0
-5070 5326 0
5071 -5327 0
-5071 5327 0
5072 -5328 0
-5072 5328 0
5073 -5329 0
-5073 5329 0
5074 -5330 0
-5074 5330 0
5075 -5331 0
-5075 5331 0
5076 -5332 0
-5076 5332 0
5077 -5333 0
-5077 5333 0
5078 -5334 0
-5078 5334 0
5079 -5335 0
-5079 5335 0
5080 -5336 0
-5080 5336 0
5081 -5337 0
-5081 5337 0
5082 -5338 0
-5082 5338 0
5083 -5339 0
-5083 5339 0
5084 -5340 0
-5084 5340 0
5085 -5341 0
-5085 5341 0
5086 -5342 0
-5086 5342 0
5087 -5343 0
-5087 5343 0
5088 -5344 0
-5088 5344 0
5089 -5345 0
-5089 5345 0
5090 -5346 0
-5090 5346 0
5091 -5347 0
-5091 5347 0
5092 -5348 0
-5092 5348 0
5093 -5349 0
-5093 5349 0
5094 -5350 0
-5094 5350 0
5095 -5351 0
-5095 5351 0
5096 -5352 0
-5096 5352 0
5097 -5353 0
-5097 5353 0
5098 -5354 0
-5098 5354 0
5099 -5355 0
-5099 5355 0
5100 -5356 0
-5100 5356 0
5101 -5357 0
-5101 5357 0
5102 -5358 0
-5102 5358 0
5103 -5359 0
-5103 5359 0
5104 -5360 0
-5104 5360 0
5105 -5361 0
-5105 5361 0
5106 -5362 0
-5106 5362 0
5107 -5363 0
-5107 5363 0
5108 -5364 0
-5108 5364 0
5109 -5365 0
-5109 5365 0
5110 -5366 0
-5110 5366 0
5111 -5367 0
-5111 5367 0
5112 -5368 0
-5112 5368 0
5113 -5369 0
-5113 5369 0
5114 -5370 0
-5114 5370 0
5115 -5371 0
-5115 5371 0
5116 -5372 0
-5116 5372 0
5117 -5373 0
-5117 5373 0
5118 -5374 0
-5118 5374 0
5119 -5375 0
-5119 5375 0
5120 -5376 0
-5120 5376 0
5121 -5377 0
-5121 5377 0
5122 -5378 0
-5122 5378 0
5123 -5379 0
-5123 5379 0
5124 -5380 0
-5124 5380 0
5989 -5125 0
-5989 5125 0
5990 -5126 0
-5990 5126 0
5991 -5127 0
-5991 5127 0
5992 -5128 0
-5992 5128 0
5993 -5129 0
-5993 5129 0
5994 -5130 0
-5994 5130 0
5995 -5131 0
-5995 5131 0
5996 -5132 0
-5996 5132 0
5997 -5133 0
-5997 5133 0
5998 -5134 0
-5998 5134 0
5999 -5135 0
-5999 5135 0
6000 -5136 0
-6000 5136 0
6001 -5137 0
-6001 5137 0
6002 -5138 0
-6002 5138 0
6003 -5139 0
-6003 5139 0
6004 -5140 0
-6004 5140 0
6005 -5141 0
-6005 5141 0
6006 -5142 0
-6006 5142 0
6007 -5143 0
-6007 5143 0
6008 -5144 0
-6008 5144 0
6009 -5145 0
-6009 5145 0
6010 -5146 0
-6010 5146 0
6011 -5147 0
-6011 5147 0
6012 -5148 0
-6012 5148 0
6013 -5149 0
-6013 5149 0
6014 -5150 0
-6014 5150 0
6015 -5151 0
-6015 5151 0
6016 -5152 0
-6016 5152 0
6017 -5153 0
-6017 5153 0
6018 -5154 0
-6018 5154 0
6019 -5155 0
-6019 5155 0
6020 -5156 0
-6020 5156 0
6021 -5157 0
-6021 5157 0
6022 -5158 0
-6022 5158 0
6023 -5159 0
-6023 5159 0
6024 -5160 0
-6024 5160 0
6025 -5161 0
-6025 5161 0
6026 -5162 0
-6026 5162 0
6027 -5163 0
-6027 5163 0
6028 -5164 0
-6028 5164 0
6029 -5165 0
-6029 5165 0
6030 -5166 0
-6030 5166 0
6031 -5167 0
-6031 5167 0
6032 -5168 0
-6032 5168 0
6033 -5169 0
-6033 5169 0
6034 -5170 0
-6034 5170 0
6035 -5171 0
-6035 5171 0
6036 -5172 0
-6036 5172 0
6037 -5173 0
-6037 5173 0
6038 -5174 0
-6038 5174 0
6039 -5175 0
-6039 5175 0
6040 -5176 0
-6040 5176 0
6041 -5177 0
-6041 5177 0
6042 -5178 0
-6042 5178 0
6043 -5179 0
-6043 5179 0
6044 -5180 0
-6044 5180 0
6045 -5181 0
-6045 5181 0
6046 -5182 0
-6046 5182 0
6047 -5183 0
-6047 5183 0
6048 -5184 0
-6048 5184 0
6049 -5185 0
-6049 5185 0
6050 -5186 0
-6050 5186 0
6051 -5187 0
-6051 5187 0
6052 -5188 0
-6052 5188 0
6053 -5189 0
-6053 5189 0
6054 -5190 0
-6054 5190 0
6055 -5191 0
-6055 5191 0
6056 -5192 0
-6056 5192 0
6057 -5193 0
-6057 5193 0
6058 -5194 0
-6058 5194 0
6059 -5195 0
-6059 5195 0
6060 -5196 0
-6060 5196 0
6061 -5197 0
-6061 5197 0
6062 -5198 0
-6062 5198 0
6063 -5199 0
-6063 5199 0
6064 -5200 0
-6064 5200 0
6065 -5201 0
-6065 5201 0
6066 -5202 0
-6066 5202 0
6067 -5203 0
-6067 5203 0
6068 -5204 0
-6068 5204 0
6069 -5205 0
-6069 5205 0
6070 -5206 0
-6070 5206 0
6071 -5207 0
-6071 5207 0
6072 -5208 0
-6072 5208 0
6073 -5209 0
-6073 5209 0
6074 -5210 0
-6074 5210 0
6075 -5211 0
-6075 5211 0
6076 -5212 0
-6076 5212 0
6077 -5213 0
-6077 5213 0
6078 -5214 0
-6078 5214 0
6079 -5215 0
-6079 5215 0
6080 -5216 0
-6080 5216 0
6081 -5217 0
-6081 5217 0
6082 -5218 0
-6082 5218 0
6083 -5219 0
-6083 5219 0
6084 -5220 0
-6084 5220 0
6085 -5221 0
-6085 5221 0
6086 -5222 0
-6086 5222 0
6087 -5223 0
-6087 5223 0
6088 -5224 0
-6088 5224 0
6089 -5225 0
-6089 5225 0
6090 -5226 0
-6090 5226 0
6091 -5227 0
-6091 5227 0
6092 -5228 0
-6092 5228 0
6093 -5229 0
-6093 5229 0
6094 -5230 0
-6094 5230 0
6095 -5231 0
-6095 5231 0
6096 -5232 0
-6096 5232 0
6097 -5233 0
-6097 5233 0
6098 -5234 0
-6098 5234 0
6099 -5235 0
-6099 5235 0
6100 -5236 0
-6100 5236 0
6101 -5237 0
-6101 5237 0
6102 -5238 0
-6102 5238 0
6103 -5239 0
-6103 5239 0
6104 -5240 0
-6104 5240 0
6105 -5241 0
-6105 5241 0
6106 -5242 0
-6106 5242 0
6107 -5243 0
-6107 5243 0
6108 -5244 0
-6108 5244 0
6109 -5245 0
-6109 5245 0
6110 -5246 0
-6110 5246 0
6111 -5247 0
-6111 5247 0
6112 -5248 0
-6112 5248 0
6113 -5249 0
-6113 5249 0
6114 -5250 0
-6114 5250 0
6115 -5251 0
-6115 5251 0
6116 -5252 0
-6116 5252 0
-5505 5509 0
5505 -5509 0
-5506 5510 0
5506 -5510 0
-5507 5511 0
5507 -5511 0
-5508 5512 0
5508 -5512 0
-5501 5520 0
5501 -5520 0
-5502 5521 0
5502 -5521 0
-5503 5522 0
5503 -5522 0
-5504 5523 0
5504 -5523 0
-5497 5531 0
5497 -5531 0
-5498 5532 0
5498 -5532 0
-5499 5533 0
5499 -5533 0
-5500 5534 0
5500 -5534 0
-5493 5542 0
5493 -5542 0
-5494 5543 0
5494 -5543 0
-5495 5544 0
5495 -5544 0
-5496 5545 0
5496 -5545 0
-5489 5553 0
5489 -5553 0
-5490 5554 0
5490 -5554 0
-5491 5555 0
5491 -5555 0
-5492 5556 0
5492 -5556 0
-5485 5564 0
5485 -5564 0
-5486 5565 0
5486 -5565 0
-5487 5566 0
5487 -5566 0
-5488 5567 0
5488 -5567 0
-5481 5575 0
5481 -5575 0
-5482 5576 0
5482 -5576 0
-5483 5577 0
5483 -5577 0
-5484 5578 0
5484 -5578 0
-5477 5586 0
5477 -5586 0
-5478 5587 0
5478 -5587 0
-5479 5588 0
5479 -5588 0
-5480 5589 0
5480 -5589 0
-5473 5597 0
5473 -5597 0
-5474 5598 0
5474 -5598 0
-5475 5599 0
5475 -5599 0
-5476 5600 0
5476 -5600 0
-5469 5608 0
5469 -5608 0
-5470 5609 0
5470 -5609 0
-5471 5610 0
5471 -5610 0
-5472 5611 0
5472 -5611 0
-5465 5619 0
5465 -5619 0
-5466 5620 0
5466 -5620 0
-5467 5621 0
5467 -5621 0
-5468 5622 0
5468 -5622 0
-5461 5630 0
5461 -5630 0
-5462 5631 0
5462 -5631 0
-5463 5632 0
5463 -5632 0
-5464 5633 0
5464 -5633 0
-5457 5641 0
5457 -5641 0
-5458 5642 0
5458 -5642 0
-5459 5643 0
5459 -5643 0
-5460 5644 0
5460 -5644 0
-5453 5652 0
5453 -5652 0
-5454 5653 0
5454 -5653 0
-5455 5654 0
5455 -5654 0
-5456 5655 0
5456 -5655 0
-5449 5663 0
5449 -5663 0
-5450 5664 0
5450 -5664 0
-5451 5665 0
5451 -5665 0
-5452 5666 0
5452 -5666 0
-5445 5674 0
5445 -5674 0
-5446 5675 0
5446 -5675 0
-5447 5676 0
5447 -5676 0
-5448 5677 0
5448 -5677 0
-5441 5685 0
5441 -5685 0
-5442 5686 0
5442 -5686 0
-5443 5687 0
5443 -5687 0
-5444 5688 0
5444 -5688 0
-5437 5696 0
5437 -5696 0
-5438 5697 0
5438 -5697 0
-5439 5698 0
5439 -5698 0
-5440 5699 0
5440 -5699 0
-5433 5707 0
5433 -5707 0
-5434 5708 0
5434 -5708 0
-5435 5709 0
5435 -5709 0
-5436 5710 0
5436 -5710 0
-5429 5718 0
5429 -5718 0
-5430 5719 0
5430 -5719 0
-5431 5720 0
5431 -5720 0
-5432 5721 0
5432 -5721 0
-5425 5729 0
5425 -5729 0
-5426 5730 0
5426 -5730 0
-5427 5731 0
5427 -5731 0
-5428 5732 0
5428 -5732 0
-5421 5740 0
5421 -5740 0
-5422 5741 0
5422 -5741 0
-5423 5742 0
5423 -5742 0
-5424 5743 0
5424 -5743 0
-5417 5751 0
5417 -5751 0
-5418 5752 0
5418 -5752 0
-5419 5753 0
5419 -5753 0
-5420 5754 0
5420 -5754 0
-5413 5762 0
5413 -5762 0
-5414 5763 0
5414 -5763 0
-5415 5764 0
5415 -5764 0
-5416 5765 0
5416 -5765 0
-5409 5773 0
5409 -5773 0
-5410 5774 0
5410 -5774 0
-5411 5775 0
5411 -5775 0
-5412 5776 0
5412 -5776 0
-5405 5784 0
5405 -5784 0
-5406 5785 0
5406 -5785 0
-5407 5786 0
5407 -5786 0
-5408 5787 0
5408 -5787 0
-5401 5795 0
5401 -5795 0
-5402 5796 0
5402 -5796 0
-5403 5797 0
5403 -5797 0
-5404 5798 0
5404 -5798 0
-5397 5806 0
5397 -5806 0
-5398 5807 0
5398 -5807 0
-5399 5808 0
5399 -5808 0
-5400 5809 0
5400 -5809 0
-5393 5817 0
5393 -5817 0
-5394 5818 0
5394 -5818 0
-5395 5819 0
5395 -5819 0
-5396 5820 0
5396 -5820 0
-5389 5828 0
5389 -5828 0
-5390 5829 0
5390 -5829 0
-5391 5830 0
5391 -5830 0
-5392 5831 0
5392 -5831 0
-5385 5839 0
5385 -5839 0
-5386 5840 0
5386 -5840 0
-5387 5841 0
5387 -5841 0
-5388 5842 0
5388 -5842 0
-5381 5850 0
5381 -5850 0
-5382 5851 0
5382 -5851 0
-5383 5852 0
5383 -5852 0
-5384 5853 0
5384 -5853 0
-5854 5861 0
5854 -5861 0
-5855 5862 0
5855 -5862 0
-5856 5863 0
5856 -5863 0
-5857 5864 0
5857 -5864 0
-5843 5865 0
5843 -5865 0
-5844 5866 0
5844 -5866 0
-5845 5867 0
5845 -5867 0
-5846 5868 0
5846 -5868 0
-5832 5869 0
5832 -5869 0
-5833 5870 0
5833 -5870 0
-5834 5871 0
5834 -5871 0
-5835 5872 0
5835 -5872 0
-5821 5873 0
5821 -5873 0
-5822 5874 0
5822 -5874 0
-5823 5875 0
5823 -5875 0
-5824 5876 0
5824 -5876 0
-5810 5877 0
5810 -5877 0
-5811 5878 0
5811 -5878 0
-5812 5879 0
5812 -5879 0
-5813 5880 0
5813 -5880 0
-5799 5881 0
5799 -5881 0
-5800 5882 0
5800 -5882 0
-5801 5883 0
5801 -5883 0
-5802 5884 0
5802 -5884 0
-5788 5885 0
5788 -5885 0
-5789 5886 0
5789 -5886 0
-5790 5887 0
5790 -5887 0
-5791 5888 0
5791 -5888 0
-5777 5889 0
5777 -5889 0
-5778 5890 0
5778 -5890 0
-5779 5891 0
5779 -5891 0
-5780 5892 0
5780 -5892 0
-5766 5893 0
5766 -5893 0
-5767 5894 0
5767 -5894 0
-5768 5895 0
5768 -5895 0
-5769 5896 0
5769 -5896 0
-5755 5897 0
5755 -5897 0
-5756 5898 0
5756 -5898 0
-5757 5899 0
5757 -5899 0
-5758 5900 0
5758 -5900 0
-5744 5901 0
5744 -5901 0
-5745 5902 0
5745 -5902 0
-5746 5903 0
5746 -5903 0
-5747 5904 0
5747 -5904 0
-5733 5905 0
5733 -5905 0
-5734 5906 0
5734 -5906 0
-5735 5907 0
5735 -5907 0
-5736 5908 0
5736 -5908 0
-5722 5909 0
5722 -5909 0
-5723 5910 0
5723 -5910 0
-5724 5911 0
5724 -5911 0
-5725 5912 0
5725 -5912 0
-5711 5913 0
5711 -5913 0
-5712 5914 0
5712 -5914 0
-5713 5915 0
5713 -5915 0
-5714 5916 0
5714 -5916 0
-5700 5917 0
5700 -5917 0
-5701 5918 0
5701 -5918 0
-5702 5919 0
5702 -5919 0
-5703 5920 0
5703 -5920 0
-5689 5921 0
5689 -5921 0
-5690 5922 0
5690 -5922 0
-5691 5923 0
5691 -5923 0
-5692 5924 0
5692 -5924 0
-5678 5925 0
5678 -5925 0
-5679 5926 0
5679 -5926 0
-5680 5927 0
5680 -5927 0
-5681 5928 0
5681 -5928 0
-5667 5929 0
5667 -5929 0
-5668 5930 0
5668 -5930 0
-5669 5931 0
5669 -5931 0
-5670 5932 0
5670 -5932 0
-5656 5933 0
5656 -5933 0
-5657 5934 0
5657 -5934 0
-5658 5935 0
5658 -5935 0
-5659 5936 0
5659 -5936 0
-5645 5937 0
5645 -5937 0
-5646 5938 0
5646 -5938 0
-5647 5939 0
5647 -5939 0
-5648 5940 0
5648 -5940 0
-5634 5941 0
5634 -5941 0
-5635 5942 0
5635 -5942 0
-5636 5943 0
5636 -5943 0
-5637 5944 0
5637 -5944 0
-5623 5945 0
5623 -5945 0
-5624 5946 0
5624 -5946 0
-5625 5947 0
5625 -5947 0
-5626 5948 0
5626 -5948 0
-5612 5949 0
5612 -5949 0
-5613 5950 0
5613 -5950 0
-5614 5951 0
5614 -5951 0
-5615 5952 0
5615 -5952 0
-5601 5953 0
5601 -5953 0
-5602 5954 0
5602 -5954 0
-5603 5955 0
5603 -5955 0
-5604 5956 0
5604 -5956 0
-5590 5957 0
5590 -5957 0
-5591 5958 0
5591 -5958 0
-5592 5959 0
5592 -5959 0
-5593 5960 0
5593 -5960 0
-5579 5961 0
5579 -5961 0
-5580 5962 0
5580 -5962 0
-5581 5963 0
5581 -5963 0
-5582 5964 0
5582 -5964 0
-5568 5965 0
5568 -5965 0
-5569 5966 0
5569 -5966 0
-5570 5967 0
5570 -5967 0
-5571 5968 0
5571 -5968 0
-5557 5969 0
5557 -5969 0
-5558 5970 0
5558 -5970 0
-5559 5971 0
5559 -5971 0
-5560 5972 0
5560 -5972 0
-5546 5973 0
5546 -5973 0
-5547 5974 0
5547 -5974 0
-5548 5975 0
5548 -5975 0
-5549 5976 0
5549 -5976 0
-5535 5977 0
5535 -5977 0
-5536 5978 0
5536 -5978 0
-5537 5979 0
5537 -5979 0
-5538 5980 0
5538 -5980 0
-5524 5981 0
5524 -5981 0
-5525 5982 0
5525 -5982 0
-5526 5983 0
5526 -5983 0
-5527 5984 0
5527 -5984 0
-5513 5985 0
5513 -5985 0
-5514 5986 0
5514 -5986 0
-5515 5987 0
5515 -5987 0
-5516 5988 0
5516 -5988 0
6245 -6117 0
-6245 6117 0
6246 -6118 0
-6246 6118 0
6247 -6119 0
-6247 6119 0
6248 -6120 0
-6248 6120 0
6249 -6121 0
-6249 6121 0
6250 -6122 0
-6250 6122 0
6251 -6123 0
-6251 6123 0
6252 -6124 0
-6252 6124 0
6253 -6125 0
-6253 6125 0
6254 -6126 0
-6254 6126 0
6255 -6127 0
-6255 6127 0
6256 -6128 0
-6256 6128 0
6257 -6129 0
-6257 6129 0
6258 -6130 0
-6258 6130 0
6259 -6131 0
-6259 6131 0
6260 -6132 0
-6260 6132 0
6261 -6133 0
-6261 6133 0
6262 -6134 0
-6262 6134 0
6263 -6135 0
-6263 6135 0
6264 -6136 0
-6264 6136 0
6265 -6137 0
-6265 6137 0
6266 -6138 0
-6266 6138 0
6267 -6139 0
-6267 6139 0
6268 -6140 0
-6268 6140 0
6269 -6141 0
-6269 6141 0
6270 -6142 0
-6270 6142 0
6271 -6143 0
-6271 6143 0
6272 -6144 0
-6272 6144 0
6273 -6145 0
-6273 6145 0
6274 -6146 0
-6274 6146 0
6275 -6147 0
-6275 6147 0
6276 -6148 0
-6276 6148 0
6277 -6149 0
-6277 6149 0
6278 -6150 0
-6278 6150 0
6279 -6151 0
-6279 6151 0
6280 -6152 0
-6280 6152 0
6281 -6153 0
-6281 6153 0
6282 -6154 0
-6282 6154 0
6283 -6155 0
-6283 6155 0
6284 -6156 0
-6284 6156 0
6285 -6157 0
-6285 6157 0
6286 -6158 0
-6286 6158 0
6287 -6159 0
-6287 6159 0
6288 -6160 0
-6288 6160 0
6289 -6161 0
-6289 6161 0
6290 -6162 0
-6290 6162 0
6291 -6163 0
-6291 6163 0
6292 -6164 0
-6292 6164 0
6293 -6165 0
-6293 6165 0
6294 -6166 0
-6294 6166 0
6295 -6167 0
-6295 6167 0
6296 -6168 0
-6296 6168 0
6297 -6169 0
-6297 6169 0
6298 -6170 0
-6298 6170 0
6299 -6171 0
-6299 6171 0
6300 -6172 0
-6300 6172 0
6301 -6173 0
-6301 6173 0
6302 -6174 0
-6302 6174 0
6303 -6175 0
-6303 6175 0
6304 -6176 0
-6304 6176 0
6305 -6177 0
-6305 6177 0
6306 -6178 0
-6306 6178 0
6307 -6179 0
-6307 6179 0
6308 -6180 0
-6308 6180 0
6309 -6181 0
-6309 6181 0
6310 -6182 0
-6310 6182 0
6311 -6183 0
-6311 6183 0
6312 -6184 0
-6312 6184 0
6313 -6185 0
-6313 6185 0
6314 -6186 0
-6314 6186 0
6315 -6187 0
-6315 6187 0
6316 -6188 0
-6316 6188 0
6317 -6189 0
-6317 6189 0
6318 -6190 0
-6318 6190 0
6319 -6191 0
-6319 6191 0
6320 -6192 0
-6320 6192 0
6321 -6193 0
-6321 6193 0
6322 -6194 0
-6322 6194 0
6323 -6195 0
-6323 6195 0
6324 -6196 0
-6324 6196 0
6325 -6197 0
-6325 6197 0
6326 -6198 0
-6326 6198 0
6327 -6199 0
-6327 6199 0
6328 -6200 0
-6328 6200 0
6329 -6201 0
-6329 6201 0
6330 -6202 0
-6330 6202 0
6331 -6203 0
-6331 6203 0
6332 -6204 0
-6332 6204 0
6333 -6205 0
-6333 6205 0
6334 -6206 0
-6334 6206 0
6335 -6207 0
-6335 6207 0
6336 -6208 0
-6336 6208 0
6337 -6209 0
-6337 6209 0
6338 -6210 0
-6338 6210 0
6339 -6211 0
-6339 6211 0
6340 -6212 0
-6340 6212 0
6341 -6213 0
-6341 6213 0
6342 -6214 0
-6342 6214 0
6343 -6215 0
-6343 6215 0
6344 -6216 0
-6344 6216 0
6345 -6217 0
-6345 6217 0
6346 -6218 0
-6346 6218 0
6347 -6219 0
-6347 6219 0
6348 -6220 0
-6348 6220 0
6349 -6221 0
-6349 6221 0
6350 -6222 0
-6350 6222 0
6351 -6223 0
-6351 6223 0
6352 -6224 0
-6352 6224 0
6353 -6225 0
-6353 6225 0
6354 -6226 0
-6354 6226 0
6355 -6227 0
-6355 6227 0
6356 -6228 0
-6356 6228 0
6357 -6229 0
-6357 6229 0
6358 -6230 0
-6358 6230 0
6359 -6231 0
-6359 6231 0
6360 -6232 0
-6360 6232 0
6361 -6233 0
-6361 6233 0
6362 -6234 0
-6362 6234 0
6363 -6235 0
-6363 6235 0
6364 -6236 0
-6364 6236 0
6365 -6237 0
-6365 6237 0
6366 -6238 0
-6366 6238 0
6367 -6239 0
-6367 6239 0
6368 -6240 0
-6368 6240 0
6369 -6241 0
-6369 6241 0
6370 -6242 0
-6370 6242 0
6371 -6243 0
-6371 6243 0
6372 -6244 0
-6372 6244 0
6501 -6373 0
-6501 6373 0
6533 -6374 0
-6533 6374 0
6565 -6375 0
-6565 6375 0
6597 -6376 0
-6597 6376 0
6502 -6377 0
-6502 6377 0
6534 -6378 0
-6534 6378 0
6566 -6379 0
-6566 6379 0
6598 -6380 0
-6598 6380 0
6503 -6381 0
-6503 6381 0
6535 -6382 0
-6535 6382 0
6567 -6383 0
-6567 6383 0
6599 -6384 0
-6599 6384 0
6504 -6385 0
-6504 6385 0
6536 -6386 0
-6536 6386 0
6568 -6387 0
-6568 6387 0
6600 -6388 0
-6600 6388 0
6505 -6389 0
-6505 6389 0
6537 -6390 0
-6537 6390 0
6569 -6391 0
-6569 6391 0
6601 -6392 0
-6601 6392 0
6506 -6393 0
-6506 6393 0
6538 -6394 0
-6538 6394 0
6570 -6395 0
-6570 6395 0
6602 -6396 0
-6602 6396 0
6507 -6397 0
-6507 6397 0
6539 -6398 0
-6539 6398 0
6571 -6399 0
-6571 6399 0
6603 -6400 0
-6603 6400 0
6508 -6401 0
-6508 6401 0
6540 -6402 0
-6540 6402 0
6572 -6403 0
-6572 6403 0
6604 -6404 0
-6604 6404 0
6509 -6405 0
-6509 6405 0
6541 -6406 0
-6541 6406 0
6573 -6407 0
-6573 6407 0
6605 -6408 0
-6605 6408 0
6510 -6409 0
-6510 6409 0
6542 -6410 0
-6542 6410 0
6574 -6411 0
-6574 6411 0
6606 -6412 0
-6606 6412 0
6511 -6413 0
-6511 6413 0
6543 -6414 0
-6543 6414 0
6575 -6415 0
-6575 6415 0
6607 -6416 0
-6607 6416 0
6512 -6417 0
-6512 6417 0
6544 -6418 0
-6544 6418 0
6576 -6419 0
-6576 6419 0
6608 -6420 0
-6608 6420 0
6513 -6421 0
-6513 6421 0
6545 -6422 0
-6545 6422 0
6577 -6423 0
-6577 6423 0
6609 -6424 0
-6609 6424 0
6514 -6425 0
-6514 6425 0
6546 -6426 0
-6546 6426 0
6578 -6427 0
-6578 6427 0
6610 -6428 0
-6610 6428 0
6515 -6429 0
-6515 6429 0
6547 -6430 0
-6547 6430 0
6579 -6431 0
-6579 6431 0
6611 -6432 0
-6611 6432 0
6516 -6433 0
-6516 6433 0
6548 -6434 0
-6548 6434 0
6580 -6435 0
-6580 6435 0
6612 -6436 0
-6612 6436 0
6517 -6437 0
-6517 6437 0
6549 -6438 0
-6549 6438 0
6581 -6439 0
-6581 6439 0
6613 -6440 0
-6613 6440 0
6518 -6441 0
-6518 6441 0
6550 -6442 0
-6550 6442 0
6582 -6443 0
-6582 6443 0
6614 -6444 0
-6614 6444 0
6519 -6445 0
-6519 6445 0
6551 -6446 0
-6551 6446 0
6583 -6447 0
-6583 6447 0
6615 -6448 0
-6615 6448 0
6520 -6449 0
-6520 6449 0
6552 -6450 0
-6552 6450 0
6584 -6451 0
-6584 6451 0
6616 -6452 0
-6616 6452 0
6521 -6453 0
-6521 6453 0
6553 -6454 0
-6553 6454 0
6585 -6455 0
-6585 6455 0
6617 -6456 0
-6617 6456 0
6522 -6457 0
-6522 6457 0
6554 -6458 0
-6554 6458 0
6586 -6459 0
-6586 6459 0
6618 -6460 0
-6618 6460 0
6523 -6461 0
-6523 6461 0
6555 -6462 0
-6555 6462 0
6587 -6463 0
-6587 6463 0
6619 -6464 0
-6619 6464 0
6524 -6465 0
-6524 6465 0
6556 -6466 0
-6556 6466 0
6588 -6467 0
-6588 6467 0
6620 -6468 0
-6620 6468 0
6525 -6469 0
-6525 6469 0
6557 -6470 0
-6557 6470 0
6589 -6471 0
-6589 6471 0
6621 -6472 0
-6621 6472 0
6526 -6473 0
-6526 6473 0
6558 -6474 0
-6558 6474 0
6590 -6475 0
-6590 6475 0
6622 -6476 0
-6622 6476 0
6527 -6477 0
-6527 6477 0
6559 -6478 0
-6559 6478 0
6591 -6479 0
-6591 6479 0
6623 -6480 0
-6623 6480 0
6528 -6481 0
-6528 6481 0
6560 -6482 0
-6560 6482 0
6592 -6483 0
-6592 6483 0
6624 -6484 0
-6624 6484 0
6529 -6485 0
-6529 6485 0
6561 -6486 0
-6561 6486 0
6593 -6487 0
-6593 6487 0
6625 -6488 0
-6625 6488 0
6530 -6489 0
-6530 6489 0
6562 -6490 0
-6562 6490 0
6594 -6491 0
-6594 6491 0
6626 -6492 0
-6626 6492 0
6531 -6493 0
-6531 6493 0
6563 -6494 0
-6563 6494 0
6595 -6495 0
-6595 6495 0
6627 -6496 0
-6627 6496 0
6532 -6497 0
-6532 6497 0
6564 -6498 0
-6564 6498 0
6596 -6499 0
-6596 6499 0
6628 -6500 0
-6628 6500 0
-6757 6629 0
6757 -6629 0
-6758 6630 0
6758 -6630 0
-6759 6631 0
6759 -6631 0
-6760 6632 0
6760 -6632 0
-6761 6633 0
6761 -6633 0
-6762 6634 0
6762 -6634 0
-6763 6635 0
6763 -6635 0
-6764 6636 0
6764 -6636 0
-6765 6637 0
6765 -6637 0
-6766 6638 0
6766 -6638 0
-6767 6639 0
6767 -6639 0
-6768 6640 0
6768 -6640 0
-6769 6641 0
6769 -6641 0
-6770 6642 0
6770 -6642 0
-6771 6643 0
6771 -6643 0
-6772 6644 0
6772 -6644 0
-6773 6645 0
6773 -6645 0
-6774 6646 0
6774 -6646 0
-6775 6647 0
6775 -6647 0
-6776 6648 0
6776 -6648 0
-6777 6649 0
6777 -6649 0
-6778 6650 0
6778 -6650 0
-6779 6651 0
6779 -6651 0
-6780 6652 0
6780 -6652 0
-6781 6653 0
6781 -6653 0
-6782 6654 0
6782 -6654 0
-6783 6655 0
6783 -6655 0
-6784 6656 0
6784 -6656 0
-6785 6657 0
6785 -6657 0
-6786 6658 0
6786 -6658 0
-6787 6659 0
6787 -6659 0
-6788 6660 0
6788 -6660 0
-6789 6661 0
6789 -6661 0
-6790 6662 0
6790 -6662 0
-6791 6663 0
6791 -6663 0
-6792 6664 0
6792 -6664 0
-6793 6665 0
6793 -6665 0
-6794 6666 0
6794 -6666 0
-6795 6667 0
6795 -6667 0
-6796 6668 0
6796 -6668 0
-6797 6669 0
6797 -6669 0
-6798 6670 0
6798 -6670 0
-6799 6671 0
6799 -6671 0
-6800 6672 0
6800 -6672 0
-6801 6673 0
6801 -6673 0
-6802 6674 0
6802 -6674 0
-6803 6675 0
6803 -6675 0
-6804 6676 0
6804 -6676 0
-6805 6677 0
6805 -6677 0
-6806 6678 0
6806 -6678 0
-6807 6679 0
6807 -6679 0
-6808 6680 0
6808 -6680 0
-6809 6681 0
6809 -6681 0
-6810 6682 0
6810 -6682 0
-6811 6683 0
6811 -6683 0
-6812 6684 0
6812 -6684 0
-6813 6685 0
6813 -6685 0
-6814 6686 0
6814 -6686 0
-6815 6687 0
6815 -6687 0
-6816 6688 0
6816 -6688 0
-6817 6689 0
6817 -6689 0
-6818 6690 0
6818 -6690 0
-6819 6691 0
6819 -6691 0
-6820 6692 0
6820 -6692 0
-6821 6693 0
6821 -6693 0
-6822 6694 0
6822 -6694 0
-6823 6695 0
6823 -6695 0
-6824 6696 0
6824 -6696 0
-6825 6697 0
6825 -6697 0
-6826 6698 0
6826 -6698 0
-6827 6699 0
6827 -6699 0
-6828 6700 0
6828 -6700 0
-6829 6701 0
6829 -6701 0
-6830 6702 0
6830 -6702 0
-6831 6703 0
6831 -6703 0
-6832 6704 0
6832 -6704 0
-6833 6705 0
6833 -6705 0
-6834 6706 0
6834 -6706 0
-6835 6707 0
6835 -6707 0
-6836 6708 0
6836 -6708 0
-6837 6709 0
6837 -6709 0
-6838 6710 0
6838 -6710 0
-6839 6711 0
6839 -6711 0
-6840 6712 0
6840 -6712 0
-6841 6713 0
6841 -6713 0
-6842 6714 0
6842 -6714 0
-6843 6715 0
6843 -6715 0
-6844 6716 0
6844 -6716 0
-6845 6717 0
6845 -6717 0
-6846 6718 0
6846 -6718 0
-6847 6719 0
6847 -6719 0
-6848 6720 0
6848 -6720 0
-6849 6721 0
6849 -6721 0
-6850 6722 0
6850 -6722 0
-6851 6723 0
6851 -6723 0
-6852 6724 0
6852 -6724 0
-6853 6725 0
6853 -6725 0
-6854 6726 0
6854 -6726 0
-6855 6727 0
6855 -6727 0
-6856 6728 0
6856 -6728 0
-6857 6729 0
6857 -6729 0
-6858 6730 0
6858 -6730 0
-6859 6731 0
6859 -6731 0
-6860 6732 0
6860 -6732 0
-6861 6733 0
6861 -6733 0
-6862 6734 0
6862 -6734 0
-6863 6735 0
6863 -6735 0
-6864 6736 0
6864 -6736 0
-6865 6737 0
6865 -6737 0
-6866 6738 0
6866 -6738 0
-6867 6739 0
6867 -6739 0
-6868 6740 0
6868 -6740 0
-6869 6741 0
6869 -6741 0
-6870 6742 0
6870 -6742 0
-6871 6743 0
6871 -6743 0
-6872 6744 0
6872 -6744 0
-6873 6745 0
6873 -6745 0
-6874 6746 0
6874 -6746 0
-6875 6747 0
6875 -6747 0
-6876 6748 0
6876 -6748 0
-6877 6749 0
6877 -6749 0
-6878 6750 0
6878 -6750 0
-6879 6751 0
6879 -6751 0
-6880 6752 0
6880 -6752 0
-6881 6753 0
6881 -6753 0
-6882 6754 0
6882 -6754 0
-6883 6755 0
6883 -6755 0
-6884 6756 0
6884 -6756 0
1 -257 0
-1 257 0
2 -258 0
-2 258 0
3 -259 0
-3 259 0
4 -260 0
-4 260 0
5 -261 0
-5 261 0
6 -262 0
-6 262 0
7 -263 0
-7 263 0
8 -264 0
-8 264 0
9 -265 0
-9 265 0
10 -266 0
-10 266 0
11 -267 0
-11 267 0
12 -268 0
-12 268 0
13 -269 0
-13 269 0
14 -270 0
-14 270 0
15 -271 0
-15 271 0
16 -272 0
-16 272 0
17 -273 0
-17 273 0
18 -274 0
-18 274 0
19 -275 0
-19 275 0
20 -276 0
-20 276 0
21 -277 0
-21 277 0
22 -278 0
-22 278 0
23 -279 0
-23 279 0
24 -280 0
-24 280 0
25 -281 0
-25 281 0
26 -282 0
-26 282 0
27 -283 0
-27 283 0
28 -284 0
-28 284 0
29 -285 0
-29 285 0
30 -286 0
-30 286 0
31 -287 0
-31 287 0
32 -288 0
-32 288 0
33 -289 0
-33 289 0
34 -290 0
-34 290 0
35 -291 0
-35 291 0
36 -292 0
-36 292 0
37 -293 0
-37 293 0
38 -294 0
-38 294 0
39 -295 0
-39 295 0
40 -296 0
-40 296 0
41 -297 0
-41 297 0
42 -298 0
-42 298 0
43 -299 0
-43 299 0
44 -300 0
-44 300 0
45 -301 0
-45 301 0
46 -302 0
-46 302 0
47 -303 0
-47 303 0
48 -304 0
-48 304 0
49 -305 0
-49 305 0
50 -306 0
-50 306 0
51 -307 0
-51 307 0
52 -308 0
-52 308 0
53 -309 0
-53 309 0
54 -310 0
-54 310 0
55 -311 0
-55 311 0
56 -312 0
-56 312 0
57 -313 0
-57 313 0
58 -314 0
-58 314 0
59 -315 0
-59 315 0
60 -316 0
-60 316 0
61 -317 0
-61 317 0
62 -318 0
-62 318 0
63 -319 0
-63 319 0
64 -320 0
-64 320 0
65 -321 0
-65 321 0
66 -322 0
-66 322 0
67 -323 0
-67 323 0
68 -324 0
-68 324 0
69 -325 0
-69 325 0
70 -326 0
-70 326 0
71 -327 0
-71 327 0
72 -328 0
-72 328 0
73 -329 0
-73 329 0
74 -330 0
-74 330 0
75 -331 0
-75 331 0
76 -332 0
-76 332 0
77 -333 0
-77 333 0
78 -334 0
-78 334 0
79 -335 0
-79 335 0
80 -336 0
-80 336 0
81 -337 0
-81 337 0
82 -338 0
-82 338 0
83 -339 0
-83 339 0
84 -340 0
-84 340 0
85 -341 0
-85 341 0
86 -342 0
-86 342 0
87 -343 0
-87 343 0
88 -344 0
-88 344 0
89 -345 0
-89 345 0
90 -346 0
-90 346 0
91 -347 0
-91 347 0
92 -348 0
-92 348 0
93 -349 0
-93 349 0
94 -350 0
-94 350 0
95 -351 0
-95 351 0
96 -352 0
-96 352 0
97 -353 0
-97 353 0
98 -354 0
-98 354 0
99 -355 0
-99 355 0
100 -356 0
-100 356 0
101 -357 0
-101 357 0
102 -358 0
-102 358 0
103 -359 0
-103 359 0
104 -360 0
-104 360 0
105 -361 0
-105 361 0
106 -362 0
-106 362 0
107 -363 0
-107 363 0
108 -364 0
-108 364 0
109 -365 0
-109 365 0
110 -366 0
-110 366 0
111 -367 0
-111 367 0
112 -368 0
-112 368 0
113 -369 0
-113 369 0
114 -370 0
-114 370 0
115 -371 0
-115 371 0
116 -372 0
-116 372 0
117 -373 0
-117 373 0
118 -374 0
-118 374 0
119 -375 0
-119 375 0
120 -376 0
-120 376 0
121 -377 0
-121 377 0
122 -378 0
-122 378 0
123 -379 0
-123 379 0
124 -380 0
-124 380 0
125 -381 0
-125 381 0
126 -382 0
-126 382 0
127 -383 0
-127 383 0
128 -384 0
-128 384 0
6757 -129 0
-6757 129 0
6758 -130 0
-6758 130 0
6759 -131 0
-6759 131 0
6760 -132 0
-6760 132 0
6761 -133 0
-6761 133 0
6762 -134 0
-6762 134 0
6763 -135 0
-6763 135 0
6764 -136 0
-6764 136 0
6765 -137 0
-6765 137 0
6766 -138 0
-6766 138 0
6767 -139 0
-6767 139 0
6768 -140 0
-6768 140 0
6769 -141 0
-6769 141 0
6770 -142 0
-6770 142 0
6771 -143 0
-6771 143 0
6772 -144 0
-6772 144 0
6773 -145 0
-6773 145 0
6774 -146 0
-6774 146 0
6775 -147 0
-6775 147 0
6776 -148 0
-6776 148 0
6777 -149 0
-6777 149 0
6778 -150 0
-6778 150 0
6779 -151 0
-6779 151 0
6780 -152 0
-6780 152 0
6781 -153 0
-6781 153 0
6782 -154 0
-6782 154 0
6783 -155 0
-6783 155 0
6784 -156 0
-6784 156 0
6785 -157 0
-6785 157 0
6786 -158 0
-6786 158 0
6787 -159 0
-6787 159 0
6788 -160 0
-6788 160 0
6789 -161 0
-6789 161 0
6790 -162 0
-6790 162 0
6791 -163 0
-6791 163 0
6792 -164 0
-6792 164 0
6793 -165 0
-6793 165 0
6794 -166 0
-6794 166 0
6795 -167 0
-6795 167 0
6796 -168 0
-6796 168 0
6797 -169 0
-6797 169 0
6798 -170 0
-6798 170 0
6799 -171 0
-6799 171 0
6800 -172 0
-6800 172 0
6801 -173 0
-6801 173 0
6802 -174 0
-6802 174 0
6803 -175 0
-6803 175 0
6804 -176 0
-6804 176 0
6805 -177 0
-6805 177 0
6806 -178 0
-6806 178 0
6807 -179 0
-6807 179 0
6808 -180 0
-6808 180 0
6809 -181 0
-6809 181 0
6810 -182 0
-6810 182 0
6811 -183 0
-6811 183 0
6812 -184 0
-6812 184 0
6813 -185 0
-6813 185 0
6814 -186 0
-6814 186 0
6815 -187 0
-6815 187 0
6816 -188 0
-6816 188 0
6817 -189 0
-6817 189 0
6818 -190 0
-6818 190 0
6819 -191 0
-6819 191 0
6820 -192 0
-6820 192 0
6821 -193 0
-6821 193 0
6822 -194 0
-6822 194 0
6823 -195 0
-6823 195 0
6824 -196 0
-6824 196 0
6825 -197 0
-6825 197 0
6826 -198 0
-6826 198 0
6827 -199 0
-6827 199 0
6828 -200 0
-6828 200 0
6829 -201 0
-6829 201 0
6830 -202 0
-6830 202 0
6831 -203 0
-6831 203 0
6832 -204 0
-6832 204 0
6833 -205 0
-6833 205 0
6834 -206 0
-6834 206 0
6835 -207 0
-6835 207 0
6836 -208 0
-6836 208 0
6837 -209 0
-6837 209 0
6838 -210 0
-6838 210 0
6839 -211 0
-6839 211 0
6840 -212 0
-6840 212 0
6841 -213 0
-6841 213 0
6842 -214 0
-6842 214 0
6843 -215 0
-6843 215 0
6844 -216 0
-6844 216 0
6845 -217 0
-6845 217 0
6846 -218 0
-6846 218 0
6847 -219 0
-6847 219 0
6848 -220 0
-6848 220 0
6849 -221 0
-6849 221 0
6850 -222 0
-6850 222 0
6851 -223 0
-6851 223 0
6852 -224 0
-6852 224 0
6853 -225 0
-6853 225 0
6854 -226 0
-6854 226 0
6855 -227 0
-6855 227 0
6856 -228 0
-6856 228 0
6857 -229 0
-6857 229 0
6858 -230 0
-6858 230 0
6859 -231 0
-6859 231 0
6860 -232 0
-6860 232 0
6861 -233 0
-6861 233 0
6862 -234 0
-6862 234 0
6863 -235 0
-6863 235 0
6864 -236 0
-6864 236 0
6865 -237 0
-6865 237 0
6866 -238 0
-6866 238 0
6867 -239 0
-6867 239 0
6868 -240 0
-6868 240 0
6869 -241 0
-6869 241 0
6870 -242 0
-6870 242 0
6871 -243 0
-6871 243 0
6872 -244 0
-6872 244 0
6873 -245 0
-6873 245 0
6874 -246 0
-6874 246 0
6875 -247 0
-6875 247 0
6876 -248 0
-6876 248 0
6877 -249 0
-6877 249 0
6878 -250 0
-6878 250 0
6879 -251 0
-6879 251 0
6880 -252 0
-6880 252 0
6881 -253 0
-6881 253 0
6882 -254 0
-6882 254 0
6883 -255 0
-6883 255 0
6884 -256 0
-6884 256 0
-385 513 0
385 -513 0
-386 514 0
386 -514 0
-387 515 0
387 -515 0
-388 516 0
388 -516 0
-389 517 0
389 -517 0
-390 518 0
390 -518 0
-391 519 0
391 -519 0
-392 520 0
392 -520 0
-393 521 0
393 -521 0
-394 522 0
394 -522 0
-395 523 0
395 -523 0
-396 524 0
396 -524 0
-397 525 0
397 -525 0
-398 526 0
398 -526 0
-399 527 0
399 -527 0
-400 528 0
400 -528 0
-401 529 0
401 -529 0
-402 530 0
402 -530 0
-403 531 0
403 -531 0
-404 532 0
404 -532 0
-405 533 0
405 -533 0
-406 534 0
406 -534 0
-407 535 0
407 -535 0
-408 536 0
408 -536 0
-409 537 0
409 -537 0
-410 538 0
410 -538 0
-411 539 0
411 -539 0
-412 540 0
412 -540 0
-413 541 0
413 -541 0
-414 542 0
414 -542 0
-415 543 0
415 -543 0
-416 544 0
416 -544 0
-417 545 0
417 -545 0
-418 546 0
418 -546 0
-419 547 0
419 -547 0
-420 548 0
420 -548 0
-421 549 0
421 -549 0
-422 550 0
422 -550 0
-423 551 0
423 -551 0
-424 552 0
424 -552 0
-425 553 0
425 -553 0
-426 554 0
426 -554 0
-427 555 0
427 -555 0
-428 556 0
428 -556 0
-429 557 0
429 -557 0
-430 558 0
430 -558 0
-431 559 0
431 -559 0
-432 560 0
432 -560 0
-433 561 0
433 -561 0
-434 562 0
434 -562 0
-435 563 0
435 -563 0
-436 564 0
436 -564 0
-437 565 0
437 -565 0
-438 566 0
438 -566 0
-439 567 0
439 -567 0
-440 568 0
440 -568 0
-441 569 0
441 -569 0
-442 570 0
442 -570 0
-443 571 0
443 -571 0
-444 572 0
444 -572 0
-445 573 0
445 -573 0
-446 574 0
446 -574 0
-447 575 0
447 -575 0
-448 576 0
448 -576 0
-449 577 0
449 -577 0
-450 578 0
450 -578 0
-451 579 0
451 -579 0
-452 580 0
452 -580 0
-453 581 0
453 -581 0
-454 582 0
454 -582 0
-455 583 0
455 -583 0
-456 584 0
456 -584 0
-457 585 0
457 -585 0
-458 586 0
458 -586 0
-459 587 0
459 -587 0
-460 588 0
460 -588 0
-461 589 0
461 -589 0
-462 590 0
462 -590 0
-463 591 0
463 -591 0
-464 592 0
464 -592 0
-465 593 0
465 -593 0
-466 594 0
466 -594 0
-467 595 0
467 -595 0
-468 596 0
468 -596 0
-469 597 0
469 -597 0
-470 598 0
470 -598 0
-471 599 0
471 -599 0
-472 600 0
472 -600 0
-473 601 0
473 -601 0
-474 602 0
474 -602 0
-475 603 0
475 -603 0
-476 604 0
476 -604 0
-477 605 0
477 -605 0
-478 606 0
478 -606 0
-479 607 0
479 -607 0
-480 608 0
480 -608 0
-481 609 0
481 -609 0
-482 610 0
482 -610 0
-483 611 0
483 -611 0
-484 612 0
484 -612 0
-485 613 0
485 -613 0
-486 614 0
486 -614 0
-487 615 0
487 -615 0
-488 616 0
488 -616 0
-489 617 0
489 -617 0
-490 618 0
490 -618 0
-491 619 0
491 -619 0
-492 620 0
492 -620 0
-493 621 0
493 -621 0
-494 622 0
494 -622 0
-495 623 0
495 -623 0
-496 624 0
496 -624 0
-497 625 0
497 -625 0
-498 626 0
498 -626 0
-499 627 0
499 -627 0
-500 628 0
500 -628 0
-501 629 0
501 -629 0
-502 630 0
502 -630 0
-503 631 0
503 -631 0
-504 632 0
504 -632 0
-505 633 0
505 -633 0
-506 634 0
506 -634 0
-507 635 0
507 -635 0
-508 636 0
508 -636 0
-509 637 0
509 -637 0
-510 638 0
510 -638 0
-511 639 0
511 -639 0
-512 640 0
512 -640 0
-641 769 0
641 -769 0
-642 770 0
642 -770 0
-643 771 0
643 -771 0
-644 772 0
644 -772 0
-645 773 0
645 -773 0
-646 774 0
646 -774 0
-647 775 0
647 -775 0
-648 776 0
648 -776 0
-649 777 0
649 -777 0
-650 778 0
650 -778 0
-651 779 0
651 -779 0
-652 780 0
652 -780 0
-653 781 0
653 -781 0
-654 782 0
654 -782 0
-655 783 0
655 -783 0
-656 784 0
656 -784 0
-657 785 0
657 -785 0
-658 786 0
658 -786 0
-659 787 0
659 -787 0
-660 788 0
660 -788 0
-661 789 0
661 -789 0
-662 790 0
662 -790 0
-663 791 0
663 -791 0
-664 792 0
664 -792 0
-665 793 0
665 -793 0
-666 794 0
666 -794 0
-667 795 0
667 -795 0
-668 796 0
668 -796 0
-669 797 0
669 -797 0
-670 798 0
670 -798 0
-671 799 0
671 -799 0
-672 800 0
672 -800 0
-673 801 0
673 -801 0
-674 802 0
674 -802 0
-675 803 0
675 -803 0
-676 804 0
676 -804 0
-677 805 0
677 -805 0
-678 806 0
678 -806 0
-679 807 0
679 -807 0
-680 808 0
680 -808 0
-681 809 0
681 -809 0
-682 810 0
682 -810 0
-683 811 0
683 -811 0
-684 812 0
684 -812 0
-685 813 0
685 -813 0
-686 814 0
686 -814 0
-687 815 0
687 -815 0
-688 816 0
688 -816 0
-689 817 0
689 -817 0
-690 818 0
690 -818 0
-691 819 0
691 -819 0
-692 820 0
692 -820 0
-693 821 0
693 -821 0
-694 822 0
694 -822 0
-695 823 0
695 -823 0
-696 824 0
696 -824 0
-697 825 0
697 -825 0
-698 826 0
698 -826 0
-699 827 0
699 -827 0
-700 828 0
700 -828 0
-701 829 0
701 -829 0
-702 830 0
702 -830 0
-703 831 0
703 -831 0
-704 832 0
704 -832 0
-705 833 0
705 -833 0
-706 834 0
706 -834 0
-707 835 0
707 -835 0
-708 836 0
708 -836 0
-709 837 0
709 -837 0
-710 838 0
710 -838 0
-711 839 0
711 -839 0
-712 840 0
712 -840 0
-713 841 0
713 -841 0
-714 842 0
714 -842 0
-715 843 0
715 -843 0
-716 844 0
716 -844 0
-717 845 0
717 -845 0
-718 846 0
718 -846 0
-719 847 0
719 -847 0
-720 848 0
720 -848 0
-721 849 0
721 -849 0
-722 850 0
722 -850 0
-723 851 0
723 -851 0
-724 852 0
724 -852 0
-725 853 0
725 -853 0
-726 854 0
726 -854 0
-727 855 0
727 -855 0
-728 856 0
728 -856 0
-729 857 0
729 -857 0
-730 858 0
730 -858 0
-731 859 0
731 -859 0
-732 860 0
732 -860 0
-733 861 0
733 -861 0
-734 862 0
734 -862 0
-735 863 0
735 -863 0
-736 864 0
736 -864 0
-737 865 0
737 -865 0
-738 866 0
738 -866 0
-739 867 0
739 -867 0
-740 868 0
740 -868 0
-741 869 0
741 -869 0
-742 870 0
742 -870 0
-743 871 0
743 -871 0
-744 872 0
744 -872 0
-745 873 0
745 -873 0
-746 874 0
746 -874 0
-747 875 0
747 -875 0
-748 876 0
748 -876 0
-749 877 0
749 -877 0
-750 878 0
750 -878 0
-751 879 0
751 -879 0
-752 880 0
752 -880 0
-753 881 0
753 -881 0
-754 882 0
754 -882 0
-755 883 0
755 -883 0
-756 884 0
756 -884 0
-757 885 0
757 -885 0
-758 886 0
758 -886 0
-759 887 0
759 -887 0
-760 888 0
760 -888 0
-761 889 0
761 -889 0
-762 890 0
762 -890 0
-763 891 0
763 -891 0
-764 892 0
764 -892 0
-765 893 0
765 -893 0
-766 894 0
766 -894 0
-767 895 0
767 -895 0
-768 896 0
768 -896 0
-897 1025 0
897 -1025 0
-898 1026 0
898 -1026 0
-899 1027 0
899 -1027 0
-900 1028 0
900 -1028 0
-901 1029 0
901 -1029 0
-902 1030 0
902 -1030 0
-903 1031 0
903 -1031 0
-904 1032 0
904 -1032 0
-905 1033 0
905 -1033 0
-906 1034 0
906 -1034 0
-907 1035 0
907 -1035 0
-908 1036 0
908 -1036 0
-909 1037 0
909 -1037 0
-910 1038 0
910 -1038 0
-911 1039 0
911 -1039 0
-912 1040 0
912 -1040 0
-913 1041 0
913 -1041 0
-914 1042 0
914 -1042 0
-915 1043 0
915 -1043 0
-916 1044 0
916 -1044 0
-917 1045 0
917 -1045 0
-918 1046 0
918 -1046 0
-919 1047 0
919 -1047 0
-920 1048 0
920 -1048 0
-921 1049 0
921 -1049 0
-922 1050 0
922 -1050 0
-923 1051 0
923 -1051 0
-924 1052 0
924 -1052 0
-925 1053 0
925 -1053 0
-926 1054 0
926 -1054 0
-927 1055 0
927 -1055 0
-928 1056 0
928 -1056 0
-929 1057 0
929 -1057 0
-930 1058 0
930 -1058 0
-931 1059 0
931 -1059 0
-932 1060 0
932 -1060 0
-933 1061 0
933 -1061 0
-934 1062 0
934 -1062 0
-935 1063 0
935 -1063 0
-936 1064 0
936 -1064 0
-937 1065 0
937 -1065 0
-938 1066 0
938 -1066 0
-939 1067 0
939 -1067 0
-940 1068 0
940 -1068 0
-941 1069 0
941 -1069 0
-942 1070 0
942 -1070 0
-943 1071 0
943 -1071 0
-944 1072 0
944 -1072 0
-945 1073 0
945 -1073 0
-946 1074 0
946 -1074 0
-947 1075 0
947 -1075 0
-948 1076 0
948 -1076 0
-949 1077 0
949 -1077 0
-950 1078 0
950 -1078 0
-951 1079 0
951 -1079 0
-952 1080 0
952 -1080 0
-953 1081 0
953 -1081 0
-954 1082 0
954 -1082 0
-955 1083 0
955 -1083 0
-956 1084 0
956 -1084 0
-957 1085 0
957 -1085 0
-958 1086 0
958 -1086 0
-959 1087 0
959 -1087 0
-960 1088 0
960 -1088 0
-961 1089 0
961 -1089 0
-962 1090 0
962 -1090 0
-963 1091 0
963 -1091 0
-964 1092 0
964 -1092 0
-965 1093 0
965 -1093 0
-966 1094 0
966 -1094 0
-967 1095 0
967 -1095 0
-968 1096 0
968 -1096 0
-969 1097 0
969 -1097 0
-970 1098 0
970 -1098 0
-971 1099 0
971 -1099 0
-972 1100 0
972 -1100 0
-973 1101 0
973 -1101 0
-974 1102 0
974 -1102 0
-975 1103 0
975 -1103 0
-976 1104 0
976 -1104 0
-977 1105 0
977 -1105 0
-978 1106 0
978 -1106 0
-979 1107 0
979 -1107 0
-980 1108 0
980 -1108 0
-981 1109 0
981 -1109 0
-982 1110 0
982 -1110 0
-983 1111 0
983 -1111 0
-984 1112 0
984 -1112 0
-985 1113 0
985 -1113 0
-986 1114 0
986 -1114 0
-987 1115 0
987 -1115 0
-988 1116 0
988 -1116 0
-989 1117 0
989 -1117 0
-990 1118 0
990 -1118 0
-991 1119 0
991 -1119 0
-992 1120 0
992 -1120 0
-993 1121 0
993 -1121 0
-994 1122 0
994 -1122 0
-995 1123 0
995 -1123 0
-996 1124 0
996 -1124 0
-997 1125 0
997 -1125 0
-998 1126 0
998 -1126 0
-999 1127 0
999 -1127 0
-1000 1128 0
1000 -1128 0
-1001 1129 0
1001 -1129 0
-1002 1130 0
1002 -1130 0
-1003 1131 0
1003 -1131 0
-1004 1132 0
1004 -1132 0
-1005 1133 0
1005 -1133 0
-1006 1134 0
1006 -1134 0
-1007 1135 0
1007 -1135 0
-1008 1136 0
1008 -1136 0
-1009 1137 0
1009 -1137 0
-1010 1138 0
1010 -1138 0
-1011 1139 0
1011 -1139 0
-1012 1140 0
1012 -1140 0
-1013 1141 0
1013 -1141 0
-1014 1142 0
1014 -1142 0
-1015 1143 0
1015 -1143 0
-1016 1144 0
1016 -1144 0
-1017 1145 0
1017 -1145 0
-1018 1146 0
1018 -1146 0
-1019 1147 0
1019 -1147 0
-1020 1148 0
1020 -1148 0
-1021 1149 0
1021 -1149 0
-1022 1150 0
1022 -1150 0
-1023 1151 0
1023 -1151 0
-1024 1152 0
1024 -1152 0
-1153 2145 0
1153 -2145 0
-1154 2146 0
1154 -2146 0
-1155 2147 0
1155 -2147 0
-1156 2148 0
1156 -2148 0
-1157 2149 0
1157 -2149 0
-1158 2150 0
1158 -2150 0
-1159 2151 0
1159 -2151 0
-1160 2152 0
1160 -2152 0
-1161 2153 0
1161 -2153 0
-1162 2154 0
1162 -2154 0
-1163 2155 0
1163 -2155 0
-1164 2156 0
1164 -2156 0
-1165 2157 0
1165 -2157 0
-1166 2158 0
1166 -2158 0
-1167 2159 0
1167 -2159 0
-1168 2160 0
1168 -2160 0
-1169 2161 0
1169 -2161 0
-1170 2162 0
1170 -2162 0
-1171 2163 0
1171 -2163 0
-1172 2164 0
1172 -2164 0
-1173 2165 0
1173 -2165 0
-1174 2166 0
1174 -2166 0
-1175 2167 0
1175 -2167 0
-1176 2168 0
1176 -2168 0
-1177 2169 0
1177 -2169 0
-1178 2170 0
1178 -2170 0
-1179 2171 0
1179 -2171 0
-1180 2172 0
1180 -2172 0
-1181 2173 0
1181 -2173 0
-1182 2174 0
1182 -2174 0
-1183 2175 0
1183 -2175 0
-1184 2176 0
1184 -2176 0
-1185 2177 0
1185 -2177 0
-1186 2178 0
1186 -2178 0
-1187 2179 0
1187 -2179 0
-1188 2180 0
1188 -2180 0
-1189 2181 0
1189 -2181 0
-1190 2182 0
1190 -2182 0
-1191 2183 0
1191 -2183 0
-1192 2184 0
1192 -2184 0
-1193 2185 0
1193 -2185 0
-1194 2186 0
1194 -2186 0
-1195 2187 0
1195 -2187 0
-1196 2188 0
1196 -2188 0
-1197 2189 0
1197 -2189 0
-1198 2190 0
1198 -2190 0
-1199 2191 0
1199 -2191 0
-1200 2192 0
1200 -2192 0
-1201 2193 0
1201 -2193 0
-1202 2194 0
1202 -2194 0
-1203 2195 0
1203 -2195 0
-1204 2196 0
1204 -2196 0
-1205 2197 0
1205 -2197 0
-1206 2198 0
1206 -2198 0
-1207 2199 0
1207 -2199 0
-1208 2200 0
1208 -2200 0
-1209 2201 0
1209 -2201 0
-1210 2202 0
1210 -2202 0
-1211 2203 0
1211 -2203 0
-1212 2204 0
1212 -2204 0
-1213 2205 0
1213 -2205 0
-1214 2206 0
1214 -2206 0
-1215 2207 0
1215 -2207 0
-1216 2208 0
1216 -2208 0
-1217 2209 0
1217 -2209 0
-1218 2210 0
1218 -2210 0
-1219 2211 0
1219 -2211 0
-1220 2212 0
1220 -2212 0
-1221 2213 0
1221 -2213 0
-1222 2214 0
1222 -2214 0
-1223 2215 0
1223 -2215 0
-1224 2216 0
1224 -2216 0
-1225 2217 0
1225 -2217 0
-1226 2218 0
1226 -2218 0
-1227 2219 0
1227 -2219 0
-1228 2220 0
1228 -2220 0
-1229 2221 0
1229 -2221 0
-1230 2222 0
1230 -2222 0
-1231 2223 0
1231 -2223 0
-1232 2224 0
1232 -2224 0
-1233 2225 0
1233 -2225 0
-1234 2226 0
1234 -2226 0
-1235 2227 0
1235 -2227 0
-1236 2228 0
1236 -2228 0
-1237 2229 0
1237 -2229 0
-1238 2230 0
1238 -2230 0
-1239 2231 0
1239 -2231 0
-1240 2232 0
1240 -2232 0
-1241 2233 0
1241 -2233 0
-1242 2234 0
1242 -2234 0
-1243 2235 0
1243 -2235 0
-1244 2236 0
1244 -2236 0
-1245 2237 0
1245 -2237 0
-1246 2238 0
1246 -2238 0
-1247 2239 0
1247 -2239 0
-1248 2240 0
1248 -2240 0
-1249 2241 0
1249 -2241 0
-1250 2242 0
1250 -2242 0
-1251 2243 0
1251 -2243 0
-1252 2244 0
1252 -2244 0
-1253 2245 0
1253 -2245 0
-1254 2246 0
1254 -2246 0
-1255 2247 0
1255 -2247 0
-1256 2248 0
1256 -2248 0
-1257 2249 0
1257 -2249 0
-1258 2250 0
1258 -2250 0
-1259 2251 0
1259 -2251 0
-1260 2252 0
1260 -2252 0
-1261 2253 0
1261 -2253 0
-1262 2254 0
1262 -2254 0
-1263 2255 0
1263 -2255 0
-1264 2256 0
1264 -2256 0
-1265 2257 0
1265 -2257 0
-1266 2258 0
1266 -2258 0
-1267 2259 0
1267 -2259 0
-1268 2260 0
1268 -2260 0
-1269 2261 0
1269 -2261 0
-1270 2262 0
1270 -2262 0
-1271 2263 0
1271 -2263 0
-1272 2264 0
1272 -2264 0
-1273 2265 0
1273 -2265 0
-1274 2266 0
1274 -2266 0
-1275 2267 0
1275 -2267 0
-1276 2268 0
1276 -2268 0
-1277 2269 0
1277 -2269 0
-1278 2270 0
1278 -2270 0
-1279 2271 0
1279 -2271 0
-1280 2272 0
1280 -2272 0
-2273 2755 0
2273 -2755 0
-2274 2756 0
2274 -2756 0
-2275 2757 0
2275 -2757 0
-2276 2758 0
2276 -2758 0
-2277 2759 0
2277 -2759 0
-2278 2760 0
2278 -2760 0
-2279 2761 0
2279 -2761 0
-2280 2762 0
2280 -2762 0
-2281 2763 0
2281 -2763 0
-2282 2764 0
2282 -2764 0
-2283 2765 0
2283 -2765 0
-2284 2766 0
2284 -2766 0
-2285 2767 0
2285 -2767 0
-2286 2768 0
2286 -2768 0
-2287 2769 0
2287 -2769 0
-2288 2770 0
2288 -2770 0
-2289 2771 0
2289 -2771 0
-2290 2772 0
2290 -2772 0
-2291 2773 0
2291 -2773 0
-2292 2774 0
2292 -2774 0
-2293 2775 0
2293 -2775 0
-2294 2776 0
2294 -2776 0
-2295 2777 0
2295 -2777 0
-2296 2778 0
2296 -2778 0
-2297 2779 0
2297 -2779 0
-2298 2780 0
2298 -2780 0
-2299 2781 0
2299 -2781 0
-2300 2782 0
2300 -2782 0
-2301 2783 0
2301 -2783 0
-2302 2784 0
2302 -2784 0
-2303 2785 0
2303 -2785 0
-2304 2786 0
2304 -2786 0
-2305 2787 0
2305 -2787 0
-2306 2788 0
2306 -2788 0
-2307 2789 0
2307 -2789 0
-2308 2790 0
2308 -2790 0
-2309 2791 0
2309 -2791 0
-2310 2792 0
2310 -2792 0
-2311 2793 0
2311 -2793 0
-2312 2794 0
2312 -2794 0
-2313 2795 0
2313 -2795 0
-2314 2796 0
2314 -2796 0
-2315 2797 0
2315 -2797 0
-2316 2798 0
2316 -2798 0
-2317 2799 0
2317 -2799 0
-2318 2800 0
2318 -2800 0
-2319 2801 0
2319 -2801 0
-2320 2802 0
2320 -2802 0
-2321 2803 0
2321 -2803 0
-2322 2804 0
2322 -2804 0
-2323 2805 0
2323 -2805 0
-2324 2806 0
2324 -2806 0
-2325 2807 0
2325 -2807 0
-2326 2808 0
2326 -2808 0
-2327 2809 0
2327 -2809 0
-2328 2810 0
2328 -2810 0
-2329 2811 0
2329 -2811 0
-2330 2812 0
2330 -2812 0
-2331 2813 0
2331 -2813 0
-2332 2814 0
2332 -2814 0
-2333 2815 0
2333 -2815 0
-2334 2816 0
2334 -2816 0
-2335 2817 0
2335 -2817 0
-2336 2818 0
2336 -2818 0
-2337 2819 0
2337 -2819 0
-2338 2820 0
2338 -2820 0
-2339 2821 0
2339 -2821 0
-2340 2822 0
2340 -2822 0
-2341 2823 0
2341 -2823 0
-2342 2824 0
2342 -2824 0
-2343 2825 0
2343 -2825 0
-2344 2826 0
2344 -2826 0
-2345 2827 0
2345 -2827 0
-2346 2828 0
2346 -2828 0
-2347 2829 0
2347 -2829 0
-2348 2830 0
2348 -2830 0
-2349 2831 0
2349 -2831 0
-2350 2832 0
2350 -2832 0
-2351 2833 0
2351 -2833 0
-2352 2834 0
2352 -2834 0
-2353 2835 0
2353 -2835 0
-2354 2836 0
2354 -2836 0
-2355 2837 0
2355 -2837 0
-2356 2838 0
2356 -2838 0
-2357 2839 0
2357 -2839 0
-2358 2840 0
2358 -2840 0
-2359 2841 0
2359 -2841 0
-2360 2842 0
2360 -2842 0
-2361 2843 0
2361 -2843 0
-2362 2844 0
2362 -2844 0
-2363 2845 0
2363 -2845 0
-2364 2846 0
2364 -2846 0
-2365 2847 0
2365 -2847 0
-2366 2848 0
2366 -2848 0
-2367 2849 0
2367 -2849 0
-2368 2850 0
2368 -2850 0
-2369 2851 0
2369 -2851 0
-2370 2852 0
2370 -2852 0
-2371 2853 0
2371 -2853 0
-2372 2854 0
2372 -2854 0
-2373 2855 0
2373 -2855 0
-2374 2856 0
2374 -2856 0
-2375 2857 0
2375 -2857 0
-2376 2858 0
2376 -2858 0
-2377 2859 0
2377 -2859 0
-2378 2860 0
2378 -2860 0
-2379 2861 0
2379 -2861 0
-2380 2862 0
2380 -2862 0
-2381 2863 0
2381 -2863 0
-2382 2864 0
2382 -2864 0
-2383 2865 0
2383 -2865 0
-2384 2866 0
2384 -2866 0
-2385 2867 0
2385 -2867 0
-2386 2868 0
2386 -2868 0
-2387 2869 0
2387 -2869 0
-2388 2870 0
2388 -2870 0
-2389 2871 0
2389 -2871 0
-2390 2872 0
2390 -2872 0
-2391 2873 0
2391 -2873 0
-2392 2874 0
2392 -2874 0
-2393 2875 0
2393 -2875 0
-2394 2876 0
2394 -2876 0
-2395 2877 0
2395 -2877 0
-2396 2878 0
2396 -2878 0
-2397 2879 0
2397 -2879 0
-2398 2880 0
2398 -2880 0
-2399 2881 0
2399 -2881 0
-2400 2882 0
2400 -2882 0
-2883 3011 0
2883 -3011 0
-2884 3012 0
2884 -3012 0
-2885 3013 0
2885 -3013 0
-2886 3014 0
2886 -3014 0
-2887 3015 0
2887 -3015 0
-2888 3016 0
2888 -3016 0
-2889 3017 0
2889 -3017 0
-2890 3018 0
2890 -3018 0
-2891 3019 0
2891 -3019 0
-2892 3020 0
2892 -3020 0
-2893 3021 0
2893 -3021 0
-2894 3022 0
2894 -3022 0
-2895 3023 0
2895 -3023 0
-2896 3024 0
2896 -3024 0
-2897 3025 0
2897 -3025 0
-2898 3026 0
2898 -3026 0
-2899 3027 0
2899 -3027 0
-2900 3028 0
2900 -3028 0
-2901 3029 0
2901 -3029 0
-2902 3030 0
2902 -3030 0
-2903 3031 0
2903 -3031 0
-2904 3032 0
2904 -3032 0
-2905 3033 0
2905 -3033 0
-2906 3034 0
2906 -3034 0
-2907 3035 0
2907 -3035 0
-2908 3036 0
2908 -3036 0
-2909 3037 0
2909 -3037 0
-2910 3038 0
2910 -3038 0
-2911 3039 0
2911 -3039 0
-2912 3040 0
2912 -3040 0
-2913 3041 0
2913 -3041 0
-2914 3042 0
2914 -3042 0
-2915 3043 0
2915 -3043 0
-2916 3044 0
2916 -3044 0
-2917 3045 0
2917 -3045 0
-2918 3046 0
2918 -3046 0
-2919 3047 0
2919 -3047 0
-2920 3048 0
2920 -3048 0
-2921 3049 0
2921 -3049 0
-2922 3050 0
2922 -3050 0
-2923 3051 0
2923 -3051 0
-2924 3052 0
2924 -3052 0
-2925 3053 0
2925 -3053 0
-2926 3054 0
2926 -3054 0
-2927 3055 0
2927 -3055 0
-2928 3056 0
2928 -3056 0
-2929 3057 0
2929 -3057 0
-2930 3058 0
2930 -3058 0
-2931 3059 0
2931 -3059 0
-2932 3060 0
2932 -3060 0
-2933 3061 0
2933 -3061 0
-2934 3062 0
2934 -3062 0
-2935 3063 0
2935 -3063 0
-2936 3064 0
2936 -3064 0
-2937 3065 0
2937 -3065 0
-2938 3066 0
2938 -3066 0
-2939 3067 0
2939 -3067 0
-2940 3068 0
2940 -3068 0
-2941 3069 0
2941 -3069 0
-2942 3070 0
2942 -3070 0
-2943 3071 0
2943 -3071 0
-2944 3072 0
2944 -3072 0
-2945 3073 0
2945 -3073 0
-2946 3074 0
2946 -3074 0
-2947 3075 0
2947 -3075 0
-2948 3076 0
2948 -3076 0
-2949 3077 0
2949 -3077 0
-2950 3078 0
2950 -3078 0
-2951 3079 0
2951 -3079 0
-2952 3080 0
2952 -3080 0
-2953 3081 0
2953 -3081 0
-2954 3082 0
2954 -3082 0
-2955 3083 0
2955 -3083 0
-2956 3084 0
2956 -3084 0
-2957 3085 0
2957 -3085 0
-2958 3086 0
2958 -3086 0
-2959 3087 0
2959 -3087 0
-2960 3088 0
2960 -3088 0
-2961 3089 0
2961 -3089 0
-2962 3090 0
2962 -3090 0
-2963 3091 0
2963 -3091 0
-2964 3092 0
2964 -3092 0
-2965 3093 0
2965 -3093 0
-2966 3094 0
2966 -3094 0
-2967 3095 0
2967 -3095 0
-2968 3096 0
2968 -3096 0
-2969 3097 0
2969 -3097 0
-2970 3098 0
2970 -3098 0
-2971 3099 0
2971 -3099 0
-2972 3100 0
2972 -3100 0
-2973 3101 0
2973 -3101 0
-2974 3102 0
2974 -3102 0
-2975 3103 0
2975 -3103 0
-2976 3104 0
2976 -3104 0
-2977 3105 0
2977 -3105 0
-2978 3106 0
2978 -3106 0
-2979 3107 0
2979 -3107 0
-2980 3108 0
2980 -3108 0
-2981 3109 0
2981 -3109 0
-2982 3110 0
2982 -3110 0
-2983 3111 0
2983 -3111 0
-2984 3112 0
2984 -3112 0
-2985 3113 0
2985 -3113 0
-2986 3114 0
2986 -3114 0
-2987 3115 0
2987 -3115 0
-2988 3116 0
2988 -3116 0
-2989 3117 0
2989 -3117 0
-2990 3118 0
2990 -3118 0
-2991 3119 0
2991 -3119 0
-2992 3120 0
2992 -3120 0
-2993 3121 0
2993 -3121 0
-2994 3122 0
2994 -3122 0
-2995 3123 0
2995 -3123 0
-2996 3124 0
2996 -3124 0
-2997 3125 0
2997 -3125 0
-2998 3126 0
2998 -3126 0
-2999 3127 0
2999 -3127 0
-3000 3128 0
3000 -3128 0
-3001 3129 0
3001 -3129 0
-3002 3130 0
3002 -3130 0
-3003 3131 0
3003 -3131 0
-3004 3132 0
3004 -3132 0
-3005 3133 0
3005 -3133 0
-3006 3134 0
3006 -3134 0
-3007 3135 0
3007 -3135 0
-3008 3136 0
3008 -3136 0
-3009 3137 0
3009 -3137 0
-3010 3138 0
3010 -3138 0
-3139 4131 0
3139 -4131 0
-3140 4132 0
3140 -4132 0
-3141 4133 0
3141 -4133 0
-3142 4134 0
3142 -4134 0
-3143 4135 0
3143 -4135 0
-3144 4136 0
3144 -4136 0
-3145 4137 0
3145 -4137 0
-3146 4138 0
3146 -4138 0
-3147 4139 0
3147 -4139 0
-3148 4140 0
3148 -4140 0
-3149 4141 0
3149 -4141 0
-3150 4142 0
3150 -4142 0
-3151 4143 0
3151 -4143 0
-3152 4144 0
3152 -4144 0
-3153 4145 0
3153 -4145 0
-3154 4146 0
3154 -4146 0
-3155 4147 0
3155 -4147 0
-3156 4148 0
3156 -4148 0
-3157 4149 0
3157 -4149 0
-3158 4150 0
3158 -4150 0
-3159 4151 0
3159 -4151 0
-3160 4152 0
3160 -4152 0
-3161 4153 0
3161 -4153 0
-3162 4154 0
3162 -4154 0
-3163 4155 0
3163 -4155 0
-3164 4156 0
3164 -4156 0
-3165 4157 0
3165 -4157 0
-3166 4158 0
3166 -4158 0
-3167 4159 0
3167 -4159 0
-3168 4160 0
3168 -4160 0
-3169 4161 0
3169 -4161 0
-3170 4162 0
3170 -4162 0
-3171 4163 0
3171 -4163 0
-3172 4164 0
3172 -4164 0
-3173 4165 0
3173 -4165 0
-3174 4166 0
3174 -4166 0
-3175 4167 0
3175 -4167 0
-3176 4168 0
3176 -4168 0
-3177 4169 0
3177 -4169 0
-3178 4170 0
3178 -4170 0
-3179 4171 0
3179 -4171 0
-3180 4172 0
3180 -4172 0
-3181 4173 0
3181 -4173 0
-3182 4174 0
3182 -4174 0
-3183 4175 0
3183 -4175 0
-3184 4176 0
3184 -4176 0
-3185 4177 0
3185 -4177 0
-3186 4178 0
3186 -4178 0
-3187 4179 0
3187 -4179 0
-3188 4180 0
3188 -4180 0
-3189 4181 0
3189 -4181 0
-3190 4182 0
3190 -4182 0
-3191 4183 0
3191 -4183 0
-3192 4184 0
3192 -4184 0
-3193 4185 0
3193 -4185 0
-3194 4186 0
3194 -4186 0
-3195 4187 0
3195 -4187 0
-3196 4188 0
3196 -4188 0
-3197 4189 0
3197 -4189 0
-3198 4190 0
3198 -4190 0
-3199 4191 0
3199 -4191 0
-3200 4192 0
3200 -4192 0
-3201 4193 0
3201 -4193 0
-3202 4194 0
3202 -4194 0
-3203 4195 0
3203 -4195 0
-3204 4196 0
3204 -4196 0
-3205 4197 0
3205 -4197 0
-3206 4198 0
3206 -4198 0
-3207 4199 0
3207 -4199 0
-3208 4200 0
3208 -4200 0
-3209 4201 0
3209 -4201 0
-3210 4202 0
3210 -4202 0
-3211 4203 0
3211 -4203 0
-3212 4204 0
3212 -4204 0
-3213 4205 0
3213 -4205 0
-3214 4206 0
3214 -4206 0
-3215 4207 0
3215 -4207 0
-3216 4208 0
3216 -4208 0
-3217 4209 0
3217 -4209 0
-3218 4210 0
3218 -4210 0
-3219 4211 0
3219 -4211 0
-3220 4212 0
3220 -4212 0
-3221 4213 0
3221 -4213 0
-3222 4214 0
3222 -4214 0
-3223 4215 0
3223 -4215 0
-3224 4216 0
3224 -4216 0
-3225 4217 0
3225 -4217 0
-3226 4218 0
3226 -4218 0
-3227 4219 0
3227 -4219 0
-3228 4220 0
3228 -4220 0
-3229 4221 0
3229 -4221 0
-3230 4222 0
3230 -4222 0
-3231 4223 0
3231 -4223 0
-3232 4224 0
3232 -4224 0
-3233 4225 0
3233 -4225 0
-3234 4226 0
3234 -4226 0
-3235 4227 0
3235 -4227 0
-3236 4228 0
3236 -4228 0
-3237 4229 0
3237 -4229 0
-3238 4230 0
3238 -4230 0
-3239 4231 0
3239 -4231 0
-3240 4232 0
3240 -4232 0
-3241 4233 0
3241 -4233 0
-3242 4234 0
3242 -4234 0
-3243 4235 0
3243 -4235 0
-3244 4236 0
3244 -4236 0
-3245 4237 0
3245 -4237 0
-3246 4238 0
3246 -4238 0
-3247 4239 0
3247 -4239 0
-3248 4240 0
3248 -4240 0
-3249 4241 0
3249 -4241 0
-3250 4242 0
3250 -4242 0
-3251 4243 0
3251 -4243 0
-3252 4244 0
3252 -4244 0
-3253 4245 0
3253 -4245 0
-3254 4246 0
3254 -4246 0
-3255 4247 0
3255 -4247 0
-3256 4248 0
3256 -4248 0
-3257 4249 0
3257 -4249 0
-3258 4250 0
3258 -4250 0
-3259 4251 0
3259 -4251 0
-3260 4252 0
3260 -4252 0
-3261 4253 0
3261 -4253 0
-3262 4254 0
3262 -4254 0
-3263 4255 0
3263 -4255 0
-3264 4256 0
3264 -4256 0
-3265 4257 0
3265 -4257 0
-3266 4258 0
3266 -4258 0
-4259 4741 0
4259 -4741 0
-4260 4742 0
4260 -4742 0
-4261 4743 0
4261 -4743 0
-4262 4744 0
4262 -4744 0
-4263 4745 0
4263 -4745 0
-4264 4746 0
4264 -4746 0
-4265 4747 0
4265 -4747 0
-4266 4748 0
4266 -4748 0
-4267 4749 0
4267 -4749 0
-4268 4750 0
4268 -4750 0
-4269 4751 0
4269 -4751 0
-4270 4752 0
4270 -4752 0
-4271 4753 0
4271 -4753 0
-4272 4754 0
4272 -4754 0
-4273 4755 0
4273 -4755 0
-4274 4756 0
4274 -4756 0
-4275 4757 0
4275 -4757 0
-4276 4758 0
4276 -4758 0
-4277 4759 0
4277 -4759 0
-4278 4760 0
4278 -4760 0
-4279 4761 0
4279 -4761 0
-4280 4762 0
4280 -4762 0
-4281 4763 0
4281 -4763 0
-4282 4764 0
4282 -4764 0
-4283 4765 0
4283 -4765 0
-4284 4766 0
4284 -4766 0
-4285 4767 0
4285 -4767 0
-4286 4768 0
4286 -4768 0
-4287 4769 0
4287 -4769 0
-4288 4770 0
4288 -4770 0
-4289 4771 0
4289 -4771 0
-4290 4772 0
4290 -4772 0
-4291 4773 0
4291 -4773 0
-4292 4774 0
4292 -4774 0
-4293 4775 0
4293 -4775 0
-4294 4776 0
4294 -4776 0
-4295 4777 0
4295 -4777 0
-4296 4778 0
4296 -4778 0
-4297 4779 0
4297 -4779 0
-4298 4780 0
4298 -4780 0
-4299 4781 0
4299 -4781 0
-4300 4782 0
4300 -4782 0
-4301 4783 0
4301 -4783 0
-4302 4784 0
4302 -4784 0
-4303 4785 0
4303 -4785 0
-4304 4786 0
4304 -4786 0
-4305 4787 0
4305 -4787 0
-4306 4788 0
4306 -4788 0
-4307 4789 0
4307 -4789 0
-4308 4790 0
4308 -4790 0
-4309 4791 0
4309 -4791 0
-4310 4792 0
4310 -4792 0
-4311 4793 0
4311 -4793 0
-4312 4794 0
4312 -4794 0
-4313 4795 0
4313 -4795 0
-4314 4796 0
4314 -4796 0
-4315 4797 0
4315 -4797 0
-4316 4798 0
4316 -4798 0
-4317 4799 0
4317 -4799 0
-4318 4800 0
4318 -4800 0
-4319 4801 0
4319 -4801 0
-4320 4802 0
4320 -4802 0
-4321 4803 0
4321 -4803 0
-4322 4804 0
4322 -4804 0
-4323 4805 0
4323 -4805 0
-4324 4806 0
4324 -4806 0
-4325 4807 0
4325 -4807 0
-4326 4808 0
4326 -4808 0
-4327 4809 0
4327 -4809 0
-4328 4810 0
4328 -4810 0
-4329 4811 0
4329 -4811 0
-4330 4812 0
4330 -4812 0
-4331 4813 0
4331 -4813 0
-4332 4814 0
4332 -4814 0
-4333 4815 0
4333 -4815 0
-4334 4816 0
4334 -4816 0
-4335 4817 0
4335 -4817 0
-4336 4818 0
4336 -4818 0
-4337 4819 0
4337 -4819 0
-4338 4820 0
4338 -4820 0
-4339 4821 0
4339 -4821 0
-4340 4822 0
4340 -4822 0
-4341 4823 0
4341 -4823 0
-4342 4824 0
4342 -4824 0
-4343 4825 0
4343 -4825 0
-4344 4826 0
4344 -4826 0
-4345 4827 0
4345 -4827 0
-4346 4828 0
4346 -4828 0
-4347 4829 0
4347 -4829 0
-4348 4830 0
4348 -4830 0
-4349 4831 0
4349 -4831 0
-4350 4832 0
4350 -4832 0
-4351 4833 0
4351 -4833 0
-4352 4834 0
4352 -4834 0
-4353 4835 0
4353 -4835 0
-4354 4836 0
4354 -4836 0
-4355 4837 0
4355 -4837 0
-4356 4838 0
4356 -4838 0
-4357 4839 0
4357 -4839 0
-4358 4840 0
4358 -4840 0
-4359 4841 0
4359 -4841 0
-4360 4842 0
4360 -4842 0
-4361 4843 0
4361 -4843 0
-4362 4844 0
4362 -4844 0
-4363 4845 0
4363 -4845 0
-4364 4846 0
4364 -4846 0
-4365 4847 0
4365 -4847 0
-4366 4848 0
4366 -4848 0
-4367 4849 0
4367 -4849 0
-4368 4850 0
4368 -4850 0
-4369 4851 0
4369 -4851 0
-4370 4852 0
4370 -4852 0
-4371 4853 0
4371 -4853 0
-4372 4854 0
4372 -4854 0
-4373 4855 0
4373 -4855 0
-4374 4856 0
4374 -4856 0
-4375 4857 0
4375 -4857 0
-4376 4858 0
4376 -4858 0
-4377 4859 0
4377 -4859 0
-4378 4860 0
4378 -4860 0
-4379 4861 0
4379 -4861 0
-4380 4862 0
4380 -4862 0
-4381 4863 0
4381 -4863 0
-4382 4864 0
4382 -4864 0
-4383 4865 0
4383 -4865 0
-4384 4866 0
4384 -4866 0
-4385 4867 0
4385 -4867 0
-4386 4868 0
4386 -4868 0
-4869 4997 0
4869 -4997 0
-4870 4998 0
4870 -4998 0
-4871 4999 0
4871 -4999 0
-4872 5000 0
4872 -5000 0
-4873 5001 0
4873 -5001 0
-4874 5002 0
4874 -5002 0
-4875 5003 0
4875 -5003 0
-4876 5004 0
4876 -5004 0
-4877 5005 0
4877 -5005 0
-4878 5006 0
4878 -5006 0
-4879 5007 0
4879 -5007 0
-4880 5008 0
4880 -5008 0
-4881 5009 0
4881 -5009 0
-4882 5010 0
4882 -5010 0
-4883 5011 0
4883 -5011 0
-4884 5012 0
4884 -5012 0
-4885 5013 0
4885 -5013 0
-4886 5014 0
4886 -5014 0
-4887 5015 0
4887 -5015 0
-4888 5016 0
4888 -5016 0
-4889 5017 0
4889 -5017 0
-4890 5018 0
4890 -5018 0
-4891 5019 0
4891 -5019 0
-4892 5020 0
4892 -5020 0
-4893 5021 0
4893 -5021 0
-4894 5022 0
4894 -5022 0
-4895 5023 0
4895 -5023 0
-4896 5024 0
4896 -5024 0
-4897 5025 0
4897 -5025 0
-4898 5026 0
4898 -5026 0
-4899 5027 0
4899 -5027 0
-4900 5028 0
4900 -5028 0
-4901 5029 0
4901 -5029 0
-4902 5030 0
4902 -5030 0
-4903 5031 0
4903 -5031 0
-4904 5032 0
4904 -5032 0
-4905 5033 0
4905 -5033 0
-4906 5034 0
4906 -5034 0
-4907 5035 0
4907 -5035 0
-4908 5036 0
4908 -5036 0
-4909 5037 0
4909 -5037 0
-4910 5038 0
4910 -5038 0
-4911 5039 0
4911 -5039 0
-4912 5040 0
4912 -5040 0
-4913 5041 0
4913 -5041 0
-4914 5042 0
4914 -5042 0
-4915 5043 0
4915 -5043 0
-4916 5044 0
4916 -5044 0
-4917 5045 0
4917 -5045 0
-4918 5046 0
4918 -5046 0
-4919 5047 0
4919 -5047 0
-4920 5048 0
4920 -5048 0
-4921 5049 0
4921 -5049 0
-4922 5050 0
4922 -5050 0
-4923 5051 0
4923 -5051 0
-4924 5052 0
4924 -5052 0
-4925 5053 0
4925 -5053 0
-4926 5054 0
4926 -5054 0
-4927 5055 0
4927 -5055 0
-4928 5056 0
4928 -5056 0
-4929 5057 0
4929 -5057 0
-4930 5058 0
4930 -5058 0
-4931 5059 0
4931 -5059 0
-4932 5060 0
4932 -5060 0
-4933 5061 0
4933 -5061 0
-4934 5062 0
4934 -5062 0
-4935 5063 0
4935 -5063 0
-4936 5064 0
4936 -5064 0
-4937 5065 0
4937 -5065 0
-4938 5066 0
4938 -5066 0
-4939 5067 0
4939 -5067 0
-4940 5068 0
4940 -5068 0
-4941 5069 0
4941 -5069 0
-4942 5070 0
4942 -5070 0
-4943 5071 0
4943 -5071 0
-4944 5072 0
4944 -5072 0
-4945 5073 0
4945 -5073 0
-4946 5074 0
4946 -5074 0
-4947 5075 0
4947 -5075 0
-4948 5076 0
4948 -5076 0
-4949 5077 0
4949 -5077 0
-4950 5078 0
4950 -5078 0
-4951 5079 0
4951 -5079 0
-4952 5080 0
4952 -5080 0
-4953 5081 0
4953 -5081 0
-4954 5082 0
4954 -5082 0
-4955 5083 0
4955 -5083 0
-4956 5084 0
4956 -5084 0
-4957 5085 0
4957 -5085 0
-4958 5086 0
4958 -5086 0
-4959 5087 0
4959 -5087 0
-4960 5088 0
4960 -5088 0
-4961 5089 0
4961 -5089 0
-4962 5090 0
4962 -5090 0
-4963 5091 0
4963 -5091 0
-4964 5092 0
4964 -5092 0
-4965 5093 0
4965 -5093 0
-4966 5094 0
4966 -5094 0
-4967 5095 0
4967 -5095 0
-4968 5096 0
4968 -5096 0
-4969 5097 0
4969 -5097 0
-4970 5098 0
4970 -5098 0
-4971 5099 0
4971 -5099 0
-4972 5100 0
4972 -5100 0
-4973 5101 0
4973 -5101 0
-4974 5102 0
4974 -5102 0
-4975 5103 0
4975 -5103 0
-4976 5104 0
4976 -5104 0
-4977 5105 0
4977 -5105 0
-4978 5106 0
4978 -5106 0
-4979 5107 0
4979 -5107 0
-4980 5108 0
4980 -5108 0
-4981 5109 0
4981 -5109 0
-4982 5110 0
4982 -5110 0
-4983 5111 0
4983 -5111 0
-4984 5112 0
4984 -5112 0
-4985 5113 0
4985 -5113 0
-4986 5114 0
4986 -5114 0
-4987 5115 0
4987 -5115 0
-4988 5116 0
4988 -5116 0
-4989 5117 0
4989 -5117 0
-4990 5118 0
4990 -5118 0
-4991 5119 0
4991 -5119 0
-4992 5120 0
4992 -5120 0
-4993 5121 0
4993 -5121 0
-4994 5122 0
4994 -5122 0
-4995 5123 0
4995 -5123 0
-4996 5124 0
4996 -5124 0
-5125 6117 0
5125 -6117 0
-5126 6118 0
5126 -6118 0
-5127 6119 0
5127 -6119 0
-5128 6120 0
5128 -6120 0
-5129 6121 0
5129 -6121 0
-5130 6122 0
5130 -6122 0
-5131 6123 0
5131 -6123 0
-5132 6124 0
5132 -6124 0
-5133 6125 0
5133 -6125 0
-5134 6126 0
5134 -6126 0
-5135 6127 0
5135 -6127 0
-5136 6128 0
5136 -6128 0
-5137 6129 0
5137 -6129 0
-5138 6130 0
5138 -6130 0
-5139 6131 0
5139 -6131 0
-5140 6132 0
5140 -6132 0
-5141 6133 0
5141 -6133 0
-5142 6134 0
5142 -6134 0
-5143 6135 0
5143 -6135 0
-5144 6136 0
5144 -6136 0
-5145 6137 0
5145 -6137 0
-5146 6138 0
5146 -6138 0
-5147 6139 0
5147 -6139 0
-5148 6140 0
5148 -6140 0
-5149 6141 0
5149 -6141 0
-5150 6142 0
5150 -6142 0
-5151 6143 0
5151 -6143 0
-5152 6144 0
5152 -6144 0
-5153 6145 0
5153 -6145 0
-5154 6146 0
5154 -6146 0
-5155 6147 0
5155 -6147 0
-5156 6148 0
5156 -6148 0
-5157 6149 0
5157 -6149 0
-5158 6150 0
5158 -6150 0
-5159 6151 0
5159 -6151 0
-5160 6152 0
5160 -6152 0
-5161 6153 0
5161 -6153 0
-5162 6154 0
5162 -6154 0
-5163 6155 0
5163 -6155 0
-5164 6156 0
5164 -6156 0
-5165 6157 0
5165 -6157 0
-5166 6158 0
5166 -6158 0
-5167 6159 0
5167 -6159 0
-5168 6160 0
5168 -6160 0
-5169 6161 0
5169 -6161 0
-5170 6162 0
5170 -6162 0
-5171 6163 0
5171 -6163 0
-5172 6164 0
5172 -6164 0
-5173 6165 0
5173 -6165 0
-5174 6166 0
5174 -6166 0
-5175 6167 0
5175 -6167 0
-5176 6168 0
5176 -6168 0
-5177 6169 0
5177 -6169 0
-5178 6170 0
5178 -6170 0
-5179 6171 0
5179 -6171 0
-5180 6172 0
5180 -6172 0
-5181 6173 0
5181 -6173 0
-5182 6174 0
5182 -6174 0
-5183 6175 0
5183 -6175 0
-5184 6176 0
5184 -6176 0
-5185 6177 0
5185 -6177 0
-5186 6178 0
5186 -6178 0
-5187 6179 0
5187 -6179 0
-5188 6180 0
5188 -6180 0
-5189 6181 0
5189 -6181 0
-5190 6182 0
5190 -6182 0
-5191 6183 0
5191 -6183 0
-5192 6184 0
5192 -6184 0
-5193 6185 0
5193 -6185 0
-5194 6186 0
5194 -6186 0
-5195 6187 0
5195 -6187 0
-5196 6188 0
5196 -6188 0
-5197 6189 0
5197 -6189 0
-5198 6190 0
5198 -6190 0
-5199 6191 0
5199 -6191 0
-5200 6192 0
5200 -6192 0
-5201 6193 0
5201 -6193 0
-5202 6194 0
5202 -6194 0
-5203 6195 0
5203 -6195 0
-5204 6196 0
5204 -6196 0
-5205 6197 0
5205 -6197 0
-5206 6198 0
5206 -6198 0
-5207 6199 0
5207 -6199 0
-5208 6200 0
5208 -6200 0
-5209 6201 0
5209 -6201 0
-5210 6202 0
5210 -6202 0
-5211 6203 0
5211 -6203 0
-5212 6204 0
5212 -6204 0
-5213 6205 0
5213 -6205 0
-5214 6206 0
5214 -6206 0
-5215 6207 0
5215 -6207 0
-5216 6208 0
5216 -6208 0
-5217 6209 0
5217 -6209 0
-5218 6210 0
5218 -6210 0
-5219 6211 0
5219 -6211 0
-5220 6212 0
5220 -6212 0
-5221 6213 0
5221 -6213 0
-5222 6214 0
5222 -6214 0
-5223 6215 0
5223 -6215 0
-5224 6216 0
5224 -6216 0
-5225 6217 0
5225 -6217 0
-5226 6218 0
5226 -6218 0
-5227 6219 0
5227 -6219 0
-5228 6220 0
5228 -6220 0
-5229 6221 0
5229 -6221 0
-5230 6222 0
5230 -6222 0
-5231 6223 0
5231 -6223 0
-5232 6224 0
5232 -6224 0
-5233 6225 0
5233 -6225 0
-5234 6226 0
5234 -6226 0
-5235 6227 0
5235 -6227 0
-5236 6228 0
5236 -6228 0
-5237 6229 0
5237 -6229 0
-5238 6230 0
5238 -6230 0
-5239 6231 0
5239 -6231 0
-5240 6232 0
5240 -6232 0
-5241 6233 0
5241 -6233 0
-5242 6234 0
5242 -6234 0
-5243 6235 0
5243 -6235 0
-5244 6236 0
5244 -6236 0
-5245 6237 0
5245 -6237 0
-5246 6238 0
5246 -6238 0
-5247 6239 0
5247 -6239 0
-5248 6240 0
5248 -6240 0
-5249 6241 0
5249 -6241 0
-5250 6242 0
5250 -6242 0
-5251 6243 0
5251 -6243 0
-5252 6244 0
5252 -6244 0
-6245 6373 0
6245 -6373 0
-6246 6374 0
6246 -6374 0
-6247 6375 0
6247 -6375 0
-6248 6376 0
6248 -6376 0
-6249 6377 0
6249 -6377 0
-6250 6378 0
6250 -6378 0
-6251 6379 0
6251 -6379 0
-6252 6380 0
6252 -6380 0
-6253 6381 0
6253 -6381 0
-6254 6382 0
6254 -6382 0
-6255 6383 0
6255 -6383 0
-6256 6384 0
6256 -6384 0
-6257 6385 0
6257 -6385 0
-6258 6386 0
6258 -6386 0
-6259 6387 0
6259 -6387 0
-6260 6388 0
6260 -6388 0
-6261 6389 0
6261 -6389 0
-6262 6390 0
6262 -6390 0
-6263 6391 0
6263 -6391 0
-6264 6392 0
6264 -6392 0
-6265 6393 0
6265 -6393 0
-6266 6394 0
6266 -6394 0
-6267 6395 0
6267 -6395 0
-6268 6396 0
6268 -6396 0
-6269 6397 0
6269 -6397 0
-6270 6398 0
6270 -6398 0
-6271 6399 0
6271 -6399 0
-6272 6400 0
6272 -6400 0
-6273 6401 0
6273 -6401 0
-6274 6402 0
6274 -6402 0
-6275 6403 0
6275 -6403 0
-6276 6404 0
6276 -6404 0
-6277 6405 0
6277 -6405 0
-6278 6406 0
6278 -6406 0
-6279 6407 0
6279 -6407 0
-6280 6408 0
6280 -6408 0
-6281 6409 0
6281 -6409 0
-6282 6410 0
6282 -6410 0
-6283 6411 0
6283 -6411 0
-6284 6412 0
6284 -6412 0
-6285 6413 0
6285 -6413 0
-6286 6414 0
6286 -6414 0
-6287 6415 0
6287 -6415 0
-6288 6416 0
6288 -6416 0
-6289 6417 0
6289 -6417 0
-6290 6418 0
6290 -6418 0
-6291 6419 0
6291 -6419 0
-6292 6420 0
6292 -6420 0
-6293 6421 0
6293 -6421 0
-6294 6422 0
6294 -6422 0
-6295 6423 0
6295 -6423 0
-6296 6424 0
6296 -6424 0
-6297 6425 0
6297 -6425 0
-6298 6426 0
6298 -6426 0
-6299 6427 0
6299 -6427 0
-6300 6428 0
6300 -6428 0
-6301 6429 0
6301 -6429 0
-6302 6430 0
6302 -6430 0
-6303 6431 0
6303 -6431 0
-6304 6432 0
6304 -6432 0
-6305 6433 0
6305 -6433 0
-6306 6434 0
6306 -6434 0
-6307 6435 0
6307 -6435 0
-6308 6436 0
6308 -6436 0
-6309 6437 0
6309 -6437 0
-6310 6438 0
6310 -6438 0
-6311 6439 0
6311 -6439 0
-6312 6440 0
6312 -6440 0
-6313 6441 0
6313 -6441 0
-6314 6442 0
6314 -6442 0
-6315 6443 0
6315 -6443 0
-6316 6444 0
6316 -6444 0
-6317 6445 0
6317 -6445 0
-6318 6446 0
6318 -6446 0
-6319 6447 0
6319 -6447 0
-6320 6448 0
6320 -6448 0
-6321 6449 0
6321 -6449 0
-6322 6450 0
6322 -6450 0
-6323 6451 0
6323 -6451 0
-6324 6452 0
6324 -6452 0
-6325 6453 0
6325 -6453 0
-6326 6454 0
6326 -6454 0
-6327 6455 0
6327 -6455 0
-6328 6456 0
6328 -6456 0
-6329 6457 0
6329 -6457 0
-6330 6458 0
6330 -6458 0
-6331 6459 0
6331 -6459 0
-6332 6460 0
6332 -6460 0
-6333 6461 0
6333 -6461 0
-6334 6462 0
6334 -6462 0
-6335 6463 0
6335 -6463 0
-6336 6464 0
6336 -6464 0
-6337 6465 0
6337 -6465 0
-6338 6466 0
6338 -6466 0
-6339 6467 0
6339 -6467 0
-6340 6468 0
6340 -6468 0
-6341 6469 0
6341 -6469 0
-6342 6470 0
6342 -6470 0
-6343 6471 0
6343 -6471 0
-6344 6472 0
6344 -6472 0
-6345 6473 0
6345 -6473 0
-6346 6474 0
6346 -6474 0
-6347 6475 0
6347 -6475 0
-6348 6476 0
6348 -6476 0
-6349 6477 0
6349 -6477 0
-6350 6478 0
6350 -6478 0
-6351 6479 0
6351 -6479 0
-6352 6480 0
6352 -6480 0
-6353 6481 0
6353 -6481 0
-6354 6482 0
6354 -6482 0
-6355 6483 0
6355 -6483 0
-6356 6484 0
6356 -6484 0
-6357 6485 0
6357 -6485 0
-6358 6486 0
6358 -6486 0
-6359 6487 0
6359 -6487 0
-6360 6488 0
6360 -6488 0
-6361 6489 0
6361 -6489 0
-6362 6490 0
6362 -6490 0
-6363 6491 0
6363 -6491 0
-6364 6492 0
6364 -6492 0
-6365 6493 0
6365 -6493 0
-6366 6494 0
6366 -6494 0
-6367 6495 0
6367 -6495 0
-6368 6496 0
6368 -6496 0
-6369 6497 0
6369 -6497 0
-6370 6498 0
6370 -6498 0
-6371 6499 0
6371 -6499 0
-6372 6500 0
6372 -6500 0
-6501 6629 0
6501 -6629 0
-6502 6630 0
6502 -6630 0
-6503 6631 0
6503 -6631 0
-6504 6632 0
6504 -6632 0
-6505 6633 0
6505 -6633 0
-6506 6634 0
6506 -6634 0
-6507 6635 0
6507 -6635 0
-6508 6636 0
6508 -6636 0
-6509 6637 0
6509 -6637 0
-6510 6638 0
6510 -6638 0
-6511 6639 0
6511 -6639 0
-6512 6640 0
6512 -6640 0
-6513 6641 0
6513 -6641 0
-6514 6642 0
6514 -6642 0
-6515 6643 0
6515 -6643 0
-6516 6644 0
6516 -6644 0
-6517 6645 0
6517 -6645 0
-6518 6646 0
6518 -6646 0
-6519 6647 0
6519 -6647 0
-6520 6648 0
6520 -6648 0
-6521 6649 0
6521 -6649 0
-6522 6650 0
6522 -6650 0
-6523 6651 0
6523 -6651 0
-6524 6652 0
6524 -6652 0
-6525 6653 0
6525 -6653 0
-6526 6654 0
6526 -6654 0
-6527 6655 0
6527 -6655 0
-6528 6656 0
6528 -6656 0
-6529 6657 0
6529 -6657 0
-6530 6658 0
6530 -6658 0
-6531 6659 0
6531 -6659 0
-6532 6660 0
6532 -6660 0
-6533 6661 0
6533 -6661 0
-6534 6662 0
6534 -6662 0
-6535 6663 0
6535 -6663 0
-6536 6664 0
6536 -6664 0
-6537 6665 0
6537 -6665 0
-6538 6666 0
6538 -6666 0
-6539 6667 0
6539 -6667 0
-6540 6668 0
6540 -6668 0
-6541 6669 0
6541 -6669 0
-6542 6670 0
6542 -6670 0
-6543 6671 0
6543 -6671 0
-6544 6672 0
6544 -6672 0
-6545 6673 0
6545 -6673 0
-6546 6674 0
6546 -6674 0
-6547 6675 0
6547 -6675 0
-6548 6676 0
6548 -6676 0
-6549 6677 0
6549 -6677 0
-6550 6678 0
6550 -6678 0
-6551 6679 0
6551 -6679 0
-6552 6680 0
6552 -6680 0
-6553 6681 0
6553 -6681 0
-6554 6682 0
6554 -6682 0
-6555 6683 0
6555 -6683 0
-6556 6684 0
6556 -6684 0
-6557 6685 0
6557 -6685 0
-6558 6686 0
6558 -6686 0
-6559 6687 0
6559 -6687 0
-6560 6688 0
6560 -6688 0
-6561 6689 0
6561 -6689 0
-6562 6690 0
6562 -6690 0
-6563 6691 0
6563 -6691 0
-6564 6692 0
6564 -6692 0
-6565 6693 0
6565 -6693 0
-6566 6694 0
6566 -6694 0
-6567 6695 0
6567 -6695 0
-6568 6696 0
6568 -6696 0
-6569 6697 0
6569 -6697 0
-6570 6698 0
6570 -6698 0
-6571 6699 0
6571 -6699 0
-6572 6700 0
6572 -6700 0
-6573 6701 0
6573 -6701 0
-6574 6702 0
6574 -6702 0
-6575 6703 0
6575 -6703 0
-6576 6704 0
6576 -6704 0
-6577 6705 0
6577 -6705 0
-6578 6706 0
6578 -6706 0
-6579 6707 0
6579 -6707 0
-6580 6708 0
6580 -6708 0
-6581 6709 0
6581 -6709 0
-6582 6710 0
6582 -6710 0
-6583 6711 0
6583 -6711 0
-6584 6712 0
6584 -6712 0
-6585 6713 0
6585 -6713 0
-6586 6714 0
6586 -6714 0
-6587 6715 0
6587 -6715 0
-6588 6716 0
6588 -6716 0
-6589 6717 0
6589 -6717 0
-6590 6718 0
6590 -6718 0
-6591 6719 0
6591 -6719 0
-6592 6720 0
6592 -6720 0
-6593 6721 0
6593 -6721 0
-6594 6722 0
6594 -6722 0
-6595 6723 0
6595 -6723 0
-6596 6724 0
6596 -6724 0
-6597 6725 0
6597 -6725 0
-6598 6726 0
6598 -6726 0
-6599 6727 0
6599 -6727 0
-6600 6728 0
6600 -6728 0
-6601 6729 0
6601 -6729 0
-6602 6730 0
6602 -6730 0
-6603 6731 0
6603 -6731 0
-6604 6732 0
6604 -6732 0
-6605 6733 0
6605 -6733 0
-6606 6734 0
6606 -6734 0
-6607 6735 0
6607 -6735 0
-6608 6736 0
6608 -6736 0
-6609 6737 0
6609 -6737 0
-6610 6738 0
6610 -6738 0
-6611 6739 0
6611 -6739 0
-6612 6740 0
6612 -6740 0
-6613 6741 0
6613 -6741 0
-6614 6742 0
6614 -6742 0
-6615 6743 0
6615 -6743 0
-6616 6744 0
6616 -6744 0
-6617 6745 0
6617 -6745 0
-6618 6746 0
6618 -6746 0
-6619 6747 0
6619 -6747 0
-6620 6748 0
6620 -6748 0
-6621 6749 0
6621 -6749 0
-6622 6750 0
6622 -6750 0
-6623 6751 0
6623 -6751 0
-6624 6752 0
6624 -6752 0
-6625 6753 0
6625 -6753 0
-6626 6754 0
6626 -6754 0
-6627 6755 0
6627 -6755 0
-6628 6756 0
6628 -6756 0
1 2 3 4 5 6 7 8 9 10 11 12 13 14 15 16 17 18 19 20 21 22 23 24 25 26 27 28 29 30 31 32 33 34 35 36 37 38 39 40 41 42 43 44 45 46 47 48 49 50 51 52 53 54 55 56 57 58 59 60 61 62 63 64 65 66 67 68 69 70 71 72 73 74 75 76 77 78 79 80 81 82 83 84 85 86 87 88 89 90 91 92 93 94 95 96 97 98 99 100 101 102 103 104 105 106 107 108 109 110 111 112 113 114 115 116 117 118 119 120 121 122 123 124 125 126 127 128 129 130 131 132 133 134 135 136 137 138 139 140 141 142 143 144 145 146 147 148 149 150 151 152 153 154 155 156 157 158 159 160 161 162 163 164 165 166 167 168 169 170 171 172 173 174 175 176 177 178 179 180 181 182 183 184 185 186 187 188 189 190 191 192 193 194 195 196 197 198 199 200 201 202 203 204 205 206 207 208 209 210 211 212 213 214 215 216 217 218 219 220 221 222 223 224 225 226 227 228 229 230 231 232 233 234 235 236 237 238 239 240 241 242 243 244 245 246 247 248 249 250 251 252 253 254 255 256 257 258 259 260 261 262 263 264 265 266 267 268 269 270 271 272 273 274 275 276 277 278 279 280 281 282 283 284 285 286 287 288 289 290 291 292 293 294 295 296 297 298 299 300 301 302 303 304 305 306 307 308 309 310 311 312 313 314 315 316 317 318 319 320 321 322 323 324 325 326 327 328 329 330 331 332 333 334 335 336 337 338 339 340 341 342 343 344 345 346 347 348 349 350 351 352 353 354 355 356 357 358 359 360 361 362 363 364 365 366 367 368 369 370 371 372 373 374 375 376 377 378 379 380 381 382 383 384 385 386 387 388 389 390 391 392 393 394 395 396 397 398 399 400 401 402 403 404 405 406 407 408 409 410 411 412 413 414 415 416 417 418 419 420 421 422 423 424 425 426 427 428 429 430 431 432 433 434 435 436 437 438 439 440 441 442 443 444 445 446 447 448 449 450 451 452 453 454 455 456 457 458 459 460 461 462 463 464 465 466 467 468 469 470 471 472 473 474 475 476 477 478 479 480 481 482 483 484 485 486 487 488 489 490 491 492 493 494 495 496 497 498 499 500 501 502 503 504 505 506 507 508 509 510 511 512 513 514 515 516 517 518 519 520 521 522 523 524 525 526 527 528 529 530 531 532 533 534 535 536 537 538 539 540 541 542 543 544 545 546 547 548 549 550 551 552 553 554 555 556 557 558 559 560 561 562 563 564 565 566 567 568 569 570 571 572 573 574 575 576 577 578 579 580 581 582 583 584 585 586 587 588 589 590 591 592 593 594 595 596 597 598 599 600 601 602 603 604 605 606 607 608 609 610 611 612 613 614 615 616 617 618 619 620 621 622 623 624 625 626 627 628 629 630 631 632 633 634 635 636 637 638 639 640 641 642 643 644 645 646 647 648 649 650 651 652 653 654 655 656 657 658 659 660 661 662 663 664 665 666 667 668 669 670 671 672 673 674 675 676 677 678 679 680 681 682 683 684 685 686 687 688 689 690 691 692 693 694 695 696 697 698 699 700 701 702 703 704 705 706 707 708 709 710 711 712 713 714 715 716 717 718 719 720 721 722 723 724 725 726 727 728 729 730 731 732 733 734 735 736 737 738 739 740 741 742 743 744 745 746 747 748 749 750 751 752 753 754 755 756 757 758 759 760 761 762 763 764 765 766 767 768 769 770 771 772 773 774 775 776 777 778 779 780 781 782 783 784 785 786 787 788 789 790 791 792 793 794 795 796 797 798 799 800 801 802 803 804 805 806 807 808 809 810 811 812 813 814 815 816 817 818 819 820 821 822 823 824 825 826 827 828 829 830 831 832 833 834 835 836 837 838 839 840 841 842 843 844 845 846 847 848 849 850 851 852 853 854 855 856 857 858 859 860 861 862 863 864 865 866 867 868 869 870 871 872 873 874 875 876 877 878 879 880 881 882 883 884 885 886 887 888 889 890 891 892 893 894 895 896 897 898 899 900 901 902 903 904 905 906 907 908 909 910 911 912 913 914 915 916 917 918 919 920 921 922 923 924 925 926 927 928 929 930 931 932 933 934 935 936 937 938 939 940 941 942 943 944 945 946 947 948 949 950 951 952 953 954 955 956 957 958 959 960 961 962 963 964 965 966 967 968 969 970 971 972 973 974 975 976 977 978 979 980 981 982 983 984 985 986 987 988 989 990 991 992 993 994 995 996 997 998 999 1000 1001 1002 1003 1004 1005 1006 1007 1008 1009 1010 1011 1012 1013 1014 1015 1016 1017 1018 1019 1020 1021 1022 1023 1024 1025 1026 1027 1028 1029 1030 1031 1032 1033 1034 1035 1036 1037 1038 1039 1040 1041 1042 1043 1044 1045 1046 1047 1048 1049 1050 1051 1052 1053 1054 1055 1056 1057 1058 1059 1060 1061 1062 1063 1064 1065 1066 1067 1068 1069 1070 1071 1072 1073 1074 1075 1076 1077 1078 1079 1080 1081 1082 1083 1084 1085 1086 1087 1088 1089 1090 1091 1092 1093 1094 1095 1096 1097 1098 1099 1100 1101 1102 1103 1104 1105 1106 1107 1108 1109 1110 1111 1112 1113 1114 1115 1116 1117 1118 1119 1120 1121 1122 1123 1124 1125 1126 1127 1128 1129 1130 1131 1132 1133 1134 1135 1136 1137 1138 1139 1140 1141 1142 1143 1144 1145 1146 1147 1148 1149 1150 1151 1152 1153 1154 1155 1156 1157 1158 1159 1160 1161 1162 1163 1164 1165 1166 1167 1168 1169 1170 1171 1172 1173 1174 1175 1176 1177 1178 1179 1180 1181 1182 1183 1184 1185 1186 1187 1188 1189 1190 1191 1192 1193 1194 1195 1196 1197 1198 1199 1200 1201 1202 1203 1204 1205 1206 1207 1208 1209 1210 1211 1212 1213 1214 1215 1216 1217 1218 1219 1220 1221 1222 1223 1224 1225 1226 1227 1228 1229 1230 1231 1232 1233 1234 1235 1236 1237 1238 1239 1240 1241 1242 1243 1244 1245 1246 1247 1248 1249 1250 1251 1252 1253 1254 1255 1256 1257 1258 1259 1260 1261 1262 1263 1264 1265 1266 1267 1268 1269 1270 1271 1272 1273 1274 1275 1276 1277 1278 1279 1280 1281 1282 1283 1284 1285 1286 1287 1288 1289 1290 1291 1292 1293 1294 1295 1296 1297 1298 1299 1300 1301 1302 1303 1304 1305 1306 1307 1308 1309 1310 1311 1312 1313 1314 1315 1316 1317 1318 1319 1320 1321 1322 1323 1324 1325 1326 1327 1328 1329 1330 1331 1332 1333 1334 1335 1336 1337 1338 1339 1340 1341 1342 1343 1344 1345 1346 1347 1348 1349 1350 1351 1352 1353 1354 1355 1356 1357 1358 1359 1360 1361 1362 1363 1364 1365 1366 1367 1368 1369 1370 1371 1372 1373 1374 1375 1376 1377 1378 1379 1380 1381 1382 1383 1384 1385 1386 1387 1388 1389 1390 1391 1392 1393 1394 1395 1396 1397 1398 1399 1400 1401 1402 1403 1404 1405 1406 1407 1408 1409 1410 1411 1412 1413 1414 1415 1416 1417 1418 1419 1420 1421 1422 1423 1424 1425 1426 1427 1428 1429 1430 1431 1432 1433 1434 1435 1436 1437 1438 1439 1440 1441 1442 1443 1444 1445 1446 1447 1448 1449 1450 1451 1452 1453 1454 1455 1456 1457 1458 1459 1460 1461 1462 1463 1464 1465 1466 1467 1468 1469 1470 1471 1472 1473 1474 1475 1476 1477 1478 1479 1480 1481 1482 1483 1484 1485 1486 1487 1488 1489 1490 1491 1492 1493 1494 1495 1496 1497 1498 1499 1500 1501 1502 1503 1504 1505 1506 1507 1508 1509 1510 1511 1512 1513 1514 1515 1516 1517 1518 1519 1520 1521 1522 1523 1524 1525 1526 1527 1528 1529 1530 1531 1532 1533 1534 1535 1536 1537 1538 1539 1540 1541 1542 1543 1544 1548 1549 1550 1551 1552 1553 1554 1555 1559 1560 1561 1562 1563 1564 1565 1566 1570 1571 1572 1573 1574 1575 1576 1577 1581 1582 1583 1584 1585 1586 1587 1588 1592 1593 1594 1595 1596 1597 1598 1599 1603 1604 1605 1606 1607 1608 1609 1610 1614 1615 1616 1617 1618 1619 1620 1621 1625 1626 1627 1628 1629 1630 1631 1632 1636 1637 1638 1639 1640 1641 1642 1643 1647 1648 1649 1650 1651 1652 1653 1654 1658 1659 1660 1661 1662 1663 1664 1665 1669 1670 1671 1672 1673 1674 1675 1676 1680 1681 1682 1683 1684 1685 1686 1687 1691 1692 1693 1694 1695 1696 1697 1698 1702 1703 1704 1705 1706 1707 1708 1709 1713 1714 1715 1716 1717 1718 1719 1720 1724 1725 1726 1727 1728 1729 1730 1731 1735 1736 1737 1738 1739 1740 1741 1742 1746 1747 1748 1749 1750 1751 1752 1753 1757 1758 1759 1760 1761 1762 1763 1764 1768 1769 1770 1771 1772 1773 1774 1775 1779 1780 1781 1782 1783 1784 1785 1786 1790 1791 1792 1793 1794 1795 1796 1797 1801 1802 1803 1804 1805 1806 1807 1808 1812 1813 1814 1815 1816 1817 1818 1819 1823 1824 1825 1826 1827 1828 1829 1830 1834 1835 1836 1837 1838 1839 1840 1841 1845 1846 1847 1848 1849 1850 1851 1852 1856 1857 1858 1859 1860 1861 1862 1863 1867 1868 1869 1870 1871 1872 1873 1874 1878 1879 1880 1881 1882 1883 1884 1885 1889 1890 1891 1892 1893 1894 1895 1896 1897 1898 1899 1900 1901 1902 1903 1904 1905 1906 1907 1908 1909 1910 1911 1912 1913 1914 1915 1916 1917 1918 1919 1920 1921 1922 1923 1924 1925 1926 1927 1928 1929 1930 1931 1932 1933 1934 1935 1936 1937 1938 1939 1940 1941 1942 1943 1944 1945 1946 1947 1948 1949 1950 1951 1952 1953 1954 1955 1956 1957 1958 1959 1960 1961 1962 1963 1964 1965 1966 1967 1968 1969 1970 1971 1972 1973 1974 1975 1976 1977 1978 1979 1980 1981 1982 1983 1984 1985 1986 1987 1988 1989 1990 1991 1992 1993 1994 1995 1996 1997 1998 1999 2000 2001 2002 2003 2004 2005 2006 2007 2008 2009 2010 2011 2012 2013 2014 2015 2016 2017 2018 2019 2020 2021 2022 2023 2024 2025 2026 2027 2028 2029 2030 2031 2032 2033 2034 2035 2036 2037 2038 2039 2040 2041 2042 2043 2044 2045 2046 2047 2048 2049 2050 2051 2052 2053 2054 2055 2056 2057 2058 2059 2060 2061 2062 2063 2064 2065 2066 2067 2068 2069 2070 2071 2072 2073 2074 2075 2076 2077 2078 2079 2080 2081 2082 2083 2084 2085 2086 2087 2088 2089 2090 2091 2092 2093 2094 2095 2096 2097 2098 2099 2100 2101 2102 2103 2104 2105 2106 2107 2108 2109 2110 2111 2112 2113 2114 2115 2116 2117 2118 2119 2120 2121 2122 2123 2124 2125 2126 2127 2128 2129 2130 2131 2132 2133 2134 2135 2136 2137 2138 2139 2140 2141 2142 2143 2144 2145 2146 2147 2148 2149 2150 2151 2152 2153 2154 2155 2156 2157 2158 2159 2160 2161 2162 2163 2164 2165 2166 2167 2168 2169 2170 2171 2172 2173 2174 2175 2176 2177 2178 2179 2180 2181 2182 2183 2184 2185 2186 2187 2188 2189 2190 2191 2192 2193 2194 2195 2196 2197 2198 2199 2200 2201 2202 2203 2204 2205 2206 2207 2208 2209 2210 2211 2212 2213 2214 2215 2216 2217 2218 2219 2220 2221 2222 2223 2224 2225 2226 2227 2228 2229 2230 2231 2232 2233 2234 2235 2236 2237 2238 2239 2240 2241 2242 2243 2244 2245 2246 2247 2248 2249 2250 2251 2252 2253 2254 2255 2256 2257 2258 2259 2260 2261 2262 2263 2264 2265 2266 2267 2268 2269 2270 2271 2272 2273 2274 2275 2276 2277 2278 2279 2280 2281 2282 2283 2284 2285 2286 2287 2288 2289 2290 2291 2292 2293 2294 2295 2296 2297 2298 2299 2300 2301 2302 2303 2304 2305 2306 2307 2308 2309 2310 2311 2312 2313 2314 2315 2316 2317 2318 2319 2320 2321 2322 2323 2324 2325 2326 2327 2328 2329 2330 2331 2332 2333 2334 2335 2336 2337 2338 2339 2340 2341 2342 2343 2344 2345 2346 2347 2348 2349 2350 2351 2352 2353 2354 2355 2356 2357 2358 2359 2360 2361 2362 2363 2364 2365 2366 2367 2368 2369 2370 2371 2372 2373 2374 2375 2376 2377 2378 2379 2380 2381 2382 2383 2384 2385 2386 2387 2388 2389 2390 2391 2392 2393 2394 2395 2396 2397 2398 2399 2400 2401 2402 2403 2404 2405 2406 2407 2408 2409 2410 2411 2412 2413 2414 2415 2416 2417 2418 2419 2420 2421 2422 2423 2424 2425 2426 2427 2428 2429 2430 2431 2432 2433 2434 2435 2436 2437 2438 2439 2440 2441 2442 2443 2444 2445 2446 2447 2448 2449 2450 2451 2452 2453 2454 2455 2456 2457 2458 2459 2460 2461 2462 2463 2464 2465 2466 2467 2468 2469 2470 2471 2472 2473 2474 2475 2476 2477 2478 2479 2480 2481 2482 2483 2484 2485 2486 2487 2488 2489 2490 2491 2492 2493 2494 2495 2496 2497 2498 2499 2500 2501 2502 2503 2504 2505 2506 2507 2508 2509 2510 2511 2512 2513 2514 2515 2516 2517 2518 2519 2520 2521 2522 2523 2524 2525 2526 2527 2528 2529 2530 2531 2532 2533 2534 2535 2536 2537 2538 2539 2540 2541 2542 2543 2544 2545 2546 2547 2548 2549 2550 2551 2552 2553 2554 2555 2556 2557 2558 2559 2560 2561 2562 2563 2564 2565 2566 2567 2568 2569 2570 2571 2572 2573 2574 2575 2576 2577 2578 2579 2580 2581 2582 2583 2584 2585 2586 2587 2588 2589 2590 2591 2592 2593 2594 2595 2596 2597 2598 2599 2600 2601 2602 2603 2604 2605 2606 2607 2608 2609 2610 2611 2612 2613 2614 2615 2616 2617 2618 2619 2620 2621 2622 2623 2624 2625 2626 2627 2628 2629 2630 2631 2632 2633 2634 2635 2636 2637 2638 2639 2640 2641 2642 2643 2644 2645 2646 2647 2648 2649 2650 2651 2652 2653 2654 2655 2656 2657 2658 2659 2660 2661 2662 2663 2664 2665 2666 2667 2668 2669 2670 2671 2672 2673 2674 2675 2676 2677 2678 2679 2680 2681 2682 2683 2684 2685 2686 2687 2688 2689 2690 2691 2692 2693 2694 2695 2696 2697 2698 2699 2700 2701 2702 2703 2704 2705 2706 2707 2708 2709 2710 2711 2712 2713 2714 2715 2716 2717 2718 2719 2720 2721 2722 2723 2724 2725 2726 2727 2728 2729 2730 2731 2732 2733 2734 2735 2736 2737 2738 2739 2740 2741 2742 2743 2744 2745 2746 2747 2748 2749 2750 2751 2752 2753 2754 2755 2756 2757 2758 2759 2760 2761 2762 2763 2764 2765 2766 2767 2768 2769 2770 2771 2772 2773 2774 2775 2776 2777 2778 2779 2780 2781 2782 2783 2784 2785 2786 2787 2788 2789 2790 2791 2792 2793 2794 2795 2796 2797 2798 2799 2800 2801 2802 2803 2804 2805 2806 2807 2808 2809 2810 2811 2812 2813 2814 2815 2816 2817 2818 2819 2820 2821 2822 2823 2824 2825 2826 2827 2828 2829 2830 2831 2832 2833 2834 2835 2836 2837 2838 2839 2840 2841 2842 2843 2844 2845 2846 2847 2848 2849 2850 2851 2852 2853 2854 2855 2856 2857 2858 2859 2860 2861 2862 2863 2864 2865 2866 2867 2868 2869 2870 2871 2872 2873 2874 2875 2876 2877 2878 2879 2880 2881 2882 2883 2884 2885 2886 2887 2888 2889 2890 2891 2892 2893 2894 2895 2896 2897 2898 2899 2900 2901 2902 2903 2904 2905 2906 2907 2908 2909 2910 2911 2912 2913 2914 2915 2916 2917 2918 2919 2920 2921 2922 2923 2924 2925 2926 2927 2928 2929 2930 2931 2932 2933 2934 2935 2936 2937 2938 2939 2940 2941 2942 2943 2944 2945 2946 2947 2948 2949 2950 2951 2952 2953 2954 2955 2956 2957 2958 2959 2960 2961 2962 2963 2964 2965 2966 2967 2968 2969 2970 2971 2972 2973 2974 2975 2976 2977 2978 2979 2980 2981 2982 2983 2984 2985 2986 2987 2988 2989 2990 2991 2992 2993 2994 2995 2996 2997 2998 2999 3000 3001 3002 3003 3004 3005 3006 3007 3008 3009 3010 3011 3012 3013 3014 3015 3016 3017 3018 3019 3020 3021 3022 3023 3024 3025 3026 3027 3028 3029 3030 3031 3032 3033 3034 3035 3036 3037 3038 3039 3040 3041 3042 3043 3044 3045 3046 3047 3048 3049 3050 3051 3052 3053 3054 3055 3056 3057 3058 3059 3060 3061 3062 3063 3064 3065 3066 3067 3068 3069 3070 3071 3072 3073 3074 3075 3076 3077 3078 3079 3080 3081 3082 3083 3084 3085 3086 3087 3088 3089 3090 3091 3092 3093 3094 3095 3096 3097 3098 3099 3100 3101 3102 3103 3104 3105 3106 3107 3108 3109 3110 3111 3112 3113 3114 3115 3116 3117 3118 3119 3120 3121 3122 3123 3124 3125 3126 3127 3128 3129 3130 3131 3132 3133 3134 3135 3136 3137 3138 3139 3140 3141 3142 3143 3144 3145 3146 3147 3148 3149 3150 3151 3152 3153 3154 3155 3156 3157 3158 3159 3160 3161 3162 3163 3164 3165 3166 3167 3168 3169 3170 3171 3172 3173 3174 3175 3176 3177 3178 3179 3180 3181 3182 3183 3184 3185 3186 3187 3188 3189 3190 3191 3192 3193 3194 3195 3196 3197 3198 3199 3200 3201 3202 3203 3204 3205 3206 3207 3208 3209 3210 3211 3212 3213 3214 3215 3216 3217 3218 3219 3220 3221 3222 3223 3224 3225 3226 3227 3228 3229 3230 3231 3232 3233 3234 3235 3236 3237 3238 3239 3240 3241 3242 3243 3244 3245 3246 3247 3248 3249 3250 3251 3252 3253 3254 3255 3256 3257 3258 3259 3260 3261 3262 3263 3264 3265 3266 3267 3268 3269 3270 3271 3272 3273 3274 3275 3276 3277 3278 3279 3280 3281 3282 3283 3284 3285 3286 3287 3288 3289 3290 3291 3292 3293 3294 3295 3296 3297 3298 3299 3300 3301 3302 3303 3304 3305 3306 3307 3308 3309 3310 3311 3312 3313 3314 3315 3316 3317 3318 3319 3320 3321 3322 3323 3324 3325 3326 3327 3328 3329 3330 3331 3332 3333 3334 3335 3336 3337 3338 3339 3340 3341 3342 3343 3344 3345 3346 3347 3348 3349 3350 3351 3352 3353 3354 3355 3356 3357 3358 3359 3360 3361 3362 3363 3364 3365 3366 3367 3368 3369 3370 3371 3372 3373 3374 3375 3376 3377 3378 3379 3380 3381 3382 3383 3384 3385 3386 3387 3388 3389 3390 3391 3392 3393 3394 3395 3396 3397 3398 3399 3400 3401 3402 3403 3404 3405 3406 3407 3408 3409 3410 3411 3412 3413 3414 3415 3416 3417 3418 3419 3420 3421 3422 3423 3424 3425 3426 3427 3428 3429 3430 3431 3432 3433 3434 3435 3436 3437 3438 3439 3440 3441 3442 3443 3444 3445 3446 3447 3448 3449 3450 3451 3452 3453 3454 3455 3456 3457 3458 3459 3460 3461 3462 3463 3464 3465 3466 3467 3468 3469 3470 3471 3472 3473 3474 3475 3476 3477 3478 3479 3480 3481 3482 3483 3484 3485 3486 3487 3488 3489 3490 3491 3492 3493 3494 3495 3496 3497 3498 3499 3500 3501 3502 3503 3504 3505 3506 3507 3508 3509 3510 3511 3512 3513 3514 3515 3516 3517 3518 3519 3520 3521 3522 3523 3524 3525 3526 3527 3528 3529 3530 3534 3535 3536 3537 3538 3539 3540 3541 3545 3546 3547 3548 3549 3550 3551 3552 3556 3557 3558 3559 3560 3561 3562 3563 3567 3568 3569 3570 3571 3572 3573 3574 3578 3579 3580 3581 3582 3583 3584 3585 3589 3590 3591 3592 3593 3594 3595 3596 3600 3601 3602 3603 3604 3605 3606 3607 3611 3612 3613 3614 3615 3616 3617 3618 3622 3623 3624 3625 3626 3627 3628 3629 3633 3634 3635 3636 3637 3638 3639 3640 3644 3645 3646 3647 3648 3649 3650 3651 3655 3656 3657 3658 3659 3660 3661 3662 3666 3667 3668 3669 3670 3671 3672 3673 3677 3678 3679 3680 3681 3682 3683 3684 3688 3689 3690 3691 3692 3693 3694 3695 3699 3700 3701 3702 3703 3704 3705 3706 3710 3711 3712 3713 3714 3715 3716 3717 3721 3722 3723 3724 3725 3726 3727 3728 3732 3733 3734 3735 3736 3737 3738 3739 3743 3744 3745 3746 3747 3748 3749 3750 3754 3755 3756 3757 3758 3759 3760 3761 3765 3766 3767 3768 3769 3770 3771 3772 3776 3777 3778 3779 3780 3781 3782 3783 3787 3788 3789 3790 3791 3792 3793 3794 3798 3799 3800 3801 3802 3803 3804 3805 3809 3810 3811 3812 3813 3814 3815 3816 3820 3821 3822 3823 3824 3825 3826 3827 3831 3832 3833 3834 3835 3836 3837 3838 3842 3843 3844 3845 3846 3847 3848 3849 3853 3854 3855 3856 3857 3858 3859 3860 3864 3865 3866 3867 3868 3869 3870 3871 3875 3876 3877 3878 3879 3880 3881 3882 3883 3884 3885 3886 3887 3888 3889 3890 3891 3892 3893 3894 3895 3896 3897 3898 3899 3900 3901 3902 3903 3904 3905 3906 3907 3908 3909 3910 3911 3912 3913 3914 3915 3916 3917 3918 3919 3920 3921 3922 3923 3924 3925 3926 3927 3928 3929 3930 3931 3932 3933 3934 3935 3936 3937 3938 3939 3940 3941 3942 3943 3944 3945 3946 3947 3948 3949 3950 3951 3952 3953 3954 3955 3956 3957 3958 3959 3960 3961 3962 3963 3964 3965 3966 3967 3968 3969 3970 3971 3972 3973 3974 3975 3976 3977 3978 3979 3980 3981 3982 3983 3984 3985 3986 3987 3988 3989 3990 3991 3992 3993 3994 3995 3996 3997 3998 3999 4000 4001 4002 4003 4004 4005 4006 4007 4008 4009 4010 4011 4012 4013 4014 4015 4016 4017 4018 4019 4020 4021 4022 4023 4024 4025 4026 4027 4028 4029 4030 4031 4032 4033 4034 4035 4036 4037 4038 4039 4040 4041 4042 4043 4044 4045 4046 4047 4048 4049 4050 4051 4052 4053 4054 4055 4056 4057 4058 4059 4060 4061 4062 4063 4064 4065 4066 4067 4068 4069 4070 4071 4072 4073 4074 4075 4076 4077 4078 4079 4080 4081 4082 4083 4084 4085 4086 4087 4088 4089 4090 4091 4092 4093 4094 4095 4096 4097 4098 4099 4100 4101 4102 4103 4104 4105 4106 4107 4108 4109 4110 4111 4112 4113 4114 4115 4116 4117 4118 4119 4120 4121 4122 4123 4124 4125 4126 4127 4128 4129 4130 4131 4132 4133 4134 4135 4136 4137 4138 4139 4140 4141 4142 4143 4144 4145 4146 4147 4148 4149 4150 4151 4152 4153 4154 4155 4156 4157 4158 4159 4160 4161 4162 4163 4164 4165 4166 4167 4168 4169 4170 4171 4172 4173 4174 4175 4176 4177 4178 4179 4180 4181 4182 4183 4184 4185 4186 4187 4188 4189 4190 4191 4192 4193 4194 4195 4196 4197 4198 4199 4200 4201 4202 4203 4204 4205 4206 4207 4208 4209 4210 4211 4212 4213 4214 4215 4216 4217 4218 4219 4220 4221 4222 4223 4224 4225 4226 4227 4228 4229 4230 4231 4232 4233 4234 4235 4236 4237 4238 4239 4240 4241 4242 4243 4244 4245 4246 4247 4248 4249 4250 4251 4252 4253 4254 4255 4256 4257 4258 4259 4260 4261 4262 4263 4264 4265 4266 4267 4268 4269 4270 4271 4272 4273 4274 4275 4276 4277 4278 4279 4280 4281 4282 4283 4284 4285 4286 4287 4288 4289 4290 4291 4292 4293 4294 4295 4296 4297 4298 4299 4300 4301 4302 4303 4304 4305 4306 4307 4308 4309 4310 4311 4312 4313 4314 4315 4316 4317 4318 4319 4320 4321 4322 4323 4324 4325 4326 4327 4328 4329 4330 4331 4332 4333 4334 4335 4336 4337 4338 4339 4340 4341 4342 4343 4344 4345 4346 4347 4348 4349 4350 4351 4352 4353 4354 4355 4356 4357 4358 4359 4360 4361 4362 4363 4364 4365 4366 4367 4368 4369 4370 4371 4372 4373 4374 4375 4376 4377 4378 4379 4380 4381 4382 4383 4384 4385 4386 4387 4388 4389 4390 4391 4392 4393 4394 4395 4396 4397 4398 4399 4400 4401 4402 4403 4404 4405 4406 4407 4408 4409 4410 4411 4412 4413 4414 4415 4416 4417 4418 4419 4420 4421 4422 4423 4424 4425 4426 4427 4428 4429 4430 4431 4432 4433 4434 4435 4436 4437 4438 4439 4440 4441 4442 4443 4444 4445 4446 4447 4448 4449 4450 4451 4452 4453 4454 4455 4456 4457 4458 4459 4460 4461 4462 4463 4464 4465 4466 4467 4468 4469 4470 4471 4472 4473 4474 4475 4476 4477 4478 4479 4480 4481 4482 4483 4484 4485 4486 4487 4488 4489 4490 4491 4492 4493 4494 4495 4496 4497 4498 4499 4500 4501 4502 4503 4504 4505 4506 4507 4508 4509 4510 4511 4512 4513 4514 4515 4516 4517 4518 4519 4520 4521 4522 4523 4524 4525 4526 4527 4528 4529 4530 4531 4532 4533 4534 4535 4536 4537 4538 4539 4540 4541 4542 4543 4544 4545 4546 4547 4548 4549 4550 4551 4552 4553 4554 4555 4556 4557 4558 4559 4560 4561 4562 4563 4564 4565 4566 4567 4568 4569 4570 4571 4572 4573 4574 4575 4576 4577 4578 4579 4580 4581 4582 4583 4584 4585 4586 4587 4588 4589 4590 4591 4592 4593 4594 4595 4596 4597 4598 4599 4600 4601 4602 4603 4604 4605 4606 4607 4608 4609 4610 4611 4612 4613 4614 4615 4616 4617 4618 4619 4620 4621 4622 4623 4624 4625 4626 4627 4628 4629 4630 4631 4632 4633 4634 4635 4636 4637 4638 4639 4640 4641 4642 4643 4644 4645 4646 4647 4648 4649 4650 4651 4652 4653 4654 4655 4656 4657 4658 4659 4660 4661 4662 4663 4664 4665 4666 4667 4668 4669 4670 4671 4672 4673 4674 4675 4676 4677 4678 4679 4680 4681 4682 4683 4684 4685 4686 4687 4688 4689 4690 4691 4692 4693 4694 4695 4696 4697 4698 4699 4700 4701 4702 4703 4704 4705 4706 4707 4708 4709 4710 4711 4712 4713 4714 4715 4716 4717 4718 4719 4720 4721 4722 4723 4724 4725 4726 4727 4728 4729 4730 4731 4732 4733 4734 4735 4736 4737 4738 4739 4740 4741 4742 4743 4744 4745 4746 4747 4748 4749 4750 4751 4752 4753 4754 4755 4756 4757 4758 4759 4760 4761 4762 4763 4764 4765 4766 4767 4768 4769 4770 4771 4772 4773 4774 4775 4776 4777 4778 4779 4780 4781 4782 4783 4784 4785 4786 4787 4788 4789 4790 4791 4792 4793 4794 4795 4796 4797 4798 4799 4800 4801 4802 4803 4804 4805 4806 4807 4808 4809 4810 4811 4812 4813 4814 4815 4816 4817 4818 4819 4820 4821 4822 4823 4824 4825 4826 4827 4828 4829 4830 4831 4832 4833 4834 4835 4836 4837 4838 4839 4840 4841 4842 4843 4844 4845 4846 4847 4848 4849 4850 4851 4852 4853 4854 4855 4856 4857 4858 4859 4860 4861 4862 4863 4864 4865 4866 4867 4868 4869 4870 4871 4872 4873 4874 4875 4876 4877 4878 4879 4880 4881 4882 4883 4884 4885 4886 4887 4888 4889 4890 4891 4892 4893 4894 4895 4896 4897 4898 4899 4900 4901 4902 4903 4904 4905 4906 4907 4908 4909 4910 4911 4912 4913 4914 4915 4916 4917 4918 4919 4920 4921 4922 4923 4924 4925 4926 4927 4928 4929 4930 4931 4932 4933 4934 4935 4936 4937 4938 4939 4940 4941 4942 4943 4944 4945 4946 4947 4948 4949 4950 4951 4952 4953 4954 4955 4956 4957 4958 4959 4960 4961 4962 4963 4964 4965 4966 4967 4968 4969 4970 4971 4972 4973 4974 4975 4976 4977 4978 4979 4980 4981 4982 4983 4984 4985 4986 4987 4988 4989 4990 4991 4992 4993 4994 4995 4996 4997 4998 4999 5000 5001 5002 5003 5004 5005 5006 5007 5008 5009 5010 5011 5012 5013 5014 5015 5016 5017 5018 5019 5020 5021 5022 5023 5024 5025 5026 5027 5028 5029 5030 5031 5032 5033 5034 5035 5036 5037 5038 5039 5040 5041 5042 5043 5044 5045 5046 5047 5048 5049 5050 5051 5052 5053 5054 5055 5056 5057 5058 5059 5060 5061 5062 5063 5064 5065 5066 5067 5068 5069 5070 5071 5072 5073 5074 5075 5076 5077 5078 5079 5080 5081 5082 5083 5084 5085 5086 5087 5088 5089 5090 5091 5092 5093 5094 5095 5096 5097 5098 5099 5100 5101 5102 5103 5104 5105 5106 5107 5108 5109 5110 5111 5112 5113 5114 5115 5116 5117 5118 5119 5120 5121 5122 5123 5124 5125 5126 5127 5128 5129 5130 5131 5132 5133 5134 5135 5136 5137 5138 5139 5140 5141 5142 5143 5144 5145 5146 5147 5148 5149 5150 5151 5152 5153 5154 5155 5156 5157 5158 5159 5160 5161 5162 5163 5164 5165 5166 5167 5168 5169 5170 5171 5172 5173 5174 5175 5176 5177 5178 5179 5180 5181 5182 5183 5184 5185 5186 5187 5188 5189 5190 5191 5192 5193 5194 5195 5196 5197 5198 5199 5200 5201 5202 5203 5204 5205 5206 5207 5208 5209 5210 5211 5212 5213 5214 5215 5216 5217 5218 5219 5220 5221 5222 5223 5224 5225 5226 5227 5228 5229 5230 5231 5232 5233 5234 5235 5236 5237 5238 5239 5240 5241 5242 5243 5244 5245 5246 5247 5248 5249 5250 5251 5252 5253 5254 5255 5256 5257 5258 5259 5260 5261 5262 5263 5264 5265 5266 5267 5268 5269 5270 5271 5272 5273 5274 5275 5276 5277 5278 5279 5280 5281 5282 5283 5284 5285 5286 5287 5288 5289 5290 5291 5292 5293 5294 5295 5296 5297 5298 5299 5300 5301 5302 5303 5304 5305 5306 5307 5308 5309 5310 5311 5312 5313 5314 5315 5316 5317 5318 5319 5320 5321 5322 5323 5324 5325 5326 5327 5328 5329 5330 5331 5332 5333 5334 5335 5336 5337 5338 5339 5340 5341 5342 5343 5344 5345 5346 5347 5348 5349 5350 5351 5352 5353 5354 5355 5356 5357 5358 5359 5360 5361 5362 5363 5364 5365 5366 5367 5368 5369 5370 5371 5372 5373 5374 5375 5376 5377 5378 5379 5380 5381 5382 5383 5384 5385 5386 5387 5388 5389 5390 5391 5392 5393 5394 5395 5396 5397 5398 5399 5400 5401 5402 5403 5404 5405 5406 5407 5408 5409 5410 5411 5412 5413 5414 5415 5416 5417 5418 5419 5420 5421 5422 5423 5424 5425 5426 5427 5428 5429 5430 5431 5432 5433 5434 5435 5436 5437 5438 5439 5440 5441 5442 5443 5444 5445 5446 5447 5448 5449 5450 5451 5452 5453 5454 5455 5456 5457 5458 5459 5460 5461 5462 5463 5464 5465 5466 5467 5468 5469 5470 5471 5472 5473 5474 5475 5476 5477 5478 5479 5480 5481 5482 5483 5484 5485 5486 5487 5488 5489 5490 5491 5492 5493 5494 5495 5496 5497 5498 5499 5500 5501 5502 5503 5504 5505 5506 5507 5508 5509 5510 5511 5512 5513 5514 5515 5516 5520 5521 5522 5523 5524 5525 5526 5527 5531 5532 5533 5534 5535 5536 5537 5538 5542 5543 5544 5545 5546 5547 5548 5549 5553 5554 5555 5556 5557 5558 5559 5560 5564 5565 5566 5567 5568 5569 5570 5571 5575 5576 5577 5578 5579 5580 5581 5582 5586 5587 5588 5589 5590 5591 5592 5593 5597 5598 5599 5600 5601 5602 5603 5604 5608 5609 5610 5611 5612 5613 5614 5615 5619 5620 5621 5622 5623 5624 5625 5626 5630 5631 5632 5633 5634 5635 5636 5637 5641 5642 5643 5644 5645 5646 5647 5648 5652 5653 5654 5655 5656 5657 5658 5659 5663 5664 5665 5666 5667 5668 5669 5670 5674 5675 5676 5677 5678 5679 5680 5681 5685 5686 5687 5688 5689 5690 5691 5692 5696 5697 5698 5699 5700 5701 5702 5703 5707 5708 5709 5710 5711 5712 5713 5714 5718 5719 5720 5721 5722 5723 5724 5725 5729 5730 5731 5732 5733 5734 5735 5736 5740 5741 5742 5743 5744 5745 5746 5747 5751 5752 5753 5754 5755 5756 5757 5758 5762 5763 5764 5765 5766 5767 5768 5769 5773 5774 5775 5776 5777 5778 5779 5780 5784 5785 5786 5787 5788 5789 5790 5791 5795 5796 5797 5798 5799 5800 5801 5802 5806 5807 5808 5809 5810 5811 5812 5813 5817 5818 5819 5820 5821 5822 5823 5824 5828 5829 5830 5831 5832 5833 5834 5835 5839 5840 5841 5842 5843 5844 5845 5846 5850 5851 5852 5853 5854 5855 5856 5857 5861 5862 5863 5864 5865 5866 5867 5868 5869 5870 5871 5872 5873 5874 5875 5876 5877 5878 5879 5880 5881 5882 5883 5884 5885 5886 5887 5888 5889 5890 5891 5892 5893 5894 5895 5896 5897 5898 5899 5900 5901 5902 5903 5904 5905 5906 5907 5908 5909 5910 5911 5912 5913 5914 5915 5916 5917 5918 5919 5920 5921 5922 5923 5924 5925 5926 5927 5928 5929 5930 5931 5932 5933 5934 5935 5936 5937 5938 5939 5940 5941 5942 5943 5944 5945 5946 5947 5948 5949 5950 5951 5952 5953 5954 5955 5956 5957 5958 5959 5960 5961 5962 5963 5964 5965 5966 5967 5968 5969 5970 5971 5972 5973 5974 5975 5976 5977 5978 5979 5980 5981 5982 5983 5984 5985 5986 5987 5988 5989 5990 5991 5992 5993 5994 5995 5996 5997 5998 5999 6000 6001 6002 6003 6004 6005 6006 6007 6008 6009 6010 6011 6012 6013 6014 6015 6016 6017 6018 6019 6020 6021 6022 6023 6024 6025 6026 6027 6028 6029 6030 6031 6032 6033 6034 6035 6036 6037 6038 6039 6040 6041 6042 6043 6044 6045 6046 6047 6048 6049 6050 6051 6052 6053 6054 6055 6056 6057 6058 6059 6060 6061 6062 6063 6064 6065 6066 6067 6068 6069 6070 6071 6072 6073 6074 6075 6076 6077 6078 6079 6080 6081 6082 6083 6084 6085 6086 6087 6088 6089 6090 6091 6092 6093 6094 6095 6096 6097 6098 6099 6100 6101 6102 6103 6104 6105 6106 6107 6108 6109 6110 6111 6112 6113 6114 6115 6116 6117 6118 6119 6120 6121 6122 6123 6124 6125 6126 6127 6128 6129 6130 6131 6132 6133 6134 6135 6136 6137 6138 6139 6140 6141 6142 6143 6144 6145 6146 6147 6148 6149 6150 6151 6152 6153 6154 6155 6156 6157 6158 6159 6160 6161 6162 6163 6164 6165 6166 6167 6168 6169 6170 6171 6172 6173 6174 6175 6176 6177 6178 6179 6180 6181 6182 6183 6184 6185 6186 6187 6188 6189 6190 6191 6192 6193 6194 6195 6196 6197 6198 6199 6200 6201 6202 6203 6204 6205 6206 6207 6208 6209 6210 6211 6212 6213 6214 6215 6216 6217 6218 6219 6220 6221 6222 6223 6224 6225 6226 6227 6228 6229 6230 6231 6232 6233 6234 6235 6236 6237 6238 6239 6240 6241 6242 6243 6244 6245 6246 6247 6248 6249 6250 6251 6252 6253 6254 6255 6256 6257 6258 6259 6260 6261 6262 6263 6264 6265 6266 6267 6268 6269 6270 6271 6272 6273 6274 6275 6276 6277 6278 6279 6280 6281 6282 6283 6284 6285 6286 6287 6288 6289 6290 6291 6292 6293 6294 6295 6296 6297 6298 6299 6300 6301 6302 6303 6304 6305 6306 6307 6308 6309 6310 6311 6312 6313 6314 6315 6316 6317 6318 6319 6320 6321 6322 6323 6324 6325 6326 6327 6328 6329 6330 6331 6332 6333 6334 6335 6336 6337 6338 6339 6340 6341 6342 6343 6344 6345 6346 6347 6348 6349 6350 6351 6352 6353 6354 6355 6356 6357 6358 6359 6360 6361 6362 6363 6364 6365 6366 6367 6368 6369 6370 6371 6372 6373 6374 6375 6376 6377 6378 6379 6380 6381 6382 6383 6384 6385 6386 6387 6388 6389 6390 6391 6392 6393 6394 6395 6396 6397 6398 6399 6400 6401 6402 6403 6404 6405 6406 6407 6408 6409 6410 6411 6412 6413 6414 6415 6416 6417 6418 6419 6420 6421 6422 6423 6424 6425 6426 6427 6428 6429 6430 6431 6432 6433 6434 6435 6436 6437 6438 6439 6440 6441 6442 6443 6444 6445 6446 6447 6448 6449 6450 6451 6452 6453 6454 6455 6456 6457 6458 6459 6460 6461 6462 6463 6464 6465 6466 6467 6468 6469 6470 6471 6472 6473 6474 6475 6476 6477 6478 6479 6480 6481 6482 6483 6484 6485 6486 6487 6488 6489 6490 6491 6492 6493 6494 6495 6496 6497 6498 6499 6500 6501 6502 6503 6504 6505 6506 6507 6508 6509 6510 6511 6512 6513 6514 6515 6516 6517 6518 6519 6520 6521 6522 6523 6524 6525 6526 6527 6528 6529 6530 6531 6532 6533 6534 6535 6536 6537 6538 6539 6540 6541 6542 6543 6544 6545 6546 6547 6548 6549 6550 6551 6552 6553 6554 6555 6556 6557 6558 6559 6560 6561 6562 6563 6564 6565 6566 6567 6568 6569 6570 6571 6572 6573 6574 6575 6576 6577 6578 6579 6580 6581 6582 6583 6584 6585 6586 6587 6588 6589 6590 6591 6592 6593 6594 6595 6596 6597 6598 6599 6600 6601 6602 6603 6604 6605 6606 6607 6608 6609 6610 6611 6612 6613 6614 6615 6616 6617 6618 6619 6620 6621 6622 6623 6624 6625 6626 6627 6628 6629 6630 6631 6632 6633 6634 6635 6636 6637 6638 6639 6640 6641 6642 6643 6644 6645 6646 6647 6648 6649 6650 6651 6652 6653 6654 6655 6656 6657 6658 6659 6660 6661 6662 6663 6664 6665 6666 6667 6668 6669 6670 6671 6672 6673 6674 6675 6676 6677 6678 6679 6680 6681 6682 6683 6684 6685 6686 6687 6688 6689 6690 6691 6692 6693 6694 6695 6696 6697 6698 6699 6700 6701 6702 6703 6704 6705 6706 6707 6708 6709 6710 6711 6712 6713 6714 6715 6716 6717 6718 6719 6720 6721 6722 6723 6724 6725 6726 6727 6728 6729 6730 6731 6732 6733 6734 6735 6736 6737 6738 6739 6740 6741 6742 6743 6744 6745 6746 6747 6748 6749 6750 6751 6752 6753 6754 6755 6756 6757 6758 6759 6760 6761 6762 6763 6764 6765 6766 6767 6768 6769 6770 6771 6772 6773 6774 6775 6776 6777 6778 6779 6780 6781 6782 6783 6784 6785 6786 6787 6788 6789 6790 6791 6792 6793 6794 6795 6796 6797 6798 6799 6800 6801 6802 6803 6804 6805 6806 6807 6808 6809 6810 6811 6812 6813 6814 6815 6816 6817 6818 6819 6820 6821 6822 6823 6824 6825 6826 6827 6828 6829 6830 6831 6832 6833 6834 6835 6836 6837 6838 6839 6840 6841 6842 6843 6844 6845 6846 6847 6848 6849 6850 6851 6852 6853 6854 6855 6856 6857 6858 6859 6860 6861 6862 6863 6864 6865 6866 6867 6868 6869 6870 6871 6872 6873 6874 6875 6876 6877 6878 6879 6880 6881 6882 6883 6884 0
-1545 6885 0
-6886 0
-6887 0
-6888 0
-6889 0
-6890 0
-6891 0
-6892 0
-6893 0
-6894 0
-6895 0
-6896 0
-1545 6897 0
-6885 6897 0
-1545 -6885 6898 0
-6886 6898 0
-1545 -6886 6899 0
-6887 6899 0
-1545 -6887 6900 0
-6888 6900 0
-1545 -6888 6901 0
-6889 6901 0
-1545 -6889 6902 0
-6890 6902 0
-1545 -6890 6903 0
-6891 6903 0
-1545 -6891 6904 0
-6892 6904 0
-1545 -6892 6905 0
-6893 6905 0
-1545 -6893 6906 0
-6894 6906 0
-1545 -6894 6907 0
-6895 6907 0
-1545 -6895 6908 0
-6896 6908 0
-1545 -6896 0
-1545 6909 0
-6897 6909 0
-1545 -6897 6910 0
-6898 6910 0
-1545 -6898 6911 0
-6899 6911 0
-1545 -6899 6912 0
-6900 6912 0
-1545 -6900 6913 0
-6901 6913 0
-1545 -6901 6914 0
-6902 6914 0
-1545 -6902 6915 0
-6903 6915 0
-1545 -6903 6916 0
-6904 6916 0
-1545 -6904 6917 0
-6905 6917 0
-1545 -6905 6918 0
-6906 6918 0
-1545 -6906 6919 0
-6907 6919 0
-1545 -6907 6920 0
-6908 6920 0
-1545 -6908 0
-1546 6921 0
-6909 6921 0
-1546 -6909 6922 0
-6910 6922 0
-1546 -6910 6923 0
-6911 6923 0
-1546 -6911 6924 0
-6912 6924 0
-1546 -6912 6925 0
-6913 6925 0
-1546 -6913 6926 0
-6914 6926 0
-1546 -6914 6927 0
-6915 6927 0
-1546 -6915 6928 0
-6916 6928 0
-1546 -6916 6929 0
-6917 6929 0
-1546 -6917 6930 0
-6918 6930 0
-1546 -6918 6931 0
-6919 6931 0
-1546 -6919 6932 0
-6920 6932 0
-1546 -6920 0
-1546 6933 0
-6921 6933 0
-1546 -6921 6934 0
-6922 6934 0
-1546 -6922 6935 0
-6923 6935 0
-1546 -6923 6936 0
-6924 6936 0
-1546 -6924 6937 0
-6925 6937 0
-1546 -6925 6938 0
-6926 6938 0
-1546 -6926 6939 0
-6927 6939 0
-1546 -6927 6940 0
-6928 6940 0
-1546 -6928 6941 0
-6929 6941 0
-1546 -6929 6942 0
-6930 6942 0
-1546 -6930 6943 0
-6931 6943 0
-1546 -6931 6944 0
-6932 6944 0
-1546 -6932 0
-1556 6945 0
-6933 6945 0
-1556 -6933 6946 0
-6934 6946 0
-1556 -6934 6947 0
-6935 6947 0
-1556 -6935 6948 0
-6936 6948 0
-1556 -6936 6949 0
-6937 6949 0
-1556 -6937 6950 0
-6938 6950 0
-1556 -6938 6951 0
-6939 6951 0
-1556 -6939 6952 0
-6940 6952 0
-1556 -6940 6953 0
-6941 6953 0
-1556 -6941 6954 0
-6942 6954 0
-1556 -6942 6955 0
-6943 6955 0
-1556 -6943 6956 0
-6944 6956 0
-1556 -6944 0
-1556 6957 0
-6945 6957 0
-1556 -6945 6958 0
-6946 6958 0
-1556 -6946 6959 0
-6947 6959 0
-1556 -6947 6960 0
-6948 6960 0
-1556 -6948 6961 0
-6949 6961 0
-1556 -6949 6962 0
-6950 6962 0
-1556 -6950 6963 0
-6951 6963 0
-1556 -6951 6964 0
-6952 6964 0
-1556 -6952 6965 0
-6953 6965 0
-1556 -6953 6966 0
-6954 6966 0
-1556 -6954 6967 0
-6955 6967 0
-1556 -6955 6968 0
-6956 6968 0
-1556 -6956 0
-1556 6969 0
-6957 6969 0
-1556 -6957 6970 0
-6958 6970 0
-1556 -6958 6971 0
-6959 6971 0
-1556 -6959 6972 0
-6960 6972 0
-1556 -6960 6973 0
-6961 6973 0
-1556 -6961 6974 0
-6962 6974 0
-1556 -6962 6975 0
-6963 6975 0
-1556 -6963 6976 0
-6964 6976 0
-1556 -6964 6977 0
-6965 6977 0
-1556 -6965 6978 0
-6966 6978 0
-1556 -6966 6979 0
-6967 6979 0
-1556 -6967 6980 0
-6968 6980 0
-1556 -6968 0
-1557 6981 0
-6969 6981 0
-1557 -6969 6982 0
-6970 6982 0
-1557 -6970 6983 0
-6971 6983 0
-1557 -6971 6984 0
-6972 6984 0
-1557 -6972 6985 0
-6973 6985 0
-1557 -6973 6986 0
-6974 6986 0
-1557 -6974 6987 0
-6975 6987 0
-1557 -6975 6988 0
-6976 6988 0
-1557 -6976 6989 0
-6977 6989 0
-1557 -6977 6990 0
-6978 6990 0
-1557 -6978 6991 0
-6979 6991 0
-1557 -6979 6992 0
-6980 6992 0
-1557 -6980 0
-1557 6993 0
-6981 6993 0
-1557 -6981 6994 0
-6982 6994 0
-1557 -6982 6995 0
-6983 6995 0
-1557 -6983 6996 0
-6984 6996 0
-1557 -6984 6997 0
-6985 6997 0
-1557 -6985 6998 0
-6986 6998 0
-1557 -6986 6999 0
-6987 6999 0
-1557 -6987 7000 0
-6988 7000 0
-1557 -6988 7001 0
-6989 7001 0
-1557 -6989 7002 0
-6990 7002 0
-1557 -6990 7003 0
-6991 7003 0
-1557 -6991 7004 0
-6992 7004 0
-1557 -6992 0
-1567 7005 0
-6993 7005 0
-1567 -6993 7006 0
-6994 7006 0
-1567 -6994 7007 0
-6995 7007 0
-1567 -6995 7008 0
-6996 7008 0
-1567 -6996 7009 0
-6997 7009 0
-1567 -6997 7010 0
-6998 7010 0
-1567 -6998 7011 0
-6999 7011 0
-1567 -6999 7012 0
-7000 7012 0
-1567 -7000 7013 0
-7001 7013 0
-1567 -7001 7014 0
-7002 7014 0
-1567 -7002 7015 0
-7003 7015 0
-1567 -7003 7016 0
-7004 7016 0
-1567 -7004 0
-1567 7017 0
-7005 7017 0
-1567 -7005 7018 0
-7006 7018 0
-1567 -7006 7019 0
-7007 7019 0
-1567 -7007 7020 0
-7008 7020 0
-1567 -7008 7021 0
-7009 7021 0
-1567 -7009 7022 0
-7010 7022 0
-1567 -7010 7023 0
-7011 7023 0
-1567 -7011 7024 0
-7012 7024 0
-1567 -7012 7025 0
-7013 7025 0
-1567 -7013 7026 0
-7014 7026 0
-1567 -7014 7027 0
-7015 7027 0
-1567 -7015 7028 0
-7016 7028 0
-1567 -7016 0
-1567 7029 0
-7017 7029 0
-1567 -7017 7030 0
-7018 7030 0
-1567 -7018 7031 0
-7019 7031 0
-1567 -7019 7032 0
-7020 7032 0
-1567 -7020 7033 0
-7021 7033 0
-1567 -7021 7034 0
-7022 7034 0
-1567 -7022 7035 0
-7023 7035 0
-1567 -7023 7036 0
-7024 7036 0
-1567 -7024 7037 0
-7025 7037 0
-1567 -7025 7038 0
-7026 7038 0
-1567 -7026 7039 0
-7027 7039 0
-1567 -7027 7040 0
-7028 7040 0
-1567 -7028 0
-1568 7041 0
-7029 7041 0
-1568 -7029 7042 0
-7030 7042 0
-1568 -7030 7043 0
-7031 7043 0
-1568 -7031 7044 0
-7032 7044 0
-1568 -7032 7045 0
-7033 7045 0
-1568 -7033 7046 0
-7034 7046 0
-1568 -7034 7047 0
-7035 7047 0
-1568 -7035 7048 0
-7036 7048 0
-1568 -7036 7049 0
-7037 7049 0
-1568 -7037 7050 0
-7038 7050 0
-1568 -7038 7051 0
-7039 7051 0
-1568 -7039 7052 0
-7040 7052 0
-1568 -7040 0
-1568 7053 0
-7041 7053 0
-1568 -7041 7054 0
-7042 7054 0
-1568 -7042 7055 0
-7043 7055 0
-1568 -7043 7056 0
-7044 7056 0
-1568 -7044 7057 0
-7045 7057 0
-1568 -7045 7058 0
-7046 7058 0
-1568 -7046 7059 0
-7047 7059 0
-1568 -7047 7060 0
-7048 7060 0
-1568 -7048 7061 0
-7049 7061 0
-1568 -7049 7062 0
-7050 7062 0
-1568 -7050 7063 0
-7051 7063 0
-1568 -7051 7064 0
-7052 7064 0
-1568 -7052 0
-1578 7065 0
-7053 7065 0
-1578 -7053 7066 0
-7054 7066 0
-1578 -7054 7067 0
-7055 7067 0
-1578 -7055 7068 0
-7056 7068 0
-1578 -7056 7069 0
-7057 7069 0
-1578 -7057 7070 0
-7058 7070 0
-1578 -7058 7071 0
-7059 7071 0
-1578 -7059 7072 0
-7060 7072 0
-1578 -7060 7073 0
-7061 7073 0
-1578 -7061 7074 0
-7062 7074 0
-1578 -7062 7075 0
-7063 7075 0
-1578 -7063 7076 0
-7064 7076 0
-1578 -7064 0
-1578 7077 0
-7065 7077 0
-1578 -7065 7078 0
-7066 7078 0
-1578 -7066 7079 0
-7067 7079 0
-1578 -7067 7080 0
-7068 7080 0
-1578 -7068 7081 0
-7069 7081 0
-1578 -7069 7082 0
-7070 7082 0
-1578 -7070 7083 0
-7071 7083 0
-1578 -7071 7084 0
-7072 7084 0
-1578 -7072 7085 0
-7073 7085 0
-1578 -7073 7086 0
-7074 7086 0
-1578 -7074 7087 0
-7075 7087 0
-1578 -7075 7088 0
-7076 7088 0
-1578 -7076 0
-1578 7089 0
-7077 7089 0
-1578 -7077 7090 0
-7078 7090 0
-1578 -7078 7091 0
-7079 7091 0
-1578 -7079 7092 0
-7080 7092 0
-1578 -7080 7093 0
-7081 7093 0
-1578 -7081 7094 0
-7082 7094 0
-1578 -7082 7095 0
-7083 7095 0
-1578 -7083 7096 0
-7084 7096 0
-1578 -7084 7097 0
-7085 7097 0
-1578 -7085 7098 0
-7086 7098 0
-1578 -7086 7099 0
-7087 7099 0
-1578 -7087 7100 0
-7088 7100 0
-1578 -7088 0
-1579 7101 0
-7089 7101 0
-1579 -7089 7102 0
-7090 7102 0
-1579 -7090 7103 0
-7091 7103 0
-1579 -7091 7104 0
-7092 7104 0
-1579 -7092 7105 0
-7093 7105 0
-1579 -7093 7106 0
-7094 7106 0
-1579 -7094 7107 0
-7095 7107 0
-1579 -7095 7108 0
-7096 7108 0
-1579 -7096 7109 0
-7097 7109 0
-1579 -7097 7110 0
-7098 7110 0
-1579 -7098 7111 0
-7099 7111 0
-1579 -7099 7112 0
-7100 7112 0
-1579 -7100 0
-1579 7113 0
-7101 7113 0
-1579 -7101 7114 0
-7102 7114 0
-1579 -7102 7115 0
-7103 7115 0
-1579 -7103 7116 0
-7104 7116 0
-1579 -7104 7117 0
-7105 7117 0
-1579 -7105 7118 0
-7106 7118 0
-1579 -7106 7119 0
-7107 7119 0
-1579 -7107 7120 0
-7108 7120 0
-1579 -7108 7121 0
-7109 7121 0
-1579 -7109 7122 0
-7110 7122 0
-1579 -7110 7123 0
-7111 7123 0
-1579 -7111 7124 0
-7112 7124 0
-1579 -7112 0
-1589 7125 0
-7113 7125 0
-1589 -7113 7126 0
-7114 7126 0
-1589 -7114 7127 0
-7115 7127 0
-1589 -7115 7128 0
-7116 7128 0
-1589 -7116 7129 0
-7117 7129 0
-1589 -7117 7130 0
-7118 7130 0
-1589 -7118 7131 0
-7119 7131 0
-1589 -7119 7132 0
-7120 7132 0
-1589 -7120 7133 0
-7121 7133 0
-1589 -7121 7134 0
-7122 7134 0
-1589 -7122 7135 0
-7123 7135 0
-1589 -7123 7136 0
-7124 7136 0
-1589 -7124 0
-1589 7137 0
-7125 7137 0
-1589 -7125 7138 0
-7126 7138 0
-1589 -7126 7139 0
-7127 7139 0
-1589 -7127 7140 0
-7128 7140 0
-1589 -7128 7141 0
-7129 7141 0
-1589 -7129 7142 0
-7130 7142 0
-1589 -7130 7143 0
-7131 7143 0
-1589 -7131 7144 0
-7132 7144 0
-1589 -7132 7145 0
-7133 7145 0
-1589 -7133 7146 0
-7134 7146 0
-1589 -7134 7147 0
-7135 7147 0
-1589 -7135 7148 0
-7136 7148 0
-1589 -7136 0
-1589 7149 0
-7137 7149 0
-1589 -7137 7150 0
-7138 7150 0
-1589 -7138 7151 0
-7139 7151 0
-1589 -7139 7152 0
-7140 7152 0
-1589 -7140 7153 0
-7141 7153 0
-1589 -7141 7154 0
-7142 7154 0
-1589 -7142 7155 0
-7143 7155 0
-1589 -7143 7156 0
-7144 7156 0
-1589 -7144 7157 0
-7145 7157 0
-1589 -7145 7158 0
-7146 7158 0
-1589 -7146 7159 0
-7147 7159 0
-1589 -7147 7160 0
-7148 7160 0
-1589 -7148 0
-1590 7161 0
-7149 7161 0
-1590 -7149 7162 0
-7150 7162 0
-1590 -7150 7163 0
-7151 7163 0
-1590 -7151 7164 0
-7152 7164 0
-1590 -7152 7165 0
-7153 7165 0
-1590 -7153 7166 0
-7154 7166 0
-1590 -7154 7167 0
-7155 7167 0
-1590 -7155 7168 0
-7156 7168 0
-1590 -7156 7169 0
-7157 7169 0
-1590 -7157 7170 0
-7158 7170 0
-1590 -7158 7171 0
-7159 7171 0
-1590 -7159 7172 0
-7160 7172 0
-1590 -7160 0
-1590 7173 0
-7161 7173 0
-1590 -7161 7174 0
-7162 7174 0
-1590 -7162 7175 0
-7163 7175 0
-1590 -7163 7176 0
-7164 7176 0
-1590 -7164 7177 0
-7165 7177 0
-1590 -7165 7178 0
-7166 7178 0
-1590 -7166 7179 0
-7167 7179 0
-1590 -7167 7180 0
-7168 7180 0
-1590 -7168 7181 0
-7169 7181 0
-1590 -7169 7182 0
-7170 7182 0
-1590 -7170 7183 0
-7171 7183 0
-1590 -7171 7184 0
-7172 7184 0
-1590 -7172 0
-1600 7185 0
-7173 7185 0
-1600 -7173 7186 0
-7174 7186 0
-1600 -7174 7187 0
-7175 7187 0
-1600 -7175 7188 0
-7176 7188 0
-1600 -7176 7189 0
-7177 7189 0
-1600 -7177 7190 0
-7178 7190 0
-1600 -7178 7191 0
-7179 7191 0
-1600 -7179 7192 0
-7180 7192 0
-1600 -7180 7193 0
-7181 7193 0
-1600 -7181 7194 0
-7182 7194 0
-1600 -7182 7195 0
-7183 7195 0
-1600 -7183 7196 0
-7184 7196 0
-1600 -7184 0
-1600 7197 0
-7185 7197 0
-1600 -7185 7198 0
-7186 7198 0
-1600 -7186 7199 0
-7187 7199 0
-1600 -7187 7200 0
-7188 7200 0
-1600 -7188 7201 0
-7189 7201 0
-1600 -7189 7202 0
-7190 7202 0
-1600 -7190 7203 0
-7191 7203 0
-1600 -7191 7204 0
-7192 7204 0
-1600 -7192 7205 0
-7193 7205 0
-1600 -7193 7206 0
-7194 7206 0
-1600 -7194 7207 0
-7195 7207 0
-1600 -7195 7208 0
-7196 7208 0
-1600 -7196 0
-1600 7209 0
-7197 7209 0
-1600 -7197 7210 0
-7198 7210 0
-1600 -7198 7211 0
-7199 7211 0
-1600 -7199 7212 0
-7200 7212 0
-1600 -7200 7213 0
-7201 7213 0
-1600 -7201 7214 0
-7202 7214 0
-1600 -7202 7215 0
-7203 7215 0
-1600 -7203 7216 0
-7204 7216 0
-1600 -7204 7217 0
-7205 7217 0
-1600 -7205 7218 0
-7206 7218 0
-1600 -7206 7219 0
-7207 7219 0
-1600 -7207 7220 0
-7208 7220 0
-1600 -7208 0
-1601 7221 0
-7209 7221 0
-1601 -7209 7222 0
-7210 7222 0
-1601 -7210 7223 0
-7211 7223 0
-1601 -7211 7224 0
-7212 7224 0
-1601 -7212 7225 0
-7213 7225 0
-1601 -7213 7226 0
-7214 7226 0
-1601 -7214 7227 0
-7215 7227 0
-1601 -7215 7228 0
-7216 7228 0
-1601 -7216 7229 0
-7217 7229 0
-1601 -7217 7230 0
-7218 7230 0
-1601 -7218 7231 0
-7219 7231 0
-1601 -7219 7232 0
-7220 7232 0
-1601 -7220 0
-1601 7233 0
-7221 7233 0
-1601 -7221 7234 0
-7222 7234 0
-1601 -7222 7235 0
-7223 7235 0
-1601 -7223 7236 0
-7224 7236 0
-1601 -7224 7237 0
-7225 7237 0
-1601 -7225 7238 0
-7226 7238 0
-1601 -7226 7239 0
-7227 7239 0
-1601 -7227 7240 0
-7228 7240 0
-1601 -7228 7241 0
-7229 7241 0
-1601 -7229 7242 0
-7230 7242 0
-1601 -7230 7243 0
-7231 7243 0
-1601 -7231 7244 0
-7232 7244 0
-1601 -7232 0
-1611 7245 0
-7233 7245 0
-1611 -7233 7246 0
-7234 7246 0
-1611 -7234 7247 0
-7235 7247 0
-1611 -7235 7248 0
-7236 7248 0
-1611 -7236 7249 0
-7237 7249 0
-1611 -7237 7250 0
-7238 7250 0
-1611 -7238 7251 0
-7239 7251 0
-1611 -7239 7252 0
-7240 7252 0
-1611 -7240 7253 0
-7241 7253 0
-1611 -7241 7254 0
-7242 7254 0
-1611 -7242 7255 0
-7243 7255 0
-1611 -7243 7256 0
-7244 7256 0
-1611 -7244 0
-1611 7257 0
-7245 7257 0
-1611 -7245 7258 0
-7246 7258 0
-1611 -7246 7259 0
-7247 7259 0
-1611 -7247 7260 0
-7248 7260 0
-1611 -7248 7261 0
-7249 7261 0
-1611 -7249 7262 0
-7250 7262 0
-1611 -7250 7263 0
-7251 7263 0
-1611 -7251 7264 0
-7252 7264 0
-1611 -7252 7265 0
-7253 7265 0
-1611 -7253 7266 0
-7254 7266 0
-1611 -7254 7267 0
-7255 7267 0
-1611 -7255 7268 0
-7256 7268 0
-1611 -7256 0
-1611 7269 0
-7257 7269 0
-1611 -7257 7270 0
-7258 7270 0
-1611 -7258 7271 0
-7259 7271 0
-1611 -7259 7272 0
-7260 7272 0
-1611 -7260 7273 0
-7261 7273 0
-1611 -7261 7274 0
-7262 7274 0
-1611 -7262 7275 0
-7263 7275 0
-1611 -7263 7276 0
-7264 7276 0
-1611 -7264 7277 0
-7265 7277 0
-1611 -7265 7278 0
-7266 7278 0
-1611 -7266 7279 0
-7267 7279 0
-1611 -7267 7280 0
-7268 7280 0
-1611 -7268 0
-1612 7281 0
-7269 7281 0
-1612 -7269 7282 0
-7270 7282 0
-1612 -7270 7283 0
-7271 7283 0
-1612 -7271 7284 0
-7272 7284 0
-1612 -7272 7285 0
-7273 7285 0
-1612 -7273 7286 0
-7274 7286 0
-1612 -7274 7287 0
-7275 7287 0
-1612 -7275 7288 0
-7276 7288 0
-1612 -7276 7289 0
-7277 7289 0
-1612 -7277 7290 0
-7278 7290 0
-1612 -7278 7291 0
-7279 7291 0
-1612 -7279 7292 0
-7280 7292 0
-1612 -7280 0
-1612 7293 0
-7281 7293 0
-1612 -7281 7294 0
-7282 7294 0
-1612 -7282 7295 0
-7283 7295 0
-1612 -7283 7296 0
-7284 7296 0
-1612 -7284 7297 0
-7285 7297 0
-1612 -7285 7298 0
-7286 7298 0
-1612 -7286 7299 0
-7287 7299 0
-1612 -7287 7300 0
-7288 7300 0
-1612 -7288 7301 0
-7289 7301 0
-1612 -7289 7302 0
-7290 7302 0
-1612 -7290 7303 0
-7291 7303 0
-1612 -7291 7304 0
-7292 7304 0
-1612 -7292 0
-1622 7305 0
-7293 7305 0
-1622 -7293 7306 0
-7294 7306 0
-1622 -7294 7307 0
-7295 7307 0
-1622 -7295 7308 0
-7296 7308 0
-1622 -7296 7309 0
-7297 7309 0
-1622 -7297 7310 0
-7298 7310 0
-1622 -7298 7311 0
-7299 7311 0
-1622 -7299 7312 0
-7300 7312 0
-1622 -7300 7313 0
-7301 7313 0
-1622 -7301 7314 0
-7302 7314 0
-1622 -7302 7315 0
-7303 7315 0
-1622 -7303 7316 0
-7304 7316 0
-1622 -7304 0
-1622 7317 0
-7305 7317 0
-1622 -7305 7318 0
-7306 7318 0
-1622 -7306 7319 0
-7307 7319 0
-1622 -7307 7320 0
-7308 7320 0
-1622 -7308 7321 0
-7309 7321 0
-1622 -7309 7322 0
-7310 7322 0
-1622 -7310 7323 0
-7311 7323 0
-1622 -7311 7324 0
-7312 7324 0
-1622 -7312 7325 0
-7313 7325 0
-1622 -7313 7326 0
-7314 7326 0
-1622 -7314 7327 0
-7315 7327 0
-1622 -7315 7328 0
-7316 7328 0
-1622 -7316 0
-1622 7329 0
-7317 7329 0
-1622 -7317 7330 0
-7318 7330 0
-1622 -7318 7331 0
-7319 7331 0
-1622 -7319 7332 0
-7320 7332 0
-1622 -7320 7333 0
-7321 7333 0
-1622 -7321 7334 0
-7322 7334 0
-1622 -7322 7335 0
-7323 7335 0
-1622 -7323 7336 0
-7324 7336 0
-1622 -7324 7337 0
-7325 7337 0
-1622 -7325 7338 0
-7326 7338 0
-1622 -7326 7339 0
-7327 7339 0
-1622 -7327 7340 0
-7328 7340 0
-1622 -7328 0
-1623 7341 0
-7329 7341 0
-1623 -7329 7342 0
-7330 7342 0
-1623 -7330 7343 0
-7331 7343 0
-1623 -7331 7344 0
-7332 7344 0
-1623 -7332 7345 0
-7333 7345 0
-1623 -7333 7346 0
-7334 7346 0
-1623 -7334 7347 0
-7335 7347 0
-1623 -7335 7348 0
-7336 7348 0
-1623 -7336 7349 0
-7337 7349 0
-1623 -7337 7350 0
-7338 7350 0
-1623 -7338 7351 0
-7339 7351 0
-1623 -7339 7352 0
-7340 7352 0
-1623 -7340 0
-1623 7353 0
-7341 7353 0
-1623 -7341 7354 0
-7342 7354 0
-1623 -7342 7355 0
-7343 7355 0
-1623 -7343 7356 0
-7344 7356 0
-1623 -7344 7357 0
-7345 7357 0
-1623 -7345 7358 0
-7346 7358 0
-1623 -7346 7359 0
-7347 7359 0
-1623 -7347 7360 0
-7348 7360 0
-1623 -7348 7361 0
-7349 7361 0
-1623 -7349 7362 0
-7350 7362 0
-1623 -7350 7363 0
-7351 7363 0
-1623 -7351 7364 0
-7352 7364 0
-1623 -7352 0
-1633 7365 0
-7353 7365 0
-1633 -7353 7366 0
-7354 7366 0
-1633 -7354 7367 0
-7355 7367 0
-1633 -7355 7368 0
-7356 7368 0
-1633 -7356 7369 0
-7357 7369 0
-1633 -7357 7370 0
-7358 7370 0
-1633 -7358 7371 0
-7359 7371 0
-1633 -7359 7372 0
-7360 7372 0
-1633 -7360 7373 0
-7361 7373 0
-1633 -7361 7374 0
-7362 7374 0
-1633 -7362 7375 0
-7363 7375 0
-1633 -7363 7376 0
-7364 7376 0
-1633 -7364 0
-1633 7377 0
-7365 7377 0
-1633 -7365 7378 0
-7366 7378 0
-1633 -7366 7379 0
-7367 7379 0
-1633 -7367 7380 0
-7368 7380 0
-1633 -7368 7381 0
-7369 7381 0
-1633 -7369 7382 0
-7370 7382 0
-1633 -7370 7383 0
-7371 7383 0
-1633 -7371 7384 0
-7372 7384 0
-1633 -7372 7385 0
-7373 7385 0
-1633 -7373 7386 0
-7374 7386 0
-1633 -7374 7387 0
-7375 7387 0
-1633 -7375 7388 0
-7376 7388 0
-1633 -7376 0
-1633 7389 0
-7377 7389 0
-1633 -7377 7390 0
-7378 7390 0
-1633 -7378 7391 0
-7379 7391 0
-1633 -7379 7392 0
-7380 7392 0
-1633 -7380 7393 0
-7381 7393 0
-1633 -7381 7394 0
-7382 7394 0
-1633 -7382 7395 0
-7383 7395 0
-1633 -7383 7396 0
-7384 7396 0
-1633 -7384 7397 0
-7385 7397 0
-1633 -7385 7398 0
-7386 7398 0
-1633 -7386 7399 0
-7387 7399 0
-1633 -7387 7400 0
-7388 7400 0
-1633 -7388 0
-1634 7401 0
-7389 7401 0
-1634 -7389 7402 0
-7390 7402 0
-1634 -7390 7403 0
-7391 7403 0
-1634 -7391 7404 0
-7392 7404 0
-1634 -7392 7405 0
-7393 7405 0
-1634 -7393 7406 0
-7394 7406 0
-1634 -7394 7407 0
-7395 7407 0
-1634 -7395 7408 0
-7396 7408 0
-1634 -7396 7409 0
-7397 7409 0
-1634 -7397 7410 0
-7398 7410 0
-1634 -7398 7411 0
-7399 7411 0
-1634 -7399 7412 0
-7400 7412 0
-1634 -7400 0
-1634 7413 0
-7401 7413 0
-1634 -7401 7414 0
-7402 7414 0
-1634 -7402 7415 0
-7403 7415 0
-1634 -7403 7416 0
-7404 7416 0
-1634 -7404 7417 0
-7405 7417 0
-1634 -7405 7418 0
-7406 7418 0
-1634 -7406 7419 0
-7407 7419 0
-1634 -7407 7420 0
-7408 7420 0
-1634 -7408 7421 0
-7409 7421 0
-1634 -7409 7422 0
-7410 7422 0
-1634 -7410 7423 0
-7411 7423 0
-1634 -7411 7424 0
-7412 7424 0
-1634 -7412 0
-1644 7425 0
-7413 7425 0
-1644 -7413 7426 0
-7414 7426 0
-1644 -7414 7427 0
-7415 7427 0
-1644 -7415 7428 0
-7416 7428 0
-1644 -7416 7429 0
-7417 7429 0
-1644 -7417 7430 0
-7418 7430 0
-1644 -7418 7431 0
-7419 7431 0
-1644 -7419 7432 0
-7420 7432 0
-1644 -7420 7433 0
-7421 7433 0
-1644 -7421 7434 0
-7422 7434 0
-1644 -7422 7435 0
-7423 7435 0
-1644 -7423 7436 0
-7424 7436 0
-1644 -7424 0
-1644 7437 0
-7425 7437 0
-1644 -7425 7438 0
-7426 7438 0
-1644 -7426 7439 0
-7427 7439 0
-1644 -7427 7440 0
-7428 7440 0
-1644 -7428 7441 0
-7429 7441 0
-1644 -7429 7442 0
-7430 7442 0
-1644 -7430 7443 0
-7431 7443 0
-1644 -7431 7444 0
-7432 7444 0
-1644 -7432 7445 0
-7433 7445 0
-1644 -7433 7446 0
-7434 7446 0
-1644 -7434 7447 0
-7435 7447 0
-1644 -7435 7448 0
-7436 7448 0
-1644 -7436 0
-1644 7449 0
-7437 7449 0
-1644 -7437 7450 0
-7438 7450 0
-1644 -7438 7451 0
-7439 7451 0
-1644 -7439 7452 0
-7440 7452 0
-1644 -7440 7453 0
-7441 7453 0
-1644 -7441 7454 0
-7442 7454 0
-1644 -7442 7455 0
-7443 7455 0
-1644 -7443 7456 0
-7444 7456 0
-1644 -7444 7457 0
-7445 7457 0
-1644 -7445 7458 0
-7446 7458 0
-1644 -7446 7459 0
-7447 7459 0
-1644 -7447 7460 0
-7448 7460 0
-1644 -7448 0
-1645 7461 0
-7449 7461 0
-1645 -7449 7462 0
-7450 7462 0
-1645 -7450 7463 0
-7451 7463 0
-1645 -7451 7464 0
-7452 7464 0
-1645 -7452 7465 0
-7453 7465 0
-1645 -7453 7466 0
-7454 7466 0
-1645 -7454 7467 0
-7455 7467 0
-1645 -7455 7468 0
-7456 7468 0
-1645 -7456 7469 0
-7457 7469 0
-1645 -7457 7470 0
-7458 7470 0
-1645 -7458 7471 0
-7459 7471 0
-1645 -7459 7472 0
-7460 7472 0
-1645 -7460 0
-1645 7473 0
-7461 7473 0
-1645 -7461 7474 0
-7462 7474 0
-1645 -7462 7475 0
-7463 7475 0
-1645 -7463 7476 0
-7464 7476 0
-1645 -7464 7477 0
-7465 7477 0
-1645 -7465 7478 0
-7466 7478 0
-1645 -7466 7479 0
-7467 7479 0
-1645 -7467 7480 0
-7468 7480 0
-1645 -7468 7481 0
-7469 7481 0
-1645 -7469 7482 0
-7470 7482 0
-1645 -7470 7483 0
-7471 7483 0
-1645 -7471 7484 0
-7472 7484 0
-1645 -7472 0
-1655 7485 0
-7473 7485 0
-1655 -7473 7486 0
-7474 7486 0
-1655 -7474 7487 0
-7475 7487 0
-1655 -7475 7488 0
-7476 7488 0
-1655 -7476 7489 0
-7477 7489 0
-1655 -7477 7490 0
-7478 7490 0
-1655 -7478 7491 0
-7479 7491 0
-1655 -7479 7492 0
-7480 7492 0
-1655 -7480 7493 0
-7481 7493 0
-1655 -7481 7494 0
-7482 7494 0
-1655 -7482 7495 0
-7483 7495 0
-1655 -7483 7496 0
-7484 7496 0
-1655 -7484 0
-1655 7497 0
-7485 7497 0
-1655 -7485 7498 0
-7486 7498 0
-1655 -7486 7499 0
-7487 7499 0
-1655 -7487 7500 0
-7488 7500 0
-1655 -7488 7501 0
-7489 7501 0
-1655 -7489 7502 0
-7490 7502 0
-1655 -7490 7503 0
-7491 7503 0
-1655 -7491 7504 0
-7492 7504 0
-1655 -7492 7505 0
-7493 7505 0
-1655 -7493 7506 0
-7494 7506 0
-1655 -7494 7507 0
-7495 7507 0
-1655 -7495 7508 0
-7496 7508 0
-1655 -7496 0
-1655 7509 0
-7497 7509 0
-1655 -7497 7510 0
-7498 7510 0
-1655 -7498 7511 0
-7499 7511 0
-1655 -7499 7512 0
-7500 7512 0
-1655 -7500 7513 0
-7501 7513 0
-1655 -7501 7514 0
-7502 7514 0
-1655 -7502 7515 0
-7503 7515 0
-1655 -7503 7516 0
-7504 7516 0
-1655 -7504 7517 0
-7505 7517 0
-1655 -7505 7518 0
-7506 7518 0
-1655 -7506 7519 0
-7507 7519 0
-1655 -7507 7520 0
-7508 7520 0
-1655 -7508 0
-1656 7521 0
-7509 7521 0
-1656 -7509 7522 0
-7510 7522 0
-1656 -7510 7523 0
-7511 7523 0
-1656 -7511 7524 0
-7512 7524 0
-1656 -7512 7525 0
-7513 7525 0
-1656 -7513 7526 0
-7514 7526 0
-1656 -7514 7527 0
-7515 7527 0
-1656 -7515 7528 0
-7516 7528 0
-1656 -7516 7529 0
-7517 7529 0
-1656 -7517 7530 0
-7518 7530 0
-1656 -7518 7531 0
-7519 7531 0
-1656 -7519 7532 0
-7520 7532 0
-1656 -7520 0
-1656 7533 0
-7521 7533 0
-1656 -7521 7534 0
-7522 7534 0
-1656 -7522 7535 0
-7523 7535 0
-1656 -7523 7536 0
-7524 7536 0
-1656 -7524 7537 0
-7525 7537 0
-1656 -7525 7538 0
-7526 7538 0
-1656 -7526 7539 0
-7527 7539 0
-1656 -7527 7540 0
-7528 7540 0
-1656 -7528 7541 0
-7529 7541 0
-1656 -7529 7542 0
-7530 7542 0
-1656 -7530 7543 0
-7531 7543 0
-1656 -7531 7544 0
-7532 7544 0
-1656 -7532 0
-1666 7545 0
-7533 7545 0
-1666 -7533 7546 0
-7534 7546 0
-1666 -7534 7547 0
-7535 7547 0
-1666 -7535 7548 0
-7536 7548 0
-1666 -7536 7549 0
-7537 7549 0
-1666 -7537 7550 0
-7538 7550 0
-1666 -7538 7551 0
-7539 7551 0
-1666 -7539 7552 0
-7540 7552 0
-1666 -7540 7553 0
-7541 7553 0
-1666 -7541 7554 0
-7542 7554 0
-1666 -7542 7555 0
-7543 7555 0
-1666 -7543 7556 0
-7544 7556 0
-1666 -7544 0
-1666 7557 0
-7545 7557 0
-1666 -7545 7558 0
-7546 7558 0
-1666 -7546 7559 0
-7547 7559 0
-1666 -7547 7560 0
-7548 7560 0
-1666 -7548 7561 0
-7549 7561 0
-1666 -7549 7562 0
-7550 7562 0
-1666 -7550 7563 0
-7551 7563 0
-1666 -7551 7564 0
-7552 7564 0
-1666 -7552 7565 0
-7553 7565 0
-1666 -7553 7566 0
-7554 7566 0
-1666 -7554 7567 0
-7555 7567 0
-1666 -7555 7568 0
-7556 7568 0
-1666 -7556 0
-1666 7569 0
-7557 7569 0
-1666 -7557 7570 0
-7558 7570 0
-1666 -7558 7571 0
-7559 7571 0
-1666 -7559 7572 0
-7560 7572 0
-1666 -7560 7573 0
-7561 7573 0
-1666 -7561 7574 0
-7562 7574 0
-1666 -7562 7575 0
-7563 7575 0
-1666 -7563 7576 0
-7564 7576 0
-1666 -7564 7577 0
-7565 7577 0
-1666 -7565 7578 0
-7566 7578 0
-1666 -7566 7579 0
-7567 7579 0
-1666 -7567 7580 0
-7568 7580 0
-1666 -7568 0
-1667 7581 0
-7569 7581 0
-1667 -7569 7582 0
-7570 7582 0
-1667 -7570 7583 0
-7571 7583 0
-1667 -7571 7584 0
-7572 7584 0
-1667 -7572 7585 0
-7573 7585 0
-1667 -7573 7586 0
-7574 7586 0
-1667 -7574 7587 0
-7575 7587 0
-1667 -7575 7588 0
-7576 7588 0
-1667 -7576 7589 0
-7577 7589 0
-1667 -7577 7590 0
-7578 7590 0
-1667 -7578 7591 0
-7579 7591 0
-1667 -7579 7592 0
-7580 7592 0
-1667 -7580 0
-1667 7593 0
-7581 7593 0
-1667 -7581 7594 0
-7582 7594 0
-1667 -7582 7595 0
-7583 7595 0
-1667 -7583 7596 0
-7584 7596 0
-1667 -7584 7597 0
-7585 7597 0
-1667 -7585 7598 0
-7586 7598 0
-1667 -7586 7599 0
-7587 7599 0
-1667 -7587 7600 0
-7588 7600 0
-1667 -7588 7601 0
-7589 7601 0
-1667 -7589 7602 0
-7590 7602 0
-1667 -7590 7603 0
-7591 7603 0
-1667 -7591 7604 0
-7592 7604 0
-1667 -7592 0
-1677 7605 0
-7593 7605 0
-1677 -7593 7606 0
-7594 7606 0
-1677 -7594 7607 0
-7595 7607 0
-1677 -7595 7608 0
-7596 7608 0
-1677 -7596 7609 0
-7597 7609 0
-1677 -7597 7610 0
-7598 7610 0
-1677 -7598 7611 0
-7599 7611 0
-1677 -7599 7612 0
-7600 7612 0
-1677 -7600 7613 0
-7601 7613 0
-1677 -7601 7614 0
-7602 7614 0
-1677 -7602 7615 0
-7603 7615 0
-1677 -7603 7616 0
-7604 7616 0
-1677 -7604 0
-1677 7617 0
-7605 7617 0
-1677 -7605 7618 0
-7606 7618 0
-1677 -7606 7619 0
-7607 7619 0
-1677 -7607 7620 0
-7608 7620 0
-1677 -7608 7621 0
-7609 7621 0
-1677 -7609 7622 0
-7610 7622 0
-1677 -7610 7623 0
-7611 7623 0
-1677 -7611 7624 0
-7612 7624 0
-1677 -7612 7625 0
-7613 7625 0
-1677 -7613 7626 0
-7614 7626 0
-1677 -7614 7627 0
-7615 7627 0
-1677 -7615 7628 0
-7616 7628 0
-1677 -7616 0
-1677 7629 0
-7617 7629 0
-1677 -7617 7630 0
-7618 7630 0
-1677 -7618 7631 0
-7619 7631 0
-1677 -7619 7632 0
-7620 7632 0
-1677 -7620 7633 0
-7621 7633 0
-1677 -7621 7634 0
-7622 7634 0
-1677 -7622 7635 0
-7623 7635 0
-1677 -7623 7636 0
-7624 7636 0
-1677 -7624 7637 0
-7625 7637 0
-1677 -7625 7638 0
-7626 7638 0
-1677 -7626 7639 0
-7627 7639 0
-1677 -7627 7640 0
-7628 7640 0
-1677 -7628 0
-1678 7641 0
-7629 7641 0
-1678 -7629 7642 0
-7630 7642 0
-1678 -7630 7643 0
-7631 7643 0
-1678 -7631 7644 0
-7632 7644 0
-1678 -7632 7645 0
-7633 7645 0
-1678 -7633 7646 0
-7634 7646 0
-1678 -7634 7647 0
-7635 7647 0
-1678 -7635 7648 0
-7636 7648 0
-1678 -7636 7649 0
-7637 7649 0
-1678 -7637 7650 0
-7638 7650 0
-1678 -7638 7651 0
-7639 7651 0
-1678 -7639 7652 0
-7640 7652 0
-1678 -7640 0
-1678 7653 0
-7641 7653 0
-1678 -7641 7654 0
-7642 7654 0
-1678 -7642 7655 0
-7643 7655 0
-1678 -7643 7656 0
-7644 7656 0
-1678 -7644 7657 0
-7645 7657 0
-1678 -7645 7658 0
-7646 7658 0
-1678 -7646 7659 0
-7647 7659 0
-1678 -7647 7660 0
-7648 7660 0
-1678 -7648 7661 0
-7649 7661 0
-1678 -7649 7662 0
-7650 7662 0
-1678 -7650 7663 0
-7651 7663 0
-1678 -7651 7664 0
-7652 7664 0
-1678 -7652 0
-1688 7665 0
-7653 7665 0
-1688 -7653 7666 0
-7654 7666 0
-1688 -7654 7667 0
-7655 7667 0
-1688 -7655 7668 0
-7656 7668 0
-1688 -7656 7669 0
-7657 7669 0
-1688 -7657 7670 0
-7658 7670 0
-1688 -7658 7671 0
-7659 7671 0
-1688 -7659 7672 0
-7660 7672 0
-1688 -7660 7673 0
-7661 7673 0
-1688 -7661 7674 0
-7662 7674 0
-1688 -7662 7675 0
-7663 7675 0
-1688 -7663 7676 0
-7664 7676 0
-1688 -7664 0
-1688 7677 0
-7665 7677 0
-1688 -7665 7678 0
-7666 7678 0
-1688 -7666 7679 0
-7667 7679 0
-1688 -7667 7680 0
-7668 7680 0
-1688 -7668 7681 0
-7669 7681 0
-1688 -7669 7682 0
-7670 7682 0
-1688 -7670 7683 0
-7671 7683 0
-1688 -7671 7684 0
-7672 7684 0
-1688 -7672 7685 0
-7673 7685 0
-1688 -7673 7686 0
-7674 7686 0
-1688 -7674 7687 0
-7675 7687 0
-1688 -7675 7688 0
-7676 7688 0
-1688 -7676 0
-1688 7689 0
-7677 7689 0
-1688 -7677 7690 0
-7678 7690 0
-1688 -7678 7691 0
-7679 7691 0
-1688 -7679 7692 0
-7680 7692 0
-1688 -7680 7693 0
-7681 7693 0
-1688 -7681 7694 0
-7682 7694 0
-1688 -7682 7695 0
-7683 7695 0
-1688 -7683 7696 0
-7684 7696 0
-1688 -7684 7697 0
-7685 7697 0
-1688 -7685 7698 0
-7686 7698 0
-1688 -7686 7699 0
-7687 7699 0
-1688 -7687 7700 0
-7688 7700 0
-1688 -7688 0
-1689 7701 0
-7689 7701 0
-1689 -7689 7702 0
-7690 7702 0
-1689 -7690 7703 0
-7691 7703 0
-1689 -7691 7704 0
-7692 7704 0
-1689 -7692 7705 0
-7693 7705 0
-1689 -7693 7706 0
-7694 7706 0
-1689 -7694 7707 0
-7695 7707 0
-1689 -7695 7708 0
-7696 7708 0
-1689 -7696 7709 0
-7697 7709 0
-1689 -7697 7710 0
-7698 7710 0
-1689 -7698 7711 0
-7699 7711 0
-1689 -7699 7712 0
-7700 7712 0
-1689 -7700 0
-1689 7713 0
-7701 7713 0
-1689 -7701 7714 0
-7702 7714 0
-1689 -7702 7715 0
-7703 7715 0
-1689 -7703 7716 0
-7704 7716 0
-1689 -7704 7717 0
-7705 7717 0
-1689 -7705 7718 0
-7706 7718 0
-1689 -7706 7719 0
-7707 7719 0
-1689 -7707 7720 0
-7708 7720 0
-1689 -7708 7721 0
-7709 7721 0
-1689 -7709 7722 0
-7710 7722 0
-1689 -7710 7723 0
-7711 7723 0
-1689 -7711 7724 0
-7712 7724 0
-1689 -7712 0
-1699 7725 0
-7713 7725 0
-1699 -7713 7726 0
-7714 7726 0
-1699 -7714 7727 0
-7715 7727 0
-1699 -7715 7728 0
-7716 7728 0
-1699 -7716 7729 0
-7717 7729 0
-1699 -7717 7730 0
-7718 7730 0
-1699 -7718 7731 0
-7719 7731 0
-1699 -7719 7732 0
-7720 7732 0
-1699 -7720 7733 0
-7721 7733 0
-1699 -7721 7734 0
-7722 7734 0
-1699 -7722 7735 0
-7723 7735 0
-1699 -7723 7736 0
-7724 7736 0
-1699 -7724 0
-1699 7737 0
-7725 7737 0
-1699 -7725 7738 0
-7726 7738 0
-1699 -7726 7739 0
-7727 7739 0
-1699 -7727 7740 0
-7728 7740 0
-1699 -7728 7741 0
-7729 7741 0
-1699 -7729 7742 0
-7730 7742 0
-1699 -7730 7743 0
-7731 7743 0
-1699 -7731 7744 0
-7732 7744 0
-1699 -7732 7745 0
-7733 7745 0
-1699 -7733 7746 0
-7734 7746 0
-1699 -7734 7747 0
-7735 7747 0
-1699 -7735 7748 0
-7736 7748 0
-1699 -7736 0
-1699 7749 0
-7737 7749 0
-1699 -7737 7750 0
-7738 7750 0
-1699 -7738 7751 0
-7739 7751 0
-1699 -7739 7752 0
-7740 7752 0
-1699 -7740 7753 0
-7741 7753 0
-1699 -7741 7754 0
-7742 7754 0
-1699 -7742 7755 0
-7743 7755 0
-1699 -7743 7756 0
-7744 7756 0
-1699 -7744 7757 0
-7745 7757 0
-1699 -7745 7758 0
-7746 7758 0
-1699 -7746 7759 0
-7747 7759 0
-1699 -7747 7760 0
-7748 7760 0
-1699 -7748 0
-1700 7761 0
-7749 7761 0
-1700 -7749 7762 0
-7750 7762 0
-1700 -7750 7763 0
-7751 7763 0
-1700 -7751 7764 0
-7752 7764 0
-1700 -7752 7765 0
-7753 7765 0
-1700 -7753 7766 0
-7754 7766 0
-1700 -7754 7767 0
-7755 7767 0
-1700 -7755 7768 0
-7756 7768 0
-1700 -7756 7769 0
-7757 7769 0
-1700 -7757 7770 0
-7758 7770 0
-1700 -7758 7771 0
-7759 7771 0
-1700 -7759 7772 0
-7760 7772 0
-1700 -7760 0
-1700 7773 0
-7761 7773 0
-1700 -7761 7774 0
-7762 7774 0
-1700 -7762 7775 0
-7763 7775 0
-1700 -7763 7776 0
-7764 7776 0
-1700 -7764 7777 0
-7765 7777 0
-1700 -7765 7778 0
-7766 7778 0
-1700 -7766 7779 0
-7767 7779 0
-1700 -7767 7780 0
-7768 7780 0
-1700 -7768 7781 0
-7769 7781 0
-1700 -7769 7782 0
-7770 7782 0
-1700 -7770 7783 0
-7771 7783 0
-1700 -7771 7784 0
-7772 7784 0
-1700 -7772 0
-1710 7785 0
-7773 7785 0
-1710 -7773 7786 0
-7774 7786 0
-1710 -7774 7787 0
-7775 7787 0
-1710 -7775 7788 0
-7776 7788 0
-1710 -7776 7789 0
-7777 7789 0
-1710 -7777 7790 0
-7778 7790 0
-1710 -7778 7791 0
-7779 7791 0
-1710 -7779 7792 0
-7780 7792 0
-1710 -7780 7793 0
-7781 7793 0
-1710 -7781 7794 0
-7782 7794 0
-1710 -7782 7795 0
-7783 7795 0
-1710 -7783 7796 0
-7784 7796 0
-1710 -7784 0
-1710 7797 0
-7785 7797 0
-1710 -7785 7798 0
-7786 7798 0
-1710 -7786 7799 0
-7787 7799 0
-1710 -7787 7800 0
-7788 7800 0
-1710 -7788 7801 0
-7789 7801 0
-1710 -7789 7802 0
-7790 7802 0
-1710 -7790 7803 0
-7791 7803 0
-1710 -7791 7804 0
-7792 7804 0
-1710 -7792 7805 0
-7793 7805 0
-1710 -7793 7806 0
-7794 7806 0
-1710 -7794 7807 0
-7795 7807 0
-1710 -7795 7808 0
-7796 7808 0
-1710 -7796 0
-1710 7809 0
-7797 7809 0
-1710 -7797 7810 0
-7798 7810 0
-1710 -7798 7811 0
-7799 7811 0
-1710 -7799 7812 0
-7800 7812 0
-1710 -7800 7813 0
-7801 7813 0
-1710 -7801 7814 0
-7802 7814 0
-1710 -7802 7815 0
-7803 7815 0
-1710 -7803 7816 0
-7804 7816 0
-1710 -7804 7817 0
-7805 7817 0
-1710 -7805 7818 0
-7806 7818 0
-1710 -7806 7819 0
-7807 7819 0
-1710 -7807 7820 0
-7808 7820 0
-1710 -7808 0
-1711 7821 0
-7809 7821 0
-1711 -7809 7822 0
-7810 7822 0
-1711 -7810 7823 0
-7811 7823 0
-1711 -7811 7824 0
-7812 7824 0
-1711 -7812 7825 0
-7813 7825 0
-1711 -7813 7826 0
-7814 7826 0
-1711 -7814 7827 0
-7815 7827 0
-1711 -7815 7828 0
-7816 7828 0
-1711 -7816 7829 0
-7817 7829 0
-1711 -7817 7830 0
-7818 7830 0
-1711 -7818 7831 0
-7819 7831 0
-1711 -7819 7832 0
-7820 7832 0
-1711 -7820 0
-1711 7833 0
-7821 7833 0
-1711 -7821 7834 0
-7822 7834 0
-1711 -7822 7835 0
-7823 7835 0
-1711 -7823 7836 0
-7824 7836 0
-1711 -7824 7837 0
-7825 7837 0
-1711 -7825 7838 0
-7826 7838 0
-1711 -7826 7839 0
-7827 7839 0
-1711 -7827 7840 0
-7828 7840 0
-1711 -7828 7841 0
-7829 7841 0
-1711 -7829 7842 0
-7830 7842 0
-1711 -7830 7843 0
-7831 7843 0
-1711 -7831 7844 0
-7832 7844 0
-1711 -7832 0
-1721 7845 0
-7833 7845 0
-1721 -7833 7846 0
-7834 7846 0
-1721 -7834 7847 0
-7835 7847 0
-1721 -7835 7848 0
-7836 7848 0
-1721 -7836 7849 0
-7837 7849 0
-1721 -7837 7850 0
-7838 7850 0
-1721 -7838 7851 0
-7839 7851 0
-1721 -7839 7852 0
-7840 7852 0
-1721 -7840 7853 0
-7841 7853 0
-1721 -7841 7854 0
-7842 7854 0
-1721 -7842 7855 0
-7843 7855 0
-1721 -7843 7856 0
-7844 7856 0
-1721 -7844 0
-1721 7857 0
-7845 7857 0
-1721 -7845 7858 0
-7846 7858 0
-1721 -7846 7859 0
-7847 7859 0
-1721 -7847 7860 0
-7848 7860 0
-1721 -7848 7861 0
-7849 7861 0
-1721 -7849 7862 0
-7850 7862 0
-1721 -7850 7863 0
-7851 7863 0
-1721 -7851 7864 0
-7852 7864 0
-1721 -7852 7865 0
-7853 7865 0
-1721 -7853 7866 0
-7854 7866 0
-1721 -7854 7867 0
-7855 7867 0
-1721 -7855 7868 0
-7856 7868 0
-1721 -7856 0
-1721 7869 0
-7857 7869 0
-1721 -7857 7870 0
-7858 7870 0
-1721 -7858 7871 0
-7859 7871 0
-1721 -7859 7872 0
-7860 7872 0
-1721 -7860 7873 0
-7861 7873 0
-1721 -7861 7874 0
-7862 7874 0
-1721 -7862 7875 0
-7863 7875 0
-1721 -7863 7876 0
-7864 7876 0
-1721 -7864 7877 0
-7865 7877 0
-1721 -7865 7878 0
-7866 7878 0
-1721 -7866 7879 0
-7867 7879 0
-1721 -7867 7880 0
-7868 7880 0
-1721 -7868 0
-1722 7881 0
-7869 7881 0
-1722 -7869 7882 0
-7870 7882 0
-1722 -7870 7883 0
-7871 7883 0
-1722 -7871 7884 0
-7872 7884 0
-1722 -7872 7885 0
-7873 7885 0
-1722 -7873 7886 0
-7874 7886 0
-1722 -7874 7887 0
-7875 7887 0
-1722 -7875 7888 0
-7876 7888 0
-1722 -7876 7889 0
-7877 7889 0
-1722 -7877 7890 0
-7878 7890 0
-1722 -7878 7891 0
-7879 7891 0
-1722 -7879 7892 0
-7880 7892 0
-1722 -7880 0
-1722 7893 0
-7881 7893 0
-1722 -7881 7894 0
-7882 7894 0
-1722 -7882 7895 0
-7883 7895 0
-1722 -7883 7896 0
-7884 7896 0
-1722 -7884 7897 0
-7885 7897 0
-1722 -7885 7898 0
-7886 7898 0
-1722 -7886 7899 0
-7887 7899 0
-1722 -7887 7900 0
-7888 7900 0
-1722 -7888 7901 0
-7889 7901 0
-1722 -7889 7902 0
-7890 7902 0
-1722 -7890 7903 0
-7891 7903 0
-1722 -7891 7904 0
-7892 7904 0
-1722 -7892 0
-1732 7905 0
-7893 7905 0
-1732 -7893 7906 0
-7894 7906 0
-1732 -7894 7907 0
-7895 7907 0
-1732 -7895 7908 0
-7896 7908 0
-1732 -7896 7909 0
-7897 7909 0
-1732 -7897 7910 0
-7898 7910 0
-1732 -7898 7911 0
-7899 7911 0
-1732 -7899 7912 0
-7900 7912 0
-1732 -7900 7913 0
-7901 7913 0
-1732 -7901 7914 0
-7902 7914 0
-1732 -7902 7915 0
-7903 7915 0
-1732 -7903 7916 0
-7904 7916 0
-1732 -7904 0
-1732 7917 0
-7905 7917 0
-1732 -7905 7918 0
-7906 7918 0
-1732 -7906 7919 0
-7907 7919 0
-1732 -7907 7920 0
-7908 7920 0
-1732 -7908 7921 0
-7909 7921 0
-1732 -7909 7922 0
-7910 7922 0
-1732 -7910 7923 0
-7911 7923 0
-1732 -7911 7924 0
-7912 7924 0
-1732 -7912 7925 0
-7913 7925 0
-1732 -7913 7926 0
-7914 7926 0
-1732 -7914 7927 0
-7915 7927 0
-1732 -7915 7928 0
-7916 7928 0
-1732 -7916 0
-1732 7929 0
-7917 7929 0
-1732 -7917 7930 0
-7918 7930 0
-1732 -7918 7931 0
-7919 7931 0
-1732 -7919 7932 0
-7920 7932 0
-1732 -7920 7933 0
-7921 7933 0
-1732 -7921 7934 0
-7922 7934 0
-1732 -7922 7935 0
-7923 7935 0
-1732 -7923 7936 0
-7924 7936 0
-1732 -7924 7937 0
-7925 7937 0
-1732 -7925 7938 0
-7926 7938 0
-1732 -7926 7939 0
-7927 7939 0
-1732 -7927 7940 0
-7928 7940 0
-1732 -7928 0
-1733 7941 0
-7929 7941 0
-1733 -7929 7942 0
-7930 7942 0
-1733 -7930 7943 0
-7931 7943 0
-1733 -7931 7944 0
-7932 7944 0
-1733 -7932 7945 0
-7933 7945 0
-1733 -7933 7946 0
-7934 7946 0
-1733 -7934 7947 0
-7935 7947 0
-1733 -7935 7948 0
-7936 7948 0
-1733 -7936 7949 0
-7937 7949 0
-1733 -7937 7950 0
-7938 7950 0
-1733 -7938 7951 0
-7939 7951 0
-1733 -7939 7952 0
-7940 7952 0
-1733 -7940 0
-1733 7953 0
-7941 7953 0
-1733 -7941 7954 0
-7942 7954 0
-1733 -7942 7955 0
-7943 7955 0
-1733 -7943 7956 0
-7944 7956 0
-1733 -7944 7957 0
-7945 7957 0
-1733 -7945 7958 0
-7946 7958 0
-1733 -7946 7959 0
-7947 7959 0
-1733 -7947 7960 0
-7948 7960 0
-1733 -7948 7961 0
-7949 7961 0
-1733 -7949 7962 0
-7950 7962 0
-1733 -7950 7963 0
-7951 7963 0
-1733 -7951 7964 0
-7952 7964 0
-1733 -7952 0
-1743 7965 0
-7953 7965 0
-1743 -7953 7966 0
-7954 7966 0
-1743 -7954 7967 0
-7955 7967 0
-1743 -7955 7968 0
-7956 7968 0
-1743 -7956 7969 0
-7957 7969 0
-1743 -7957 7970 0
-7958 7970 0
-1743 -7958 7971 0
-7959 7971 0
-1743 -7959 7972 0
-7960 7972 0
-1743 -7960 7973 0
-7961 7973 0
-1743 -7961 7974 0
-7962 7974 0
-1743 -7962 7975 0
-7963 7975 0
-1743 -7963 7976 0
-7964 7976 0
-1743 -7964 0
-1743 7977 0
-7965 7977 0
-1743 -7965 7978 0
-7966 7978 0
-1743 -7966 7979 0
-7967 7979 0
-1743 -7967 7980 0
-7968 7980 0
-1743 -7968 7981 0
-7969 7981 0
-1743 -7969 7982 0
-7970 7982 0
-1743 -7970 7983 0
-7971 7983 0
-1743 -7971 7984 0
-7972 7984 0
-1743 -7972 7985 0
-7973 7985 0
-1743 -7973 7986 0
-7974 7986 0
-1743 -7974 7987 0
-7975 7987 0
-1743 -7975 7988 0
-7976 7988 0
-1743 -7976 0
-1743 7989 0
-7977 7989 0
-1743 -7977 7990 0
-7978 7990 0
-1743 -7978 7991 0
-7979 7991 0
-1743 -7979 7992 0
-7980 7992 0
-1743 -7980 7993 0
-7981 7993 0
-1743 -7981 7994 0
-7982 7994 0
-1743 -7982 7995 0
-7983 7995 0
-1743 -7983 7996 0
-7984 7996 0
-1743 -7984 7997 0
-7985 7997 0
-1743 -7985 7998 0
-7986 7998 0
-1743 -7986 7999 0
-7987 7999 0
-1743 -7987 8000 0
-7988 8000 0
-1743 -7988 0
-1744 8001 0
-7989 8001 0
-1744 -7989 8002 0
-7990 8002 0
-1744 -7990 8003 0
-7991 8003 0
-1744 -7991 8004 0
-7992 8004 0
-1744 -7992 8005 0
-7993 8005 0
-1744 -7993 8006 0
-7994 8006 0
-1744 -7994 8007 0
-7995 8007 0
-1744 -7995 8008 0
-7996 8008 0
-1744 -7996 8009 0
-7997 8009 0
-1744 -7997 8010 0
-7998 8010 0
-1744 -7998 8011 0
-7999 8011 0
-1744 -7999 8012 0
-8000 8012 0
-1744 -8000 0
-1744 8013 0
-8001 8013 0
-1744 -8001 8014 0
-8002 8014 0
-1744 -8002 8015 0
-8003 8015 0
-1744 -8003 8016 0
-8004 8016 0
-1744 -8004 8017 0
-8005 8017 0
-1744 -8005 8018 0
-8006 8018 0
-1744 -8006 8019 0
-8007 8019 0
-1744 -8007 8020 0
-8008 8020 0
-1744 -8008 8021 0
-8009 8021 0
-1744 -8009 8022 0
-8010 8022 0
-1744 -8010 8023 0
-8011 8023 0
-1744 -8011 8024 0
-8012 8024 0
-1744 -8012 0
-1754 8025 0
-8013 8025 0
-1754 -8013 8026 0
-8014 8026 0
-1754 -8014 8027 0
-8015 8027 0
-1754 -8015 8028 0
-8016 8028 0
-1754 -8016 8029 0
-8017 8029 0
-1754 -8017 8030 0
-8018 8030 0
-1754 -8018 8031 0
-8019 8031 0
-1754 -8019 8032 0
-8020 8032 0
-1754 -8020 8033 0
-8021 8033 0
-1754 -8021 8034 0
-8022 8034 0
-1754 -8022 8035 0
-8023 8035 0
-1754 -8023 8036 0
-8024 8036 0
-1754 -8024 0
-1754 8037 0
-8025 8037 0
-1754 -8025 8038 0
-8026 8038 0
-1754 -8026 8039 0
-8027 8039 0
-1754 -8027 8040 0
-8028 8040 0
-1754 -8028 8041 0
-8029 8041 0
-1754 -8029 8042 0
-8030 8042 0
-1754 -8030 8043 0
-8031 8043 0
-1754 -8031 8044 0
-8032 8044 0
-1754 -8032 8045 0
-8033 8045 0
-1754 -8033 8046 0
-8034 8046 0
-1754 -8034 8047 0
-8035 8047 0
-1754 -8035 8048 0
-8036 8048 0
-1754 -8036 0
-1754 8049 0
-8037 8049 0
-1754 -8037 8050 0
-8038 8050 0
-1754 -8038 8051 0
-8039 8051 0
-1754 -8039 8052 0
-8040 8052 0
-1754 -8040 8053 0
-8041 8053 0
-1754 -8041 8054 0
-8042 8054 0
-1754 -8042 8055 0
-8043 8055 0
-1754 -8043 8056 0
-8044 8056 0
-1754 -8044 8057 0
-8045 8057 0
-1754 -8045 8058 0
-8046 8058 0
-1754 -8046 8059 0
-8047 8059 0
-1754 -8047 8060 0
-8048 8060 0
-1754 -8048 0
-1755 8061 0
-8049 8061 0
-1755 -8049 8062 0
-8050 8062 0
-1755 -8050 8063 0
-8051 8063 0
-1755 -8051 8064 0
-8052 8064 0
-1755 -8052 8065 0
-8053 8065 0
-1755 -8053 8066 0
-8054 8066 0
-1755 -8054 8067 0
-8055 8067 0
-1755 -8055 8068 0
-8056 8068 0
-1755 -8056 8069 0
-8057 8069 0
-1755 -8057 8070 0
-8058 8070 0
-1755 -8058 8071 0
-8059 8071 0
-1755 -8059 8072 0
-8060 8072 0
-1755 -8060 0
-1755 8073 0
-8061 8073 0
-1755 -8061 8074 0
-8062 8074 0
-1755 -8062 8075 0
-8063 8075 0
-1755 -8063 8076 0
-8064 8076 0
-1755 -8064 8077 0
-8065 8077 0
-1755 -8065 8078 0
-8066 8078 0
-1755 -8066 8079 0
-8067 8079 0
-1755 -8067 8080 0
-8068 8080 0
-1755 -8068 8081 0
-8069 8081 0
-1755 -8069 8082 0
-8070 8082 0
-1755 -8070 8083 0
-8071 8083 0
-1755 -8071 8084 0
-8072 8084 0
-1755 -8072 0
-1765 8085 0
-8073 8085 0
-1765 -8073 8086 0
-8074 8086 0
-1765 -8074 8087 0
-8075 8087 0
-1765 -8075 8088 0
-8076 8088 0
-1765 -8076 8089 0
-8077 8089 0
-1765 -8077 8090 0
-8078 8090 0
-1765 -8078 8091 0
-8079 8091 0
-1765 -8079 8092 0
-8080 8092 0
-1765 -8080 8093 0
-8081 8093 0
-1765 -8081 8094 0
-8082 8094 0
-1765 -8082 8095 0
-8083 8095 0
-1765 -8083 8096 0
-8084 8096 0
-1765 -8084 0
-1765 8097 0
-8085 8097 0
-1765 -8085 8098 0
-8086 8098 0
-1765 -8086 8099 0
-8087 8099 0
-1765 -8087 8100 0
-8088 8100 0
-1765 -8088 8101 0
-8089 8101 0
-1765 -8089 8102 0
-8090 8102 0
-1765 -8090 8103 0
-8091 8103 0
-1765 -8091 8104 0
-8092 8104 0
-1765 -8092 8105 0
-8093 8105 0
-1765 -8093 8106 0
-8094 8106 0
-1765 -8094 8107 0
-8095 8107 0
-1765 -8095 8108 0
-8096 8108 0
-1765 -8096 0
-1765 8109 0
-8097 8109 0
-1765 -8097 8110 0
-8098 8110 0
-1765 -8098 8111 0
-8099 8111 0
-1765 -8099 8112 0
-8100 8112 0
-1765 -8100 8113 0
-8101 8113 0
-1765 -8101 8114 0
-8102 8114 0
-1765 -8102 8115 0
-8103 8115 0
-1765 -8103 8116 0
-8104 8116 0
-1765 -8104 8117 0
-8105 8117 0
-1765 -8105 8118 0
-8106 8118 0
-1765 -8106 8119 0
-8107 8119 0
-1765 -8107 8120 0
-8108 8120 0
-1765 -8108 0
-1766 8121 0
-8109 8121 0
-1766 -8109 8122 0
-8110 8122 0
-1766 -8110 8123 0
-8111 8123 0
-1766 -8111 8124 0
-8112 8124 0
-1766 -8112 8125 0
-8113 8125 0
-1766 -8113 8126 0
-8114 8126 0
-1766 -8114 8127 0
-8115 8127 0
-1766 -8115 8128 0
-8116 8128 0
-1766 -8116 8129 0
-8117 8129 0
-1766 -8117 8130 0
-8118 8130 0
-1766 -8118 8131 0
-8119 8131 0
-1766 -8119 8132 0
-8120 8132 0
-1766 -8120 0
-1766 8133 0
-8121 8133 0
-1766 -8121 8134 0
-8122 8134 0
-1766 -8122 8135 0
-8123 8135 0
-1766 -8123 8136 0
-8124 8136 0
-1766 -8124 8137 0
-8125 8137 0
-1766 -8125 8138 0
-8126 8138 0
-1766 -8126 8139 0
-8127 8139 0
-1766 -8127 8140 0
-8128 8140 0
-1766 -8128 8141 0
-8129 8141 0
-1766 -8129 8142 0
-8130 8142 0
-1766 -8130 8143 0
-8131 8143 0
-1766 -8131 8144 0
-8132 8144 0
-1766 -8132 0
-1776 8145 0
-8133 8145 0
-1776 -8133 8146 0
-8134 8146 0
-1776 -8134 8147 0
-8135 8147 0
-1776 -8135 8148 0
-8136 8148 0
-1776 -8136 8149 0
-8137 8149 0
-1776 -8137 8150 0
-8138 8150 0
-1776 -8138 8151 0
-8139 8151 0
-1776 -8139 8152 0
-8140 8152 0
-1776 -8140 8153 0
-8141 8153 0
-1776 -8141 8154 0
-8142 8154 0
-1776 -8142 8155 0
-8143 8155 0
-1776 -8143 8156 0
-8144 8156 0
-1776 -8144 0
-1776 8157 0
-8145 8157 0
-1776 -8145 8158 0
-8146 8158 0
-1776 -8146 8159 0
-8147 8159 0
-1776 -8147 8160 0
-8148 8160 0
-1776 -8148 8161 0
-8149 8161 0
-1776 -8149 8162 0
-8150 8162 0
-1776 -8150 8163 0
-8151 8163 0
-1776 -8151 8164 0
-8152 8164 0
-1776 -8152 8165 0
-8153 8165 0
-1776 -8153 8166 0
-8154 8166 0
-1776 -8154 8167 0
-8155 8167 0
-1776 -8155 8168 0
-8156 8168 0
-1776 -8156 0
-1776 8169 0
-8157 8169 0
-1776 -8157 8170 0
-8158 8170 0
-1776 -8158 8171 0
-8159 8171 0
-1776 -8159 8172 0
-8160 8172 0
-1776 -8160 8173 0
-8161 8173 0
-1776 -8161 8174 0
-8162 8174 0
-1776 -8162 8175 0
-8163 8175 0
-1776 -8163 8176 0
-8164 8176 0
-1776 -8164 8177 0
-8165 8177 0
-1776 -8165 8178 0
-8166 8178 0
-1776 -8166 8179 0
-8167 8179 0
-1776 -8167 8180 0
-8168 8180 0
-1776 -8168 0
-1777 8181 0
-8169 8181 0
-1777 -8169 8182 0
-8170 8182 0
-1777 -8170 8183 0
-8171 8183 0
-1777 -8171 8184 0
-8172 8184 0
-1777 -8172 8185 0
-8173 8185 0
-1777 -8173 8186 0
-8174 8186 0
-1777 -8174 8187 0
-8175 8187 0
-1777 -8175 8188 0
-8176 8188 0
-1777 -8176 8189 0
-8177 8189 0
-1777 -8177 8190 0
-8178 8190 0
-1777 -8178 8191 0
-8179 8191 0
-1777 -8179 8192 0
-8180 8192 0
-1777 -8180 0
-1777 8193 0
-8181 8193 0
-1777 -8181 8194 0
-8182 8194 0
-1777 -8182 8195 0
-8183 8195 0
-1777 -8183 8196 0
-8184 8196 0
-1777 -8184 8197 0
-8185 8197 0
-1777 -8185 8198 0
-8186 8198 0
-1777 -8186 8199 0
-8187 8199 0
-1777 -8187 8200 0
-8188 8200 0
-1777 -8188 8201 0
-8189 8201 0
-1777 -8189 8202 0
-8190 8202 0
-1777 -8190 8203 0
-8191 8203 0
-1777 -8191 8204 0
-8192 8204 0
-1777 -8192 0
-1787 8205 0
-8193 8205 0
-1787 -8193 8206 0
-8194 8206 0
-1787 -8194 8207 0
-8195 8207 0
-1787 -8195 8208 0
-8196 8208 0
-1787 -8196 8209 0
-8197 8209 0
-1787 -8197 8210 0
-8198 8210 0
-1787 -8198 8211 0
-8199 8211 0
-1787 -8199 8212 0
-8200 8212 0
-1787 -8200 8213 0
-8201 8213 0
-1787 -8201 8214 0
-8202 8214 0
-1787 -8202 8215 0
-8203 8215 0
-1787 -8203 8216 0
-8204 8216 0
-1787 -8204 0
-1787 8217 0
-8205 8217 0
-1787 -8205 8218 0
-8206 8218 0
-1787 -8206 8219 0
-8207 8219 0
-1787 -8207 8220 0
-8208 8220 0
-1787 -8208 8221 0
-8209 8221 0
-1787 -8209 8222 0
-8210 8222 0
-1787 -8210 8223 0
-8211 8223 0
-1787 -8211 8224 0
-8212 8224 0
-1787 -8212 8225 0
-8213 8225 0
-1787 -8213 8226 0
-8214 8226 0
-1787 -8214 8227 0
-8215 8227 0
-1787 -8215 8228 0
-8216 8228 0
-1787 -8216 0
-1787 8229 0
-8217 8229 0
-1787 -8217 8230 0
-8218 8230 0
-1787 -8218 8231 0
-8219 8231 0
-1787 -8219 8232 0
-8220 8232 0
-1787 -8220 8233 0
-8221 8233 0
-1787 -8221 8234 0
-8222 8234 0
-1787 -8222 8235 0
-8223 8235 0
-1787 -8223 8236 0
-8224 8236 0
-1787 -8224 8237 0
-8225 8237 0
-1787 -8225 8238 0
-8226 8238 0
-1787 -8226 8239 0
-8227 8239 0
-1787 -8227 8240 0
-8228 8240 0
-1787 -8228 0
-1788 8241 0
-8229 8241 0
-1788 -8229 8242 0
-8230 8242 0
-1788 -8230 8243 0
-8231 8243 0
-1788 -8231 8244 0
-8232 8244 0
-1788 -8232 8245 0
-8233 8245 0
-1788 -8233 8246 0
-8234 8246 0
-1788 -8234 8247 0
-8235 8247 0
-1788 -8235 8248 0
-8236 8248 0
-1788 -8236 8249 0
-8237 8249 0
-1788 -8237 8250 0
-8238 8250 0
-1788 -8238 8251 0
-8239 8251 0
-1788 -8239 8252 0
-8240 8252 0
-1788 -8240 0
-1788 8253 0
-8241 8253 0
-1788 -8241 8254 0
-8242 8254 0
-1788 -8242 8255 0
-8243 8255 0
-1788 -8243 8256 0
-8244 8256 0
-1788 -8244 8257 0
-8245 8257 0
-1788 -8245 8258 0
-8246 8258 0
-1788 -8246 8259 0
-8247 8259 0
-1788 -8247 8260 0
-8248 8260 0
-1788 -8248 8261 0
-8249 8261 0
-1788 -8249 8262 0
-8250 8262 0
-1788 -8250 8263 0
-8251 8263 0
-1788 -8251 8264 0
-8252 8264 0
-1788 -8252 0
-1798 8265 0
-8253 8265 0
-1798 -8253 8266 0
-8254 8266 0
-1798 -8254 8267 0
-8255 8267 0
-1798 -8255 8268 0
-8256 8268 0
-1798 -8256 8269 0
-8257 8269 0
-1798 -8257 8270 0
-8258 8270 0
-1798 -8258 8271 0
-8259 8271 0
-1798 -8259 8272 0
-8260 8272 0
-1798 -8260 8273 0
-8261 8273 0
-1798 -8261 8274 0
-8262 8274 0
-1798 -8262 8275 0
-8263 8275 0
-1798 -8263 8276 0
-8264 8276 0
-1798 -8264 0
-1798 8277 0
-8265 8277 0
-1798 -8265 8278 0
-8266 8278 0
-1798 -8266 8279 0
-8267 8279 0
-1798 -8267 8280 0
-8268 8280 0
-1798 -8268 8281 0
-8269 8281 0
-1798 -8269 8282 0
-8270 8282 0
-1798 -8270 8283 0
-8271 8283 0
-1798 -8271 8284 0
-8272 8284 0
-1798 -8272 8285 0
-8273 8285 0
-1798 -8273 8286 0
-8274 8286 0
-1798 -8274 8287 0
-8275 8287 0
-1798 -8275 8288 0
-8276 8288 0
-1798 -8276 0
-1798 8289 0
-8277 8289 0
-1798 -8277 8290 0
-8278 8290 0
-1798 -8278 8291 0
-8279 8291 0
-1798 -8279 8292 0
-8280 8292 0
-1798 -8280 8293 0
-8281 8293 0
-1798 -8281 8294 0
-8282 8294 0
-1798 -8282 8295 0
-8283 8295 0
-1798 -8283 8296 0
-8284 8296 0
-1798 -8284 8297 0
-8285 8297 0
-1798 -8285 8298 0
-8286 8298 0
-1798 -8286 8299 0
-8287 8299 0
-1798 -8287 8300 0
-8288 8300 0
-1798 -8288 0
-1799 8301 0
-8289 8301 0
-1799 -8289 8302 0
-8290 8302 0
-1799 -8290 8303 0
-8291 8303 0
-1799 -8291 8304 0
-8292 8304 0
-1799 -8292 8305 0
-8293 8305 0
-1799 -8293 8306 0
-8294 8306 0
-1799 -8294 8307 0
-8295 8307 0
-1799 -8295 8308 0
-8296 8308 0
-1799 -8296 8309 0
-8297 8309 0
-1799 -8297 8310 0
-8298 8310 0
-1799 -8298 8311 0
-8299 8311 0
-1799 -8299 8312 0
-8300 8312 0
-1799 -8300 0
-1799 8313 0
-8301 8313 0
-1799 -8301 8314 0
-8302 8314 0
-1799 -8302 8315 0
-8303 8315 0
-1799 -8303 8316 0
-8304 8316 0
-1799 -8304 8317 0
-8305 8317 0
-1799 -8305 8318 0
-8306 8318 0
-1799 -8306 8319 0
-8307 8319 0
-1799 -8307 8320 0
-8308 8320 0
-1799 -8308 8321 0
-8309 8321 0
-1799 -8309 8322 0
-8310 8322 0
-1799 -8310 8323 0
-8311 8323 0
-1799 -8311 8324 0
-8312 8324 0
-1799 -8312 0
-1809 8325 0
-8313 8325 0
-1809 -8313 8326 0
-8314 8326 0
-1809 -8314 8327 0
-8315 8327 0
-1809 -8315 8328 0
-8316 8328 0
-1809 -8316 8329 0
-8317 8329 0
-1809 -8317 8330 0
-8318 8330 0
-1809 -8318 8331 0
-8319 8331 0
-1809 -8319 8332 0
-8320 8332 0
-1809 -8320 8333 0
-8321 8333 0
-1809 -8321 8334 0
-8322 8334 0
-1809 -8322 8335 0
-8323 8335 0
-1809 -8323 8336 0
-8324 8336 0
-1809 -8324 0
-1809 8337 0
-8325 8337 0
-1809 -8325 8338 0
-8326 8338 0
-1809 -8326 8339 0
-8327 8339 0
-1809 -8327 8340 0
-8328 8340 0
-1809 -8328 8341 0
-8329 8341 0
-1809 -8329 8342 0
-8330 8342 0
-1809 -8330 8343 0
-8331 8343 0
-1809 -8331 8344 0
-8332 8344 0
-1809 -8332 8345 0
-8333 8345 0
-1809 -8333 8346 0
-8334 8346 0
-1809 -8334 8347 0
-8335 8347 0
-1809 -8335 8348 0
-8336 8348 0
-1809 -8336 0
-1809 8349 0
-8337 8349 0
-1809 -8337 8350 0
-8338 8350 0
-1809 -8338 8351 0
-8339 8351 0
-1809 -8339 8352 0
-8340 8352 0
-1809 -8340 8353 0
-8341 8353 0
-1809 -8341 8354 0
-8342 8354 0
-1809 -8342 8355 0
-8343 8355 0
-1809 -8343 8356 0
-8344 8356 0
-1809 -8344 8357 0
-8345 8357 0
-1809 -8345 8358 0
-8346 8358 0
-1809 -8346 8359 0
-8347 8359 0
-1809 -8347 8360 0
-8348 8360 0
-1809 -8348 0
-1810 8361 0
-8349 8361 0
-1810 -8349 8362 0
-8350 8362 0
-1810 -8350 8363 0
-8351 8363 0
-1810 -8351 8364 0
-8352 8364 0
-1810 -8352 8365 0
-8353 8365 0
-1810 -8353 8366 0
-8354 8366 0
-1810 -8354 8367 0
-8355 8367 0
-1810 -8355 8368 0
-8356 8368 0
-1810 -8356 8369 0
-8357 8369 0
-1810 -8357 8370 0
-8358 8370 0
-1810 -8358 8371 0
-8359 8371 0
-1810 -8359 8372 0
-8360 8372 0
-1810 -8360 0
-1810 8373 0
-8361 8373 0
-1810 -8361 8374 0
-8362 8374 0
-1810 -8362 8375 0
-8363 8375 0
-1810 -8363 8376 0
-8364 8376 0
-1810 -8364 8377 0
-8365 8377 0
-1810 -8365 8378 0
-8366 8378 0
-1810 -8366 8379 0
-8367 8379 0
-1810 -8367 8380 0
-8368 8380 0
-1810 -8368 8381 0
-8369 8381 0
-1810 -8369 8382 0
-8370 8382 0
-1810 -8370 8383 0
-8371 8383 0
-1810 -8371 8384 0
-8372 8384 0
-1810 -8372 0
-1820 8385 0
-8373 8385 0
-1820 -8373 8386 0
-8374 8386 0
-1820 -8374 8387 0
-8375 8387 0
-1820 -8375 8388 0
-8376 8388 0
-1820 -8376 8389 0
-8377 8389 0
-1820 -8377 8390 0
-8378 8390 0
-1820 -8378 8391 0
-8379 8391 0
-1820 -8379 8392 0
-8380 8392 0
-1820 -8380 8393 0
-8381 8393 0
-1820 -8381 8394 0
-8382 8394 0
-1820 -8382 8395 0
-8383 8395 0
-1820 -8383 8396 0
-8384 8396 0
-1820 -8384 0
-1820 8397 0
-8385 8397 0
-1820 -8385 8398 0
-8386 8398 0
-1820 -8386 8399 0
-8387 8399 0
-1820 -8387 8400 0
-8388 8400 0
-1820 -8388 8401 0
-8389 8401 0
-1820 -8389 8402 0
-8390 8402 0
-1820 -8390 8403 0
-8391 8403 0
-1820 -8391 8404 0
-8392 8404 0
-1820 -8392 8405 0
-8393 8405 0
-1820 -8393 8406 0
-8394 8406 0
-1820 -8394 8407 0
-8395 8407 0
-1820 -8395 8408 0
-8396 8408 0
-1820 -8396 0
-1820 8409 0
-8397 8409 0
-1820 -8397 8410 0
-8398 8410 0
-1820 -8398 8411 0
-8399 8411 0
-1820 -8399 8412 0
-8400 8412 0
-1820 -8400 8413 0
-8401 8413 0
-1820 -8401 8414 0
-8402 8414 0
-1820 -8402 8415 0
-8403 8415 0
-1820 -8403 8416 0
-8404 8416 0
-1820 -8404 8417 0
-8405 8417 0
-1820 -8405 8418 0
-8406 8418 0
-1820 -8406 8419 0
-8407 8419 0
-1820 -8407 8420 0
-8408 8420 0
-1820 -8408 0
-1821 8421 0
-8409 8421 0
-1821 -8409 8422 0
-8410 8422 0
-1821 -8410 8423 0
-8411 8423 0
-1821 -8411 8424 0
-8412 8424 0
-1821 -8412 8425 0
-8413 8425 0
-1821 -8413 8426 0
-8414 8426 0
-1821 -8414 8427 0
-8415 8427 0
-1821 -8415 8428 0
-8416 8428 0
-1821 -8416 8429 0
-8417 8429 0
-1821 -8417 8430 0
-8418 8430 0
-1821 -8418 8431 0
-8419 8431 0
-1821 -8419 8432 0
-8420 8432 0
-1821 -8420 0
-1821 8433 0
-8421 8433 0
-1821 -8421 8434 0
-8422 8434 0
-1821 -8422 8435 0
-8423 8435 0
-1821 -8423 8436 0
-8424 8436 0
-1821 -8424 8437 0
-8425 8437 0
-1821 -8425 8438 0
-8426 8438 0
-1821 -8426 8439 0
-8427 8439 0
-1821 -8427 8440 0
-8428 8440 0
-1821 -8428 8441 0
-8429 8441 0
-1821 -8429 8442 0
-8430 8442 0
-1821 -8430 8443 0
-8431 8443 0
-1821 -8431 8444 0
-8432 8444 0
-1821 -8432 0
-1831 8445 0
-8433 8445 0
-1831 -8433 8446 0
-8434 8446 0
-1831 -8434 8447 0
-8435 8447 0
-1831 -8435 8448 0
-8436 8448 0
-1831 -8436 8449 0
-8437 8449 0
-1831 -8437 8450 0
-8438 8450 0
-1831 -8438 8451 0
-8439 8451 0
-1831 -8439 8452 0
-8440 8452 0
-1831 -8440 8453 0
-8441 8453 0
-1831 -8441 8454 0
-8442 8454 0
-1831 -8442 8455 0
-8443 8455 0
-1831 -8443 8456 0
-8444 8456 0
-1831 -8444 0
-1831 8457 0
-8445 8457 0
-1831 -8445 8458 0
-8446 8458 0
-1831 -8446 8459 0
-8447 8459 0
-1831 -8447 8460 0
-8448 8460 0
-1831 -8448 8461 0
-8449 8461 0
-1831 -8449 8462 0
-8450 8462 0
-1831 -8450 8463 0
-8451 8463 0
-1831 -8451 8464 0
-8452 8464 0
-1831 -8452 8465 0
-8453 8465 0
-1831 -8453 8466 0
-8454 8466 0
-1831 -8454 8467 0
-8455 8467 0
-1831 -8455 8468 0
-8456 8468 0
-1831 -8456 0
-1831 8469 0
-8457 8469 0
-1831 -8457 8470 0
-8458 8470 0
-1831 -8458 8471 0
-8459 8471 0
-1831 -8459 8472 0
-8460 8472 0
-1831 -8460 8473 0
-8461 8473 0
-1831 -8461 8474 0
-8462 8474 0
-1831 -8462 8475 0
-8463 8475 0
-1831 -8463 8476 0
-8464 8476 0
-1831 -8464 8477 0
-8465 8477 0
-1831 -8465 8478 0
-8466 8478 0
-1831 -8466 8479 0
-8467 8479 0
-1831 -8467 8480 0
-8468 8480 0
-1831 -8468 0
-1832 8481 0
-8469 8481 0
-1832 -8469 8482 0
-8470 8482 0
-1832 -8470 8483 0
-8471 8483 0
-1832 -8471 8484 0
-8472 8484 0
-1832 -8472 8485 0
-8473 8485 0
-1832 -8473 8486 0
-8474 8486 0
-1832 -8474 8487 0
-8475 8487 0
-1832 -8475 8488 0
-8476 8488 0
-1832 -8476 8489 0
-8477 8489 0
-1832 -8477 8490 0
-8478 8490 0
-1832 -8478 8491 0
-8479 8491 0
-1832 -8479 8492 0
-8480 8492 0
-1832 -8480 0
-1832 8493 0
-8481 8493 0
-1832 -8481 8494 0
-8482 8494 0
-1832 -8482 8495 0
-8483 8495 0
-1832 -8483 8496 0
-8484 8496 0
-1832 -8484 8497 0
-8485 8497 0
-1832 -8485 8498 0
-8486 8498 0
-1832 -8486 8499 0
-8487 8499 0
-1832 -8487 8500 0
-8488 8500 0
-1832 -8488 8501 0
-8489 8501 0
-1832 -8489 8502 0
-8490 8502 0
-1832 -8490 8503 0
-8491 8503 0
-1832 -8491 8504 0
-8492 8504 0
-1832 -8492 0
-1842 8505 0
-8493 8505 0
-1842 -8493 8506 0
-8494 8506 0
-1842 -8494 8507 0
-8495 8507 0
-1842 -8495 8508 0
-8496 8508 0
-1842 -8496 8509 0
-8497 8509 0
-1842 -8497 8510 0
-8498 8510 0
-1842 -8498 8511 0
-8499 8511 0
-1842 -8499 8512 0
-8500 8512 0
-1842 -8500 8513 0
-8501 8513 0
-1842 -8501 8514 0
-8502 8514 0
-1842 -8502 8515 0
-8503 8515 0
-1842 -8503 8516 0
-8504 8516 0
-1842 -8504 0
-1842 8517 0
-8505 8517 0
-1842 -8505 8518 0
-8506 8518 0
-1842 -8506 8519 0
-8507 8519 0
-1842 -8507 8520 0
-8508 8520 0
-1842 -8508 8521 0
-8509 8521 0
-1842 -8509 8522 0
-8510 8522 0
-1842 -8510 8523 0
-8511 8523 0
-1842 -8511 8524 0
-8512 8524 0
-1842 -8512 8525 0
-8513 8525 0
-1842 -8513 8526 0
-8514 8526 0
-1842 -8514 8527 0
-8515 8527 0
-1842 -8515 8528 0
-8516 8528 0
-1842 -8516 0
-1842 8529 0
-8517 8529 0
-1842 -8517 8530 0
-8518 8530 0
-1842 -8518 8531 0
-8519 8531 0
-1842 -8519 8532 0
-8520 8532 0
-1842 -8520 8533 0
-8521 8533 0
-1842 -8521 8534 0
-8522 8534 0
-1842 -8522 8535 0
-8523 8535 0
-1842 -8523 8536 0
-8524 8536 0
-1842 -8524 8537 0
-8525 8537 0
-1842 -8525 8538 0
-8526 8538 0
-1842 -8526 8539 0
-8527 8539 0
-1842 -8527 8540 0
-8528 8540 0
-1842 -8528 0
-1843 8541 0
-8529 8541 0
-1843 -8529 8542 0
-8530 8542 0
-1843 -8530 8543 0
-8531 8543 0
-1843 -8531 8544 0
-8532 8544 0
-1843 -8532 8545 0
-8533 8545 0
-1843 -8533 8546 0
-8534 8546 0
-1843 -8534 8547 0
-8535 8547 0
-1843 -8535 8548 0
-8536 8548 0
-1843 -8536 8549 0
-8537 8549 0
-1843 -8537 8550 0
-8538 8550 0
-1843 -8538 8551 0
-8539 8551 0
-1843 -8539 8552 0
-8540 8552 0
-1843 -8540 0
-1843 8553 0
-8541 8553 0
-1843 -8541 8554 0
-8542 8554 0
-1843 -8542 8555 0
-8543 8555 0
-1843 -8543 8556 0
-8544 8556 0
-1843 -8544 8557 0
-8545 8557 0
-1843 -8545 8558 0
-8546 8558 0
-1843 -8546 8559 0
-8547 8559 0
-1843 -8547 8560 0
-8548 8560 0
-1843 -8548 8561 0
-8549 8561 0
-1843 -8549 8562 0
-8550 8562 0
-1843 -8550 8563 0
-8551 8563 0
-1843 -8551 8564 0
-8552 8564 0
-1843 -8552 0
-1853 8565 0
-8553 8565 0
-1853 -8553 8566 0
-8554 8566 0
-1853 -8554 8567 0
-8555 8567 0
-1853 -8555 8568 0
-8556 8568 0
-1853 -8556 8569 0
-8557 8569 0
-1853 -8557 8570 0
-8558 8570 0
-1853 -8558 8571 0
-8559 8571 0
-1853 -8559 8572 0
-8560 8572 0
-1853 -8560 8573 0
-8561 8573 0
-1853 -8561 8574 0
-8562 8574 0
-1853 -8562 8575 0
-8563 8575 0
-1853 -8563 8576 0
-8564 8576 0
-1853 -8564 0
-1853 8577 0
-8565 8577 0
-1853 -8565 8578 0
-8566 8578 0
-1853 -8566 8579 0
-8567 8579 0
-1853 -8567 8580 0
-8568 8580 0
-1853 -8568 8581 0
-8569 8581 0
-1853 -8569 8582 0
-8570 8582 0
-1853 -8570 8583 0
-8571 8583 0
-1853 -8571 8584 0
-8572 8584 0
-1853 -8572 8585 0
-8573 8585 0
-1853 -8573 8586 0
-8574 8586 0
-1853 -8574 8587 0
-8575 8587 0
-1853 -8575 8588 0
-8576 8588 0
-1853 -8576 0
-1853 8589 0
-8577 8589 0
-1853 -8577 8590 0
-8578 8590 0
-1853 -8578 8591 0
-8579 8591 0
-1853 -8579 8592 0
-8580 8592 0
-1853 -8580 8593 0
-8581 8593 0
-1853 -8581 8594 0
-8582 8594 0
-1853 -8582 8595 0
-8583 8595 0
-1853 -8583 8596 0
-8584 8596 0
-1853 -8584 8597 0
-8585 8597 0
-1853 -8585 8598 0
-8586 8598 0
-1853 -8586 8599 0
-8587 8599 0
-1853 -8587 8600 0
-8588 8600 0
-1853 -8588 0
-1854 8601 0
-8589 8601 0
-1854 -8589 8602 0
-8590 8602 0
-1854 -8590 8603 0
-8591 8603 0
-1854 -8591 8604 0
-8592 8604 0
-1854 -8592 8605 0
-8593 8605 0
-1854 -8593 8606 0
-8594 8606 0
-1854 -8594 8607 0
-8595 8607 0
-1854 -8595 8608 0
-8596 8608 0
-1854 -8596 8609 0
-8597 8609 0
-1854 -8597 8610 0
-8598 8610 0
-1854 -8598 8611 0
-8599 8611 0
-1854 -8599 8612 0
-8600 8612 0
-1854 -8600 0
-1854 8613 0
-8601 8613 0
-1854 -8601 8614 0
-8602 8614 0
-1854 -8602 8615 0
-8603 8615 0
-1854 -8603 8616 0
-8604 8616 0
-1854 -8604 8617 0
-8605 8617 0
-1854 -8605 8618 0
-8606 8618 0
-1854 -8606 8619 0
-8607 8619 0
-1854 -8607 8620 0
-8608 8620 0
-1854 -8608 8621 0
-8609 8621 0
-1854 -8609 8622 0
-8610 8622 0
-1854 -8610 8623 0
-8611 8623 0
-1854 -8611 8624 0
-8612 8624 0
-1854 -8612 0
-1864 8625 0
-8613 8625 0
-1864 -8613 8626 0
-8614 8626 0
-1864 -8614 8627 0
-8615 8627 0
-1864 -8615 8628 0
-8616 8628 0
-1864 -8616 8629 0
-8617 8629 0
-1864 -8617 8630 0
-8618 8630 0
-1864 -8618 8631 0
-8619 8631 0
-1864 -8619 8632 0
-8620 8632 0
-1864 -8620 8633 0
-8621 8633 0
-1864 -8621 8634 0
-8622 8634 0
-1864 -8622 8635 0
-8623 8635 0
-1864 -8623 8636 0
-8624 8636 0
-1864 -8624 0
-1864 8637 0
-8625 8637 0
-1864 -8625 8638 0
-8626 8638 0
-1864 -8626 8639 0
-8627 8639 0
-1864 -8627 8640 0
-8628 8640 0
-1864 -8628 8641 0
-8629 8641 0
-1864 -8629 8642 0
-8630 8642 0
-1864 -8630 8643 0
-8631 8643 0
-1864 -8631 8644 0
-8632 8644 0
-1864 -8632 8645 0
-8633 8645 0
-1864 -8633 8646 0
-8634 8646 0
-1864 -8634 8647 0
-8635 8647 0
-1864 -8635 8648 0
-8636 8648 0
-1864 -8636 0
-1864 8649 0
-8637 8649 0
-1864 -8637 8650 0
-8638 8650 0
-1864 -8638 8651 0
-8639 8651 0
-1864 -8639 8652 0
-8640 8652 0
-1864 -8640 8653 0
-8641 8653 0
-1864 -8641 8654 0
-8642 8654 0
-1864 -8642 8655 0
-8643 8655 0
-1864 -8643 8656 0
-8644 8656 0
-1864 -8644 8657 0
-8645 8657 0
-1864 -8645 8658 0
-8646 8658 0
-1864 -8646 8659 0
-8647 8659 0
-1864 -8647 8660 0
-8648 8660 0
-1864 -8648 0
-1865 8661 0
-8649 8661 0
-1865 -8649 8662 0
-8650 8662 0
-1865 -8650 8663 0
-8651 8663 0
-1865 -8651 8664 0
-8652 8664 0
-1865 -8652 8665 0
-8653 8665 0
-1865 -8653 8666 0
-8654 8666 0
-1865 -8654 8667 0
-8655 8667 0
-1865 -8655 8668 0
-8656 8668 0
-1865 -8656 8669 0
-8657 8669 0
-1865 -8657 8670 0
-8658 8670 0
-1865 -8658 8671 0
-8659 8671 0
-1865 -8659 8672 0
-8660 8672 0
-1865 -8660 0
-1865 8673 0
-8661 8673 0
-1865 -8661 8674 0
-8662 8674 0
-1865 -8662 8675 0
-8663 8675 0
-1865 -8663 8676 0
-8664 8676 0
-1865 -8664 8677 0
-8665 8677 0
-1865 -8665 8678 0
-8666 8678 0
-1865 -8666 8679 0
-8667 8679 0
-1865 -8667 8680 0
-8668 8680 0
-1865 -8668 8681 0
-8669 8681 0
-1865 -8669 8682 0
-8670 8682 0
-1865 -8670 8683 0
-8671 8683 0
-1865 -8671 8684 0
-8672 8684 0
-1865 -8672 0
-1875 8685 0
-8673 8685 0
-1875 -8673 8686 0
-8674 8686 0
-1875 -8674 8687 0
-8675 8687 0
-1875 -8675 8688 0
-8676 8688 0
-1875 -8676 8689 0
-8677 8689 0
-1875 -8677 8690 0
-8678 8690 0
-1875 -8678 8691 0
-8679 8691 0
-1875 -8679 8692 0
-8680 8692 0
-1875 -8680 8693 0
-8681 8693 0
-1875 -8681 8694 0
-8682 8694 0
-1875 -8682 8695 0
-8683 8695 0
-1875 -8683 8696 0
-8684 8696 0
-1875 -8684 0
-1875 8697 0
-8685 8697 0
-1875 -8685 8698 0
-8686 8698 0
-1875 -8686 8699 0
-8687 8699 0
-1875 -8687 8700 0
-8688 8700 0
-1875 -8688 8701 0
-8689 8701 0
-1875 -8689 8702 0
-8690 8702 0
-1875 -8690 8703 0
-8691 8703 0
-1875 -8691 8704 0
-8692 8704 0
-1875 -8692 8705 0
-8693 8705 0
-1875 -8693 8706 0
-8694 8706 0
-1875 -8694 8707 0
-8695 8707 0
-1875 -8695 8708 0
-8696 8708 0
-1875 -8696 0
-1875 8709 0
-8697 8709 0
-1875 -8697 8710 0
-8698 8710 0
-1875 -8698 8711 0
-8699 8711 0
-1875 -8699 8712 0
-8700 8712 0
-1875 -8700 8713 0
-8701 8713 0
-1875 -8701 8714 0
-8702 8714 0
-1875 -8702 8715 0
-8703 8715 0
-1875 -8703 8716 0
-8704 8716 0
-1875 -8704 8717 0
-8705 8717 0
-1875 -8705 8718 0
-8706 8718 0
-1875 -8706 8719 0
-8707 8719 0
-1875 -8707 8720 0
-8708 8720 0
-1875 -8708 0
-1876 8721 0
-8709 8721 0
-1876 -8709 8722 0
-8710 8722 0
-1876 -8710 8723 0
-8711 8723 0
-1876 -8711 8724 0
-8712 8724 0
-1876 -8712 8725 0
-8713 8725 0
-1876 -8713 8726 0
-8714 8726 0
-1876 -8714 8727 0
-8715 8727 0
-1876 -8715 8728 0
-8716 8728 0
-1876 -8716 8729 0
-8717 8729 0
-1876 -8717 8730 0
-8718 8730 0
-1876 -8718 8731 0
-8719 8731 0
-1876 -8719 8732 0
-8720 8732 0
-1876 -8720 0
-1876 8733 0
-8721 8733 0
-1876 -8721 8734 0
-8722 8734 0
-1876 -8722 8735 0
-8723 8735 0
-1876 -8723 8736 0
-8724 8736 0
-1876 -8724 8737 0
-8725 8737 0
-1876 -8725 8738 0
-8726 8738 0
-1876 -8726 8739 0
-8727 8739 0
-1876 -8727 8740 0
-8728 8740 0
-1876 -8728 8741 0
-8729 8741 0
-1876 -8729 8742 0
-8730 8742 0
-1876 -8730 8743 0
-8731 8743 0
-1876 -8731 8744 0
-8732 8744 0
-1876 -8732 0
-1886 8745 0
-8733 8745 0
-1886 -8733 8746 0
-8734 8746 0
-1886 -8734 8747 0
-8735 8747 0
-1886 -8735 8748 0
-8736 8748 0
-1886 -8736 8749 0
-8737 8749 0
-1886 -8737 8750 0
-8738 8750 0
-1886 -8738 8751 0
-8739 8751 0
-1886 -8739 8752 0
-8740 8752 0
-1886 -8740 8753 0
-8741 8753 0
-1886 -8741 8754 0
-8742 8754 0
-1886 -8742 8755 0
-8743 8755 0
-1886 -8743 8756 0
-8744 8756 0
-1886 -8744 0
-1886 8757 0
-8745 8757 0
-1886 -8745 8758 0
-8746 8758 0
-1886 -8746 8759 0
-8747 8759 0
-1886 -8747 8760 0
-8748 8760 0
-1886 -8748 8761 0
-8749 8761 0
-1886 -8749 8762 0
-8750 8762 0
-1886 -8750 8763 0
-8751 8763 0
-1886 -8751 8764 0
-8752 8764 0
-1886 -8752 8765 0
-8753 8765 0
-1886 -8753 8766 0
-8754 8766 0
-1886 -8754 8767 0
-8755 8767 0
-1886 -8755 8768 0
-8756 8768 0
-1886 -8756 0
-1886 8769 0
-8757 8769 0
-1886 -8757 8770 0
-8758 8770 0
-1886 -8758 8771 0
-8759 8771 0
-1886 -8759 8772 0
-8760 8772 0
-1886 -8760 8773 0
-8761 8773 0
-1886 -8761 8774 0
-8762 8774 0
-1886 -8762 8775 0
-8763 8775 0
-1886 -8763 8776 0
-8764 8776 0
-1886 -8764 8777 0
-8765 8777 0
-1886 -8765 8778 0
-8766 8778 0
-1886 -8766 8779 0
-8767 8779 0
-1886 -8767 8780 0
-8768 8780 0
-1886 -8768 0
-1887 8781 0
-8769 8781 0
-1887 -8769 8782 0
-8770 8782 0
-1887 -8770 8783 0
-8771 8783 0
-1887 -8771 8784 0
-8772 8784 0
-1887 -8772 8785 0
-8773 8785 0
-1887 -8773 8786 0
-8774 8786 0
-1887 -8774 8787 0
-8775 8787 0
-1887 -8775 8788 0
-8776 8788 0
-1887 -8776 8789 0
-8777 8789 0
-1887 -8777 8790 0
-8778 8790 0
-1887 -8778 8791 0
-8779 8791 0
-1887 -8779 8792 0
-8780 8792 0
-1887 -8780 0
-1887 8793 0
-8781 8793 0
-1887 -8781 8794 0
-8782 8794 0
-1887 -8782 8795 0
-8783 8795 0
-1887 -8783 8796 0
-8784 8796 0
-1887 -8784 8797 0
-8785 8797 0
-1887 -8785 8798 0
-8786 8798 0
-1887 -8786 8799 0
-8787 8799 0
-1887 -8787 8800 0
-8788 8800 0
-1887 -8788 8801 0
-8789 8801 0
-1887 -8789 8802 0
-8790 8802 0
-1887 -8790 8803 0
-8791 8803 0
-1887 -8791 8804 0
-8792 8804 0
-1887 -8792 0
-3531 8805 0
-8793 8805 0
-3531 -8793 8806 0
-8794 8806 0
-3531 -8794 8807 0
-8795 8807 0
-3531 -8795 8808 0
-8796 8808 0
-3531 -8796 8809 0
-8797 8809 0
-3531 -8797 8810 0
-8798 8810 0
-3531 -8798 8811 0
-8799 8811 0
-3531 -8799 8812 0
-8800 8812 0
-3531 -8800 8813 0
-8801 8813 0
-3531 -8801 8814 0
-8802 8814 0
-3531 -8802 8815 0
-8803 8815 0
-3531 -8803 8816 0
-8804 8816 0
-3531 -8804 0
-3531 8817 0
-8805 8817 0
-3531 -8805 8818 0
-8806 8818 0
-3531 -8806 8819 0
-8807 8819 0
-3531 -8807 8820 0
-8808 8820 0
-3531 -8808 8821 0
-8809 8821 0
-3531 -8809 8822 0
-8810 8822 0
-3531 -8810 8823 0
-8811 8823 0
-3531 -8811 8824 0
-8812 8824 0
-3531 -8812 8825 0
-8813 8825 0
-3531 -8813 8826 0
-8814 8826 0
-3531 -8814 8827 0
-8815 8827 0
-3531 -8815 8828 0
-8816 8828 0
-3531 -8816 0
-3531 8829 0
-8817 8829 0
-3531 -8817 8830 0
-8818 8830 0
-3531 -8818 8831 0
-8819 8831 0
-3531 -8819 8832 0
-8820 8832 0
-3531 -8820 8833 0
-8821 8833 0
-3531 -8821 8834 0
-8822 8834 0
-3531 -8822 8835 0
-8823 8835 0
-3531 -8823 8836 0
-8824 8836 0
-3531 -8824 8837 0
-8825 8837 0
-3531 -8825 8838 0
-8826 8838 0
-3531 -8826 8839 0
-8827 8839 0
-3531 -8827 8840 0
-8828 8840 0
-3531 -8828 0
-3532 8841 0
-8829 8841 0
-3532 -8829 8842 0
-8830 8842 0
-3532 -8830 8843 0
-8831 8843 0
-3532 -8831 8844 0
-8832 8844 0
-3532 -8832 8845 0
-8833 8845 0
-3532 -8833 8846 0
-8834 8846 0
-3532 -8834 8847 0
-8835 8847 0
-3532 -8835 8848 0
-8836 8848 0
-3532 -8836 8849 0
-8837 8849 0
-3532 -8837 8850 0
-8838 8850 0
-3532 -8838 8851 0
-8839 8851 0
-3532 -8839 8852 0
-8840 8852 0
-3532 -8840 0
-3532 8853 0
-8841 8853 0
-3532 -8841 8854 0
-8842 8854 0
-3532 -8842 8855 0
-8843 8855 0
-3532 -8843 8856 0
-8844 8856 0
-3532 -8844 8857 0
-8845 8857 0
-3532 -8845 8858 0
-8846 8858 0
-3532 -8846 8859 0
-8847 8859 0
-3532 -8847 8860 0
-8848 8860 0
-3532 -8848 8861 0
-8849 8861 0
-3532 -8849 8862 0
-8850 8862 0
-3532 -8850 8863 0
-8851 8863 0
-3532 -8851 8864 0
-8852 8864 0
-3532 -8852 0
-3542 8865 0
-8853 8865 0
-3542 -8853 8866 0
-8854 8866 0
-3542 -8854 8867 0
-8855 8867 0
-3542 -8855 8868 0
-8856 8868 0
-3542 -8856 8869 0
-8857 8869 0
-3542 -8857 8870 0
-8858 8870 0
-3542 -8858 8871 0
-8859 8871 0
-3542 -8859 8872 0
-8860 8872 0
-3542 -8860 8873 0
-8861 8873 0
-3542 -8861 8874 0
-8862 8874 0
-3542 -8862 8875 0
-8863 8875 0
-3542 -8863 8876 0
-8864 8876 0
-3542 -8864 0
-3542 8877 0
-8865 8877 0
-3542 -8865 8878 0
-8866 8878 0
-3542 -8866 8879 0
-8867 8879 0
-3542 -8867 8880 0
-8868 8880 0
-3542 -8868 8881 0
-8869 8881 0
-3542 -8869 8882 0
-8870 8882 0
-3542 -8870 8883 0
-8871 8883 0
-3542 -8871 8884 0
-8872 8884 0
-3542 -8872 8885 0
-8873 8885 0
-3542 -8873 8886 0
-8874 8886 0
-3542 -8874 8887 0
-8875 8887 0
-3542 -8875 8888 0
-8876 8888 0
-3542 -8876 0
-3542 8889 0
-8877 8889 0
-3542 -8877 8890 0
-8878 8890 0
-3542 -8878 8891 0
-8879 8891 0
-3542 -8879 8892 0
-8880 8892 0
-3542 -8880 8893 0
-8881 8893 0
-3542 -8881 8894 0
-8882 8894 0
-3542 -8882 8895 0
-8883 8895 0
-3542 -8883 8896 0
-8884 8896 0
-3542 -8884 8897 0
-8885 8897 0
-3542 -8885 8898 0
-8886 8898 0
-3542 -8886 8899 0
-8887 8899 0
-3542 -8887 8900 0
-8888 8900 0
-3542 -8888 0
-3543 8901 0
-8889 8901 0
-3543 -8889 8902 0
-8890 8902 0
-3543 -8890 8903 0
-8891 8903 0
-3543 -8891 8904 0
-8892 8904 0
-3543 -8892 8905 0
-8893 8905 0
-3543 -8893 8906 0
-8894 8906 0
-3543 -8894 8907 0
-8895 8907 0
-3543 -8895 8908 0
-8896 8908 0
-3543 -8896 8909 0
-8897 8909 0
-3543 -8897 8910 0
-8898 8910 0
-3543 -8898 8911 0
-8899 8911 0
-3543 -8899 8912 0
-8900 8912 0
-3543 -8900 0
-3543 8913 0
-8901 8913 0
-3543 -8901 8914 0
-8902 8914 0
-3543 -8902 8915 0
-8903 8915 0
-3543 -8903 8916 0
-8904 8916 0
-3543 -8904 8917 0
-8905 8917 0
-3543 -8905 8918 0
-8906 8918 0
-3543 -8906 8919 0
-8907 8919 0
-3543 -8907 8920 0
-8908 8920 0
-3543 -8908 8921 0
-8909 8921 0
-3543 -8909 8922 0
-8910 8922 0
-3543 -8910 8923 0
-8911 8923 0
-3543 -8911 8924 0
-8912 8924 0
-3543 -8912 0
-3553 8925 0
-8913 8925 0
-3553 -8913 8926 0
-8914 8926 0
-3553 -8914 8927 0
-8915 8927 0
-3553 -8915 8928 0
-8916 8928 0
-3553 -8916 8929 0
-8917 8929 0
-3553 -8917 8930 0
-8918 8930 0
-3553 -8918 8931 0
-8919 8931 0
-3553 -8919 8932 0
-8920 8932 0
-3553 -8920 8933 0
-8921 8933 0
-3553 -8921 8934 0
-8922 8934 0
-3553 -8922 8935 0
-8923 8935 0
-3553 -8923 8936 0
-8924 8936 0
-3553 -8924 0
-3553 8937 0
-8925 8937 0
-3553 -8925 8938 0
-8926 8938 0
-3553 -8926 8939 0
-8927 8939 0
-3553 -8927 8940 0
-8928 8940 0
-3553 -8928 8941 0
-8929 8941 0
-3553 -8929 8942 0
-8930 8942 0
-3553 -8930 8943 0
-8931 8943 0
-3553 -8931 8944 0
-8932 8944 0
-3553 -8932 8945 0
-8933 8945 0
-3553 -8933 8946 0
-8934 8946 0
-3553 -8934 8947 0
-8935 8947 0
-3553 -8935 8948 0
-8936 8948 0
-3553 -8936 0
-3553 8949 0
-8937 8949 0
-3553 -8937 8950 0
-8938 8950 0
-3553 -8938 8951 0
-8939 8951 0
-3553 -8939 8952 0
-8940 8952 0
-3553 -8940 8953 0
-8941 8953 0
-3553 -8941 8954 0
-8942 8954 0
-3553 -8942 8955 0
-8943 8955 0
-3553 -8943 8956 0
-8944 8956 0
-3553 -8944 8957 0
-8945 8957 0
-3553 -8945 8958 0
-8946 8958 0
-3553 -8946 8959 0
-8947 8959 0
-3553 -8947 8960 0
-8948 8960 0
-3553 -8948 0
-3554 8961 0
-8949 8961 0
-3554 -8949 8962 0
-8950 8962 0
-3554 -8950 8963 0
-8951 8963 0
-3554 -8951 8964 0
-8952 8964 0
-3554 -8952 8965 0
-8953 8965 0
-3554 -8953 8966 0
-8954 8966 0
-3554 -8954 8967 0
-8955 8967 0
-3554 -8955 8968 0
-8956 8968 0
-3554 -8956 8969 0
-8957 8969 0
-3554 -8957 8970 0
-8958 8970 0
-3554 -8958 8971 0
-8959 8971 0
-3554 -8959 8972 0
-8960 8972 0
-3554 -8960 0
-3554 8973 0
-8961 8973 0
-3554 -8961 8974 0
-8962 8974 0
-3554 -8962 8975 0
-8963 8975 0
-3554 -8963 8976 0
-8964 8976 0
-3554 -8964 8977 0
-8965 8977 0
-3554 -8965 8978 0
-8966 8978 0
-3554 -8966 8979 0
-8967 8979 0
-3554 -8967 8980 0
-8968 8980 0
-3554 -8968 8981 0
-8969 8981 0
-3554 -8969 8982 0
-8970 8982 0
-3554 -8970 8983 0
-8971 8983 0
-3554 -8971 8984 0
-8972 8984 0
-3554 -8972 0
-3564 8985 0
-8973 8985 0
-3564 -8973 8986 0
-8974 8986 0
-3564 -8974 8987 0
-8975 8987 0
-3564 -8975 8988 0
-8976 8988 0
-3564 -8976 8989 0
-8977 8989 0
-3564 -8977 8990 0
-8978 8990 0
-3564 -8978 8991 0
-8979 8991 0
-3564 -8979 8992 0
-8980 8992 0
-3564 -8980 8993 0
-8981 8993 0
-3564 -8981 8994 0
-8982 8994 0
-3564 -8982 8995 0
-8983 8995 0
-3564 -8983 8996 0
-8984 8996 0
-3564 -8984 0
-3564 8997 0
-8985 8997 0
-3564 -8985 8998 0
-8986 8998 0
-3564 -8986 8999 0
-8987 8999 0
-3564 -8987 9000 0
-8988 9000 0
-3564 -8988 9001 0
-8989 9001 0
-3564 -8989 9002 0
-8990 9002 0
-3564 -8990 9003 0
-8991 9003 0
-3564 -8991 9004 0
-8992 9004 0
-3564 -8992 9005 0
-8993 9005 0
-3564 -8993 9006 0
-8994 9006 0
-3564 -8994 9007 0
-8995 9007 0
-3564 -8995 9008 0
-8996 9008 0
-3564 -8996 0
-3564 9009 0
-8997 9009 0
-3564 -8997 9010 0
-8998 9010 0
-3564 -8998 9011 0
-8999 9011 0
-3564 -8999 9012 0
-9000 9012 0
-3564 -9000 9013 0
-9001 9013 0
-3564 -9001 9014 0
-9002 9014 0
-3564 -9002 9015 0
-9003 9015 0
-3564 -9003 9016 0
-9004 9016 0
-3564 -9004 9017 0
-9005 9017 0
-3564 -9005 9018 0
-9006 9018 0
-3564 -9006 9019 0
-9007 9019 0
-3564 -9007 9020 0
-9008 9020 0
-3564 -9008 0
-3565 9021 0
-9009 9021 0
-3565 -9009 9022 0
-9010 9022 0
-3565 -9010 9023 0
-9011 9023 0
-3565 -9011 9024 0
-9012 9024 0
-3565 -9012 9025 0
-9013 9025 0
-3565 -9013 9026 0
-9014 9026 0
-3565 -9014 9027 0
-9015 9027 0
-3565 -9015 9028 0
-9016 9028 0
-3565 -9016 9029 0
-9017 9029 0
-3565 -9017 9030 0
-9018 9030 0
-3565 -9018 9031 0
-9019 9031 0
-3565 -9019 9032 0
-9020 9032 0
-3565 -9020 0
-3565 9033 0
-9021 9033 0
-3565 -9021 9034 0
-9022 9034 0
-3565 -9022 9035 0
-9023 9035 0
-3565 -9023 9036 0
-9024 9036 0
-3565 -9024 9037 0
-9025 9037 0
-3565 -9025 9038 0
-9026 9038 0
-3565 -9026 9039 0
-9027 9039 0
-3565 -9027 9040 0
-9028 9040 0
-3565 -9028 9041 0
-9029 9041 0
-3565 -9029 9042 0
-9030 9042 0
-3565 -9030 9043 0
-9031 9043 0
-3565 -9031 9044 0
-9032 9044 0
-3565 -9032 0
-3575 9045 0
-9033 9045 0
-3575 -9033 9046 0
-9034 9046 0
-3575 -9034 9047 0
-9035 9047 0
-3575 -9035 9048 0
-9036 9048 0
-3575 -9036 9049 0
-9037 9049 0
-3575 -9037 9050 0
-9038 9050 0
-3575 -9038 9051 0
-9039 9051 0
-3575 -9039 9052 0
-9040 9052 0
-3575 -9040 9053 0
-9041 9053 0
-3575 -9041 9054 0
-9042 9054 0
-3575 -9042 9055 0
-9043 9055 0
-3575 -9043 9056 0
-9044 9056 0
-3575 -9044 0
-3575 9057 0
-9045 9057 0
-3575 -9045 9058 0
-9046 9058 0
-3575 -9046 9059 0
-9047 9059 0
-3575 -9047 9060 0
-9048 9060 0
-3575 -9048 9061 0
-9049 9061 0
-3575 -9049 9062 0
-9050 9062 0
-3575 -9050 9063 0
-9051 9063 0
-3575 -9051 9064 0
-9052 9064 0
-3575 -9052 9065 0
-9053 9065 0
-3575 -9053 9066 0
-9054 9066 0
-3575 -9054 9067 0
-9055 9067 0
-3575 -9055 9068 0
-9056 9068 0
-3575 -9056 0
-3575 9069 0
-9057 9069 0
-3575 -9057 9070 0
-9058 9070 0
-3575 -9058 9071 0
-9059 9071 0
-3575 -9059 9072 0
-9060 9072 0
-3575 -9060 9073 0
-9061 9073 0
-3575 -9061 9074 0
-9062 9074 0
-3575 -9062 9075 0
-9063 9075 0
-3575 -9063 9076 0
-9064 9076 0
-3575 -9064 9077 0
-9065 9077 0
-3575 -9065 9078 0
-9066 9078 0
-3575 -9066 9079 0
-9067 9079 0
-3575 -9067 9080 0
-9068 9080 0
-3575 -9068 0
-3576 9081 0
-9069 9081 0
-3576 -9069 9082 0
-9070 9082 0
-3576 -9070 9083 0
-9071 9083 0
-3576 -9071 9084 0
-9072 9084 0
-3576 -9072 9085 0
-9073 9085 0
-3576 -9073 9086 0
-9074 9086 0
-3576 -9074 9087 0
-9075 9087 0
-3576 -9075 9088 0
-9076 9088 0
-3576 -9076 9089 0
-9077 9089 0
-3576 -9077 9090 0
-9078 9090 0
-3576 -9078 9091 0
-9079 9091 0
-3576 -9079 9092 0
-9080 9092 0
-3576 -9080 0
-3576 9093 0
-9081 9093 0
-3576 -9081 9094 0
-9082 9094 0
-3576 -9082 9095 0
-9083 9095 0
-3576 -9083 9096 0
-9084 9096 0
-3576 -9084 9097 0
-9085 9097 0
-3576 -9085 9098 0
-9086 9098 0
-3576 -9086 9099 0
-9087 9099 0
-3576 -9087 9100 0
-9088 9100 0
-3576 -9088 9101 0
-9089 9101 0
-3576 -9089 9102 0
-9090 9102 0
-3576 -9090 9103 0
-9091 9103 0
-3576 -9091 9104 0
-9092 9104 0
-3576 -9092 0
-3586 9105 0
-9093 9105 0
-3586 -9093 9106 0
-9094 9106 0
-3586 -9094 9107 0
-9095 9107 0
-3586 -9095 9108 0
-9096 9108 0
-3586 -9096 9109 0
-9097 9109 0
-3586 -9097 9110 0
-9098 9110 0
-3586 -9098 9111 0
-9099 9111 0
-3586 -9099 9112 0
-9100 9112 0
-3586 -9100 9113 0
-9101 9113 0
-3586 -9101 9114 0
-9102 9114 0
-3586 -9102 9115 0
-9103 9115 0
-3586 -9103 9116 0
-9104 9116 0
-3586 -9104 0
-3586 9117 0
-9105 9117 0
-3586 -9105 9118 0
-9106 9118 0
-3586 -9106 9119 0
-9107 9119 0
-3586 -9107 9120 0
-9108 9120 0
-3586 -9108 9121 0
-9109 9121 0
-3586 -9109 9122 0
-9110 9122 0
-3586 -9110 9123 0
-9111 9123 0
-3586 -9111 9124 0
-9112 9124 0
-3586 -9112 9125 0
-9113 9125 0
-3586 -9113 9126 0
-9114 9126 0
-3586 -9114 9127 0
-9115 9127 0
-3586 -9115 9128 0
-9116 9128 0
-3586 -9116 0
-3586 9129 0
-9117 9129 0
-3586 -9117 9130 0
-9118 9130 0
-3586 -9118 9131 0
-9119 9131 0
-3586 -9119 9132 0
-9120 9132 0
-3586 -9120 9133 0
-9121 9133 0
-3586 -9121 9134 0
-9122 9134 0
-3586 -9122 9135 0
-9123 9135 0
-3586 -9123 9136 0
-9124 9136 0
-3586 -9124 9137 0
-9125 9137 0
-3586 -9125 9138 0
-9126 9138 0
-3586 -9126 9139 0
-9127 9139 0
-3586 -9127 9140 0
-9128 9140 0
-3586 -9128 0
-3587 9141 0
-9129 9141 0
-3587 -9129 9142 0
-9130 9142 0
-3587 -9130 9143 0
-9131 9143 0
-3587 -9131 9144 0
-9132 9144 0
-3587 -9132 9145 0
-9133 9145 0
-3587 -9133 9146 0
-9134 9146 0
-3587 -9134 9147 0
-9135 9147 0
-3587 -9135 9148 0
-9136 9148 0
-3587 -9136 9149 0
-9137 9149 0
-3587 -9137 9150 0
-9138 9150 0
-3587 -9138 9151 0
-9139 9151 0
-3587 -9139 9152 0
-9140 9152 0
-3587 -9140 0
-3587 9153 0
-9141 9153 0
-3587 -9141 9154 0
-9142 9154 0
-3587 -9142 9155 0
-9143 9155 0
-3587 -9143 9156 0
-9144 9156 0
-3587 -9144 9157 0
-9145 9157 0
-3587 -9145 9158 0
-9146 9158 0
-3587 -9146 9159 0
-9147 9159 0
-3587 -9147 9160 0
-9148 9160 0
-3587 -9148 9161 0
-9149 9161 0
-3587 -9149 9162 0
-9150 9162 0
-3587 -9150 9163 0
-9151 9163 0
-3587 -9151 9164 0
-9152 9164 0
-3587 -9152 0
-3597 9165 0
-9153 9165 0
-3597 -9153 9166 0
-9154 9166 0
-3597 -9154 9167 0
-9155 9167 0
-3597 -9155 9168 0
-9156 9168 0
-3597 -9156 9169 0
-9157 9169 0
-3597 -9157 9170 0
-9158 9170 0
-3597 -9158 9171 0
-9159 9171 0
-3597 -9159 9172 0
-9160 9172 0
-3597 -9160 9173 0
-9161 9173 0
-3597 -9161 9174 0
-9162 9174 0
-3597 -9162 9175 0
-9163 9175 0
-3597 -9163 9176 0
-9164 9176 0
-3597 -9164 0
-3597 9177 0
-9165 9177 0
-3597 -9165 9178 0
-9166 9178 0
-3597 -9166 9179 0
-9167 9179 0
-3597 -9167 9180 0
-9168 9180 0
-3597 -9168 9181 0
-9169 9181 0
-3597 -9169 9182 0
-9170 9182 0
-3597 -9170 9183 0
-9171 9183 0
-3597 -9171 9184 0
-9172 9184 0
-3597 -9172 9185 0
-9173 9185 0
-3597 -9173 9186 0
-9174 9186 0
-3597 -9174 9187 0
-9175 9187 0
-3597 -9175 9188 0
-9176 9188 0
-3597 -9176 0
-3597 9189 0
-9177 9189 0
-3597 -9177 9190 0
-9178 9190 0
-3597 -9178 9191 0
-9179 9191 0
-3597 -9179 9192 0
-9180 9192 0
-3597 -9180 9193 0
-9181 9193 0
-3597 -9181 9194 0
-9182 9194 0
-3597 -9182 9195 0
-9183 9195 0
-3597 -9183 9196 0
-9184 9196 0
-3597 -9184 9197 0
-9185 9197 0
-3597 -9185 9198 0
-9186 9198 0
-3597 -9186 9199 0
-9187 9199 0
-3597 -9187 9200 0
-9188 9200 0
-3597 -9188 0
-3598 9201 0
-9189 9201 0
-3598 -9189 9202 0
-9190 9202 0
-3598 -9190 9203 0
-9191 9203 0
-3598 -9191 9204 0
-9192 9204 0
-3598 -9192 9205 0
-9193 9205 0
-3598 -9193 9206 0
-9194 9206 0
-3598 -9194 9207 0
-9195 9207 0
-3598 -9195 9208 0
-9196 9208 0
-3598 -9196 9209 0
-9197 9209 0
-3598 -9197 9210 0
-9198 9210 0
-3598 -9198 9211 0
-9199 9211 0
-3598 -9199 9212 0
-9200 9212 0
-3598 -9200 0
-3598 9213 0
-9201 9213 0
-3598 -9201 9214 0
-9202 9214 0
-3598 -9202 9215 0
-9203 9215 0
-3598 -9203 9216 0
-9204 9216 0
-3598 -9204 9217 0
-9205 9217 0
-3598 -9205 9218 0
-9206 9218 0
-3598 -9206 9219 0
-9207 9219 0
-3598 -9207 9220 0
-9208 9220 0
-3598 -9208 9221 0
-9209 9221 0
-3598 -9209 9222 0
-9210 9222 0
-3598 -9210 9223 0
-9211 9223 0
-3598 -9211 9224 0
-9212 9224 0
-3598 -9212 0
-3608 9225 0
-9213 9225 0
-3608 -9213 9226 0
-9214 9226 0
-3608 -9214 9227 0
-9215 9227 0
-3608 -9215 9228 0
-9216 9228 0
-3608 -9216 9229 0
-9217 9229 0
-3608 -9217 9230 0
-9218 9230 0
-3608 -9218 9231 0
-9219 9231 0
-3608 -9219 9232 0
-9220 9232 0
-3608 -9220 9233 0
-9221 9233 0
-3608 -9221 9234 0
-9222 9234 0
-3608 -9222 9235 0
-9223 9235 0
-3608 -9223 9236 0
-9224 9236 0
-3608 -9224 0
-3608 9237 0
-9225 9237 0
-3608 -9225 9238 0
-9226 9238 0
-3608 -9226 9239 0
-9227 9239 0
-3608 -9227 9240 0
-9228 9240 0
-3608 -9228 9241 0
-9229 9241 0
-3608 -9229 9242 0
-9230 9242 0
-3608 -9230 9243 0
-9231 9243 0
-3608 -9231 9244 0
-9232 9244 0
-3608 -9232 9245 0
-9233 9245 0
-3608 -9233 9246 0
-9234 9246 0
-3608 -9234 9247 0
-9235 9247 0
-3608 -9235 9248 0
-9236 9248 0
-3608 -9236 0
-3608 9249 0
-9237 9249 0
-3608 -9237 9250 0
-9238 9250 0
-3608 -9238 9251 0
-9239 9251 0
-3608 -9239 9252 0
-9240 9252 0
-3608 -9240 9253 0
-9241 9253 0
-3608 -9241 9254 0
-9242 9254 0
-3608 -9242 9255 0
-9243 9255 0
-3608 -9243 9256 0
-9244 9256 0
-3608 -9244 9257 0
-9245 9257 0
-3608 -9245 9258 0
-9246 9258 0
-3608 -9246 9259 0
-9247 9259 0
-3608 -9247 9260 0
-9248 9260 0
-3608 -9248 0
-3609 9261 0
-9249 9261 0
-3609 -9249 9262 0
-9250 9262 0
-3609 -9250 9263 0
-9251 9263 0
-3609 -9251 9264 0
-9252 9264 0
-3609 -9252 9265 0
-9253 9265 0
-3609 -9253 9266 0
-9254 9266 0
-3609 -9254 9267 0
-9255 9267 0
-3609 -9255 9268 0
-9256 9268 0
-3609 -9256 9269 0
-9257 9269 0
-3609 -9257 9270 0
-9258 9270 0
-3609 -9258 9271 0
-9259 9271 0
-3609 -9259 9272 0
-9260 9272 0
-3609 -9260 0
-3609 9273 0
-9261 9273 0
-3609 -9261 9274 0
-9262 9274 0
-3609 -9262 9275 0
-9263 9275 0
-3609 -9263 9276 0
-9264 9276 0
-3609 -9264 9277 0
-9265 9277 0
-3609 -9265 9278 0
-9266 9278 0
-3609 -9266 9279 0
-9267 9279 0
-3609 -9267 9280 0
-9268 9280 0
-3609 -9268 9281 0
-9269 9281 0
-3609 -9269 9282 0
-9270 9282 0
-3609 -9270 9283 0
-9271 9283 0
-3609 -9271 9284 0
-9272 9284 0
-3609 -9272 0
-3619 9285 0
-9273 9285 0
-3619 -9273 9286 0
-9274 9286 0
-3619 -9274 9287 0
-9275 9287 0
-3619 -9275 9288 0
-9276 9288 0
-3619 -9276 9289 0
-9277 9289 0
-3619 -9277 9290 0
-9278 9290 0
-3619 -9278 9291 0
-9279 9291 0
-3619 -9279 9292 0
-9280 9292 0
-3619 -9280 9293 0
-9281 9293 0
-3619 -9281 9294 0
-9282 9294 0
-3619 -9282 9295 0
-9283 9295 0
-3619 -9283 9296 0
-9284 9296 0
-3619 -9284 0
-3619 9297 0
-9285 9297 0
-3619 -9285 9298 0
-9286 9298 0
-3619 -9286 9299 0
-9287 9299 0
-3619 -9287 9300 0
-9288 9300 0
-3619 -9288 9301 0
-9289 9301 0
-3619 -9289 9302 0
-9290 9302 0
-3619 -9290 9303 0
-9291 9303 0
-3619 -9291 9304 0
-9292 9304 0
-3619 -9292 9305 0
-9293 9305 0
-3619 -9293 9306 0
-9294 9306 0
-3619 -9294 9307 0
-9295 9307 0
-3619 -9295 9308 0
-9296 9308 0
-3619 -9296 0
-3619 9309 0
-9297 9309 0
-3619 -9297 9310 0
-9298 9310 0
-3619 -9298 9311 0
-9299 9311 0
-3619 -9299 9312 0
-9300 9312 0
-3619 -9300 9313 0
-9301 9313 0
-3619 -9301 9314 0
-9302 9314 0
-3619 -9302 9315 0
-9303 9315 0
-3619 -9303 9316 0
-9304 9316 0
-3619 -9304 9317 0
-9305 9317 0
-3619 -9305 9318 0
-9306 9318 0
-3619 -9306 9319 0
-9307 9319 0
-3619 -9307 9320 0
-9308 9320 0
-3619 -9308 0
-3620 9321 0
-9309 9321 0
-3620 -9309 9322 0
-9310 9322 0
-3620 -9310 9323 0
-9311 9323 0
-3620 -9311 9324 0
-9312 9324 0
-3620 -9312 9325 0
-9313 9325 0
-3620 -9313 9326 0
-9314 9326 0
-3620 -9314 9327 0
-9315 9327 0
-3620 -9315 9328 0
-9316 9328 0
-3620 -9316 9329 0
-9317 9329 0
-3620 -9317 9330 0
-9318 9330 0
-3620 -9318 9331 0
-9319 9331 0
-3620 -9319 9332 0
-9320 9332 0
-3620 -9320 0
-3620 9333 0
-9321 9333 0
-3620 -9321 9334 0
-9322 9334 0
-3620 -9322 9335 0
-9323 9335 0
-3620 -9323 9336 0
-9324 9336 0
-3620 -9324 9337 0
-9325 9337 0
-3620 -9325 9338 0
-9326 9338 0
-3620 -9326 9339 0
-9327 9339 0
-3620 -9327 9340 0
-9328 9340 0
-3620 -9328 9341 0
-9329 9341 0
-3620 -9329 9342 0
-9330 9342 0
-3620 -9330 9343 0
-9331 9343 0
-3620 -9331 9344 0
-9332 9344 0
-3620 -9332 0
-3630 9345 0
-9333 9345 0
-3630 -9333 9346 0
-9334 9346 0
-3630 -9334 9347 0
-9335 9347 0
-3630 -9335 9348 0
-9336 9348 0
-3630 -9336 9349 0
-9337 9349 0
-3630 -9337 9350 0
-9338 9350 0
-3630 -9338 9351 0
-9339 9351 0
-3630 -9339 9352 0
-9340 9352 0
-3630 -9340 9353 0
-9341 9353 0
-3630 -9341 9354 0
-9342 9354 0
-3630 -9342 9355 0
-9343 9355 0
-3630 -9343 9356 0
-9344 9356 0
-3630 -9344 0
-3630 9357 0
-9345 9357 0
-3630 -9345 9358 0
-9346 9358 0
-3630 -9346 9359 0
-9347 9359 0
-3630 -9347 9360 0
-9348 9360 0
-3630 -9348 9361 0
-9349 9361 0
-3630 -9349 9362 0
-9350 9362 0
-3630 -9350 9363 0
-9351 9363 0
-3630 -9351 9364 0
-9352 9364 0
-3630 -9352 9365 0
-9353 9365 0
-3630 -9353 9366 0
-9354 9366 0
-3630 -9354 9367 0
-9355 9367 0
-3630 -9355 9368 0
-9356 9368 0
-3630 -9356 0
-3630 9369 0
-9357 9369 0
-3630 -9357 9370 0
-9358 9370 0
-3630 -9358 9371 0
-9359 9371 0
-3630 -9359 9372 0
-9360 9372 0
-3630 -9360 9373 0
-9361 9373 0
-3630 -9361 9374 0
-9362 9374 0
-3630 -9362 9375 0
-9363 9375 0
-3630 -9363 9376 0
-9364 9376 0
-3630 -9364 9377 0
-9365 9377 0
-3630 -9365 9378 0
-9366 9378 0
-3630 -9366 9379 0
-9367 9379 0
-3630 -9367 9380 0
-9368 9380 0
-3630 -9368 0
-3631 9381 0
-9369 9381 0
-3631 -9369 9382 0
-9370 9382 0
-3631 -9370 9383 0
-9371 9383 0
-3631 -9371 9384 0
-9372 9384 0
-3631 -9372 9385 0
-9373 9385 0
-3631 -9373 9386 0
-9374 9386 0
-3631 -9374 9387 0
-9375 9387 0
-3631 -9375 9388 0
-9376 9388 0
-3631 -9376 9389 0
-9377 9389 0
-3631 -9377 9390 0
-9378 9390 0
-3631 -9378 9391 0
-9379 9391 0
-3631 -9379 9392 0
-9380 9392 0
-3631 -9380 0
-3631 9393 0
-9381 9393 0
-3631 -9381 9394 0
-9382 9394 0
-3631 -9382 9395 0
-9383 9395 0
-3631 -9383 9396 0
-9384 9396 0
-3631 -9384 9397 0
-9385 9397 0
-3631 -9385 9398 0
-9386 9398 0
-3631 -9386 9399 0
-9387 9399 0
-3631 -9387 9400 0
-9388 9400 0
-3631 -9388 9401 0
-9389 9401 0
-3631 -9389 9402 0
-9390 9402 0
-3631 -9390 9403 0
-9391 9403 0
-3631 -9391 9404 0
-9392 9404 0
-3631 -9392 0
-3641 9405 0
-9393 9405 0
-3641 -9393 9406 0
-9394 9406 0
-3641 -9394 9407 0
-9395 9407 0
-3641 -9395 9408 0
-9396 9408 0
-3641 -9396 9409 0
-9397 9409 0
-3641 -9397 9410 0
-9398 9410 0
-3641 -9398 9411 0
-9399 9411 0
-3641 -9399 9412 0
-9400 9412 0
-3641 -9400 9413 0
-9401 9413 0
-3641 -9401 9414 0
-9402 9414 0
-3641 -9402 9415 0
-9403 9415 0
-3641 -9403 9416 0
-9404 9416 0
-3641 -9404 0
-3641 9417 0
-9405 9417 0
-3641 -9405 9418 0
-9406 9418 0
-3641 -9406 9419 0
-9407 9419 0
-3641 -9407 9420 0
-9408 9420 0
-3641 -9408 9421 0
-9409 9421 0
-3641 -9409 9422 0
-9410 9422 0
-3641 -9410 9423 0
-9411 9423 0
-3641 -9411 9424 0
-9412 9424 0
-3641 -9412 9425 0
-9413 9425 0
-3641 -9413 9426 0
-9414 9426 0
-3641 -9414 9427 0
-9415 9427 0
-3641 -9415 9428 0
-9416 9428 0
-3641 -9416 0
-3641 9429 0
-9417 9429 0
-3641 -9417 9430 0
-9418 9430 0
-3641 -9418 9431 0
-9419 9431 0
-3641 -9419 9432 0
-9420 9432 0
-3641 -9420 9433 0
-9421 9433 0
-3641 -9421 9434 0
-9422 9434 0
-3641 -9422 9435 0
-9423 9435 0
-3641 -9423 9436 0
-9424 9436 0
-3641 -9424 9437 0
-9425 9437 0
-3641 -9425 9438 0
-9426 9438 0
-3641 -9426 9439 0
-9427 9439 0
-3641 -9427 9440 0
-9428 9440 0
-3641 -9428 0
-3642 9441 0
-9429 9441 0
-3642 -9429 9442 0
-9430 9442 0
-3642 -9430 9443 0
-9431 9443 0
-3642 -9431 9444 0
-9432 9444 0
-3642 -9432 9445 0
-9433 9445 0
-3642 -9433 9446 0
-9434 9446 0
-3642 -9434 9447 0
-9435 9447 0
-3642 -9435 9448 0
-9436 9448 0
-3642 -9436 9449 0
-9437 9449 0
-3642 -9437 9450 0
-9438 9450 0
-3642 -9438 9451 0
-9439 9451 0
-3642 -9439 9452 0
-9440 9452 0
-3642 -9440 0
-3642 9453 0
-9441 9453 0
-3642 -9441 9454 0
-9442 9454 0
-3642 -9442 9455 0
-9443 9455 0
-3642 -9443 9456 0
-9444 9456 0
-3642 -9444 9457 0
-9445 9457 0
-3642 -9445 9458 0
-9446 9458 0
-3642 -9446 9459 0
-9447 9459 0
-3642 -9447 9460 0
-9448 9460 0
-3642 -9448 9461 0
-9449 9461 0
-3642 -9449 9462 0
-9450 9462 0
-3642 -9450 9463 0
-9451 9463 0
-3642 -9451 9464 0
-9452 9464 0
-3642 -9452 0
-3652 9465 0
-9453 9465 0
-3652 -9453 9466 0
-9454 9466 0
-3652 -9454 9467 0
-9455 9467 0
-3652 -9455 9468 0
-9456 9468 0
-3652 -9456 9469 0
-9457 9469 0
-3652 -9457 9470 0
-9458 9470 0
-3652 -9458 9471 0
-9459 9471 0
-3652 -9459 9472 0
-9460 9472 0
-3652 -9460 9473 0
-9461 9473 0
-3652 -9461 9474 0
-9462 9474 0
-3652 -9462 9475 0
-9463 9475 0
-3652 -9463 9476 0
-9464 9476 0
-3652 -9464 0
-3652 9477 0
-9465 9477 0
-3652 -9465 9478 0
-9466 9478 0
-3652 -9466 9479 0
-9467 9479 0
-3652 -9467 9480 0
-9468 9480 0
-3652 -9468 9481 0
-9469 9481 0
-3652 -9469 9482 0
-9470 9482 0
-3652 -9470 9483 0
-9471 9483 0
-3652 -9471 9484 0
-9472 9484 0
-3652 -9472 9485 0
-9473 9485 0
-3652 -9473 9486 0
-9474 9486 0
-3652 -9474 9487 0
-9475 9487 0
-3652 -9475 9488 0
-9476 9488 0
-3652 -9476 0
-3652 9489 0
-9477 9489 0
-3652 -9477 9490 0
-9478 9490 0
-3652 -9478 9491 0
-9479 9491 0
-3652 -9479 9492 0
-9480 9492 0
-3652 -9480 9493 0
-9481 9493 0
-3652 -9481 9494 0
-9482 9494 0
-3652 -9482 9495 0
-9483 9495 0
-3652 -9483 9496 0
-9484 9496 0
-3652 -9484 9497 0
-9485 9497 0
-3652 -9485 9498 0
-9486 9498 0
-3652 -9486 9499 0
-9487 9499 0
-3652 -9487 9500 0
-9488 9500 0
-3652 -9488 0
-3653 9501 0
-9489 9501 0
-3653 -9489 9502 0
-9490 9502 0
-3653 -9490 9503 0
-9491 9503 0
-3653 -9491 9504 0
-9492 9504 0
-3653 -9492 9505 0
-9493 9505 0
-3653 -9493 9506 0
-9494 9506 0
-3653 -9494 9507 0
-9495 9507 0
-3653 -9495 9508 0
-9496 9508 0
-3653 -9496 9509 0
-9497 9509 0
-3653 -9497 9510 0
-9498 9510 0
-3653 -9498 9511 0
-9499 9511 0
-3653 -9499 9512 0
-9500 9512 0
-3653 -9500 0
-3653 9513 0
-9501 9513 0
-3653 -9501 9514 0
-9502 9514 0
-3653 -9502 9515 0
-9503 9515 0
-3653 -9503 9516 0
-9504 9516 0
-3653 -9504 9517 0
-9505 9517 0
-3653 -9505 9518 0
-9506 9518 0
-3653 -9506 9519 0
-9507 9519 0
-3653 -9507 9520 0
-9508 9520 0
-3653 -9508 9521 0
-9509 9521 0
-3653 -9509 9522 0
-9510 9522 0
-3653 -9510 9523 0
-9511 9523 0
-3653 -9511 9524 0
-9512 9524 0
-3653 -9512 0
-3663 9525 0
-9513 9525 0
-3663 -9513 9526 0
-9514 9526 0
-3663 -9514 9527 0
-9515 9527 0
-3663 -9515 9528 0
-9516 9528 0
-3663 -9516 9529 0
-9517 9529 0
-3663 -9517 9530 0
-9518 9530 0
-3663 -9518 9531 0
-9519 9531 0
-3663 -9519 9532 0
-9520 9532 0
-3663 -9520 9533 0
-9521 9533 0
-3663 -9521 9534 0
-9522 9534 0
-3663 -9522 9535 0
-9523 9535 0
-3663 -9523 9536 0
-9524 9536 0
-3663 -9524 0
-3663 9537 0
-9525 9537 0
-3663 -9525 9538 0
-9526 9538 0
-3663 -9526 9539 0
-9527 9539 0
-3663 -9527 9540 0
-9528 9540 0
-3663 -9528 9541 0
-9529 9541 0
-3663 -9529 9542 0
-9530 9542 0
-3663 -9530 9543 0
-9531 9543 0
-3663 -9531 9544 0
-9532 9544 0
-3663 -9532 9545 0
-9533 9545 0
-3663 -9533 9546 0
-9534 9546 0
-3663 -9534 9547 0
-9535 9547 0
-3663 -9535 9548 0
-9536 9548 0
-3663 -9536 0
-3663 9549 0
-9537 9549 0
-3663 -9537 9550 0
-9538 9550 0
-3663 -9538 9551 0
-9539 9551 0
-3663 -9539 9552 0
-9540 9552 0
-3663 -9540 9553 0
-9541 9553 0
-3663 -9541 9554 0
-9542 9554 0
-3663 -9542 9555 0
-9543 9555 0
-3663 -9543 9556 0
-9544 9556 0
-3663 -9544 9557 0
-9545 9557 0
-3663 -9545 9558 0
-9546 9558 0
-3663 -9546 9559 0
-9547 9559 0
-3663 -9547 9560 0
-9548 9560 0
-3663 -9548 0
-3664 9561 0
-9549 9561 0
-3664 -9549 9562 0
-9550 9562 0
-3664 -9550 9563 0
-9551 9563 0
-3664 -9551 9564 0
-9552 9564 0
-3664 -9552 9565 0
-9553 9565 0
-3664 -9553 9566 0
-9554 9566 0
-3664 -9554 9567 0
-9555 9567 0
-3664 -9555 9568 0
-9556 9568 0
-3664 -9556 9569 0
-9557 9569 0
-3664 -9557 9570 0
-9558 9570 0
-3664 -9558 9571 0
-9559 9571 0
-3664 -9559 9572 0
-9560 9572 0
-3664 -9560 0
-3664 9573 0
-9561 9573 0
-3664 -9561 9574 0
-9562 9574 0
-3664 -9562 9575 0
-9563 9575 0
-3664 -9563 9576 0
-9564 9576 0
-3664 -9564 9577 0
-9565 9577 0
-3664 -9565 9578 0
-9566 9578 0
-3664 -9566 9579 0
-9567 9579 0
-3664 -9567 9580 0
-9568 9580 0
-3664 -9568 9581 0
-9569 9581 0
-3664 -9569 9582 0
-9570 9582 0
-3664 -9570 9583 0
-9571 9583 0
-3664 -9571 9584 0
-9572 9584 0
-3664 -9572 0
-3674 9585 0
-9573 9585 0
-3674 -9573 9586 0
-9574 9586 0
-3674 -9574 9587 0
-9575 9587 0
-3674 -9575 9588 0
-9576 9588 0
-3674 -9576 9589 0
-9577 9589 0
-3674 -9577 9590 0
-9578 9590 0
-3674 -9578 9591 0
-9579 9591 0
-3674 -9579 9592 0
-9580 9592 0
-3674 -9580 9593 0
-9581 9593 0
-3674 -9581 9594 0
-9582 9594 0
-3674 -9582 9595 0
-9583 9595 0
-3674 -9583 9596 0
-9584 9596 0
-3674 -9584 0
-3674 9597 0
-9585 9597 0
-3674 -9585 9598 0
-9586 9598 0
-3674 -9586 9599 0
-9587 9599 0
-3674 -9587 9600 0
-9588 9600 0
-3674 -9588 9601 0
-9589 9601 0
-3674 -9589 9602 0
-9590 9602 0
-3674 -9590 9603 0
-9591 9603 0
-3674 -9591 9604 0
-9592 9604 0
-3674 -9592 9605 0
-9593 9605 0
-3674 -9593 9606 0
-9594 9606 0
-3674 -9594 9607 0
-9595 9607 0
-3674 -9595 9608 0
-9596 9608 0
-3674 -9596 0
-3674 9609 0
-9597 9609 0
-3674 -9597 9610 0
-9598 9610 0
-3674 -9598 9611 0
-9599 9611 0
-3674 -9599 9612 0
-9600 9612 0
-3674 -9600 9613 0
-9601 9613 0
-3674 -9601 9614 0
-9602 9614 0
-3674 -9602 9615 0
-9603 9615 0
-3674 -9603 9616 0
-9604 9616 0
-3674 -9604 9617 0
-9605 9617 0
-3674 -9605 9618 0
-9606 9618 0
-3674 -9606 9619 0
-9607 9619 0
-3674 -9607 9620 0
-9608 9620 0
-3674 -9608 0
-3675 9621 0
-9609 9621 0
-3675 -9609 9622 0
-9610 9622 0
-3675 -9610 9623 0
-9611 9623 0
-3675 -9611 9624 0
-9612 9624 0
-3675 -9612 9625 0
-9613 9625 0
-3675 -9613 9626 0
-9614 9626 0
-3675 -9614 9627 0
-9615 9627 0
-3675 -9615 9628 0
-9616 9628 0
-3675 -9616 9629 0
-9617 9629 0
-3675 -9617 9630 0
-9618 9630 0
-3675 -9618 9631 0
-9619 9631 0
-3675 -9619 9632 0
-9620 9632 0
-3675 -9620 0
-3675 9633 0
-9621 9633 0
-3675 -9621 9634 0
-9622 9634 0
-3675 -9622 9635 0
-9623 9635 0
-3675 -9623 9636 0
-9624 9636 0
-3675 -9624 9637 0
-9625 9637 0
-3675 -9625 9638 0
-9626 9638 0
-3675 -9626 9639 0
-9627 9639 0
-3675 -9627 9640 0
-9628 9640 0
-3675 -9628 9641 0
-9629 9641 0
-3675 -9629 9642 0
-9630 9642 0
-3675 -9630 9643 0
-9631 9643 0
-3675 -9631 9644 0
-9632 9644 0
-3675 -9632 0
-3685 9645 0
-9633 9645 0
-3685 -9633 9646 0
-9634 9646 0
-3685 -9634 9647 0
-9635 9647 0
-3685 -9635 9648 0
-9636 9648 0
-3685 -9636 9649 0
-9637 9649 0
-3685 -9637 9650 0
-9638 9650 0
-3685 -9638 9651 0
-9639 9651 0
-3685 -9639 9652 0
-9640 9652 0
-3685 -9640 9653 0
-9641 9653 0
-3685 -9641 9654 0
-9642 9654 0
-3685 -9642 9655 0
-9643 9655 0
-3685 -9643 9656 0
-9644 9656 0
-3685 -9644 0
-3685 9657 0
-9645 9657 0
-3685 -9645 9658 0
-9646 9658 0
-3685 -9646 9659 0
-9647 9659 0
-3685 -9647 9660 0
-9648 9660 0
-3685 -9648 9661 0
-9649 9661 0
-3685 -9649 9662 0
-9650 9662 0
-3685 -9650 9663 0
-9651 9663 0
-3685 -9651 9664 0
-9652 9664 0
-3685 -9652 9665 0
-9653 9665 0
-3685 -9653 9666 0
-9654 9666 0
-3685 -9654 9667 0
-9655 9667 0
-3685 -9655 9668 0
-9656 9668 0
-3685 -9656 0
-3685 9669 0
-9657 9669 0
-3685 -9657 9670 0
-9658 9670 0
-3685 -9658 9671 0
-9659 9671 0
-3685 -9659 9672 0
-9660 9672 0
-3685 -9660 9673 0
-9661 9673 0
-3685 -9661 9674 0
-9662 9674 0
-3685 -9662 9675 0
-9663 9675 0
-3685 -9663 9676 0
-9664 9676 0
-3685 -9664 9677 0
-9665 9677 0
-3685 -9665 9678 0
-9666 9678 0
-3685 -9666 9679 0
-9667 9679 0
-3685 -9667 9680 0
-9668 9680 0
-3685 -9668 0
-3686 9681 0
-9669 9681 0
-3686 -9669 9682 0
-9670 9682 0
-3686 -9670 9683 0
-9671 9683 0
-3686 -9671 9684 0
-9672 9684 0
-3686 -9672 9685 0
-9673 9685 0
-3686 -9673 9686 0
-9674 9686 0
-3686 -9674 9687 0
-9675 9687 0
-3686 -9675 9688 0
-9676 9688 0
-3686 -9676 9689 0
-9677 9689 0
-3686 -9677 9690 0
-9678 9690 0
-3686 -9678 9691 0
-9679 9691 0
-3686 -9679 9692 0
-9680 9692 0
-3686 -9680 0
-3686 9693 0
-9681 9693 0
-3686 -9681 9694 0
-9682 9694 0
-3686 -9682 9695 0
-9683 9695 0
-3686 -9683 9696 0
-9684 9696 0
-3686 -9684 9697 0
-9685 9697 0
-3686 -9685 9698 0
-9686 9698 0
-3686 -9686 9699 0
-9687 9699 0
-3686 -9687 9700 0
-9688 9700 0
-3686 -9688 9701 0
-9689 9701 0
-3686 -9689 9702 0
-9690 9702 0
-3686 -9690 9703 0
-9691 9703 0
-3686 -9691 9704 0
-9692 9704 0
-3686 -9692 0
-3696 9705 0
-9693 9705 0
-3696 -9693 9706 0
-9694 9706 0
-3696 -9694 9707 0
-9695 9707 0
-3696 -9695 9708 0
-9696 9708 0
-3696 -9696 9709 0
-9697 9709 0
-3696 -9697 9710 0
-9698 9710 0
-3696 -9698 9711 0
-9699 9711 0
-3696 -9699 9712 0
-9700 9712 0
-3696 -9700 9713 0
-9701 9713 0
-3696 -9701 9714 0
-9702 9714 0
-3696 -9702 9715 0
-9703 9715 0
-3696 -9703 9716 0
-9704 9716 0
-3696 -9704 0
-3696 9717 0
-9705 9717 0
-3696 -9705 9718 0
-9706 9718 0
-3696 -9706 9719 0
-9707 9719 0
-3696 -9707 9720 0
-9708 9720 0
-3696 -9708 9721 0
-9709 9721 0
-3696 -9709 9722 0
-9710 9722 0
-3696 -9710 9723 0
-9711 9723 0
-3696 -9711 9724 0
-9712 9724 0
-3696 -9712 9725 0
-9713 9725 0
-3696 -9713 9726 0
-9714 9726 0
-3696 -9714 9727 0
-9715 9727 0
-3696 -9715 9728 0
-9716 9728 0
-3696 -9716 0
-3696 9729 0
-9717 9729 0
-3696 -9717 9730 0
-9718 9730 0
-3696 -9718 9731 0
-9719 9731 0
-3696 -9719 9732 0
-9720 9732 0
-3696 -9720 9733 0
-9721 9733 0
-3696 -9721 9734 0
-9722 9734 0
-3696 -9722 9735 0
-9723 9735 0
-3696 -9723 9736 0
-9724 9736 0
-3696 -9724 9737 0
-9725 9737 0
-3696 -9725 9738 0
-9726 9738 0
-3696 -9726 9739 0
-9727 9739 0
-3696 -9727 9740 0
-9728 9740 0
-3696 -9728 0
-3697 9741 0
-9729 9741 0
-3697 -9729 9742 0
-9730 9742 0
-3697 -9730 9743 0
-9731 9743 0
-3697 -9731 9744 0
-9732 9744 0
-3697 -9732 9745 0
-9733 9745 0
-3697 -9733 9746 0
-9734 9746 0
-3697 -9734 9747 0
-9735 9747 0
-3697 -9735 9748 0
-9736 9748 0
-3697 -9736 9749 0
-9737 9749 0
-3697 -9737 9750 0
-9738 9750 0
-3697 -9738 9751 0
-9739 9751 0
-3697 -9739 9752 0
-9740 9752 0
-3697 -9740 0
-3697 9753 0
-9741 9753 0
-3697 -9741 9754 0
-9742 9754 0
-3697 -9742 9755 0
-9743 9755 0
-3697 -9743 9756 0
-9744 9756 0
-3697 -9744 9757 0
-9745 9757 0
-3697 -9745 9758 0
-9746 9758 0
-3697 -9746 9759 0
-9747 9759 0
-3697 -9747 9760 0
-9748 9760 0
-3697 -9748 9761 0
-9749 9761 0
-3697 -9749 9762 0
-9750 9762 0
-3697 -9750 9763 0
-9751 9763 0
-3697 -9751 9764 0
-9752 9764 0
-3697 -9752 0
-3707 9765 0
-9753 9765 0
-3707 -9753 9766 0
-9754 9766 0
-3707 -9754 9767 0
-9755 9767 0
-3707 -9755 9768 0
-9756 9768 0
-3707 -9756 9769 0
-9757 9769 0
-3707 -9757 9770 0
-9758 9770 0
-3707 -9758 9771 0
-9759 9771 0
-3707 -9759 9772 0
-9760 9772 0
-3707 -9760 9773 0
-9761 9773 0
-3707 -9761 9774 0
-9762 9774 0
-3707 -9762 9775 0
-9763 9775 0
-3707 -9763 9776 0
-9764 9776 0
-3707 -9764 0
-3707 9777 0
-9765 9777 0
-3707 -9765 9778 0
-9766 9778 0
-3707 -9766 9779 0
-9767 9779 0
-3707 -9767 9780 0
-9768 9780 0
-3707 -9768 9781 0
-9769 9781 0
-3707 -9769 9782 0
-9770 9782 0
-3707 -9770 9783 0
-9771 9783 0
-3707 -9771 9784 0
-9772 9784 0
-3707 -9772 9785 0
-9773 9785 0
-3707 -9773 9786 0
-9774 9786 0
-3707 -9774 9787 0
-9775 9787 0
-3707 -9775 9788 0
-9776 9788 0
-3707 -9776 0
-3707 9789 0
-9777 9789 0
-3707 -9777 9790 0
-9778 9790 0
-3707 -9778 9791 0
-9779 9791 0
-3707 -9779 9792 0
-9780 9792 0
-3707 -9780 9793 0
-9781 9793 0
-3707 -9781 9794 0
-9782 9794 0
-3707 -9782 9795 0
-9783 9795 0
-3707 -9783 9796 0
-9784 9796 0
-3707 -9784 9797 0
-9785 9797 0
-3707 -9785 9798 0
-9786 9798 0
-3707 -9786 9799 0
-9787 9799 0
-3707 -9787 9800 0
-9788 9800 0
-3707 -9788 0
-3708 9801 0
-9789 9801 0
-3708 -9789 9802 0
-9790 9802 0
-3708 -9790 9803 0
-9791 9803 0
-3708 -9791 9804 0
-9792 9804 0
-3708 -9792 9805 0
-9793 9805 0
-3708 -9793 9806 0
-9794 9806 0
-3708 -9794 9807 0
-9795 9807 0
-3708 -9795 9808 0
-9796 9808 0
-3708 -9796 9809 0
-9797 9809 0
-3708 -9797 9810 0
-9798 9810 0
-3708 -9798 9811 0
-9799 9811 0
-3708 -9799 9812 0
-9800 9812 0
-3708 -9800 0
-3708 9813 0
-9801 9813 0
-3708 -9801 9814 0
-9802 9814 0
-3708 -9802 9815 0
-9803 9815 0
-3708 -9803 9816 0
-9804 9816 0
-3708 -9804 9817 0
-9805 9817 0
-3708 -9805 9818 0
-9806 9818 0
-3708 -9806 9819 0
-9807 9819 0
-3708 -9807 9820 0
-9808 9820 0
-3708 -9808 9821 0
-9809 9821 0
-3708 -9809 9822 0
-9810 9822 0
-3708 -9810 9823 0
-9811 9823 0
-3708 -9811 9824 0
-9812 9824 0
-3708 -9812 0
-3718 9825 0
-9813 9825 0
-3718 -9813 9826 0
-9814 9826 0
-3718 -9814 9827 0
-9815 9827 0
-3718 -9815 9828 0
-9816 9828 0
-3718 -9816 9829 0
-9817 9829 0
-3718 -9817 9830 0
-9818 9830 0
-3718 -9818 9831 0
-9819 9831 0
-3718 -9819 9832 0
-9820 9832 0
-3718 -9820 9833 0
-9821 9833 0
-3718 -9821 9834 0
-9822 9834 0
-3718 -9822 9835 0
-9823 9835 0
-3718 -9823 9836 0
-9824 9836 0
-3718 -9824 0
-3718 9837 0
-9825 9837 0
-3718 -9825 9838 0
-9826 9838 0
-3718 -9826 9839 0
-9827 9839 0
-3718 -9827 9840 0
-9828 9840 0
-3718 -9828 9841 0
-9829 9841 0
-3718 -9829 9842 0
-9830 9842 0
-3718 -9830 9843 0
-9831 9843 0
-3718 -9831 9844 0
-9832 9844 0
-3718 -9832 9845 0
-9833 9845 0
-3718 -9833 9846 0
-9834 9846 0
-3718 -9834 9847 0
-9835 9847 0
-3718 -9835 9848 0
-9836 9848 0
-3718 -9836 0
-3718 9849 0
-9837 9849 0
-3718 -9837 9850 0
-9838 9850 0
-3718 -9838 9851 0
-9839 9851 0
-3718 -9839 9852 0
-9840 9852 0
-3718 -9840 9853 0
-9841 9853 0
-3718 -9841 9854 0
-9842 9854 0
-3718 -9842 9855 0
-9843 9855 0
-3718 -9843 9856 0
-9844 9856 0
-3718 -9844 9857 0
-9845 9857 0
-3718 -9845 9858 0
-9846 9858 0
-3718 -9846 9859 0
-9847 9859 0
-3718 -9847 9860 0
-9848 9860 0
-3718 -9848 0
-3719 9861 0
-9849 9861 0
-3719 -9849 9862 0
-9850 9862 0
-3719 -9850 9863 0
-9851 9863 0
-3719 -9851 9864 0
-9852 9864 0
-3719 -9852 9865 0
-9853 9865 0
-3719 -9853 9866 0
-9854 9866 0
-3719 -9854 9867 0
-9855 9867 0
-3719 -9855 9868 0
-9856 9868 0
-3719 -9856 9869 0
-9857 9869 0
-3719 -9857 9870 0
-9858 9870 0
-3719 -9858 9871 0
-9859 9871 0
-3719 -9859 9872 0
-9860 9872 0
-3719 -9860 0
-3719 9873 0
-9861 9873 0
-3719 -9861 9874 0
-9862 9874 0
-3719 -9862 9875 0
-9863 9875 0
-3719 -9863 9876 0
-9864 9876 0
-3719 -9864 9877 0
-9865 9877 0
-3719 -9865 9878 0
-9866 9878 0
-3719 -9866 9879 0
-9867 9879 0
-3719 -9867 9880 0
-9868 9880 0
-3719 -9868 9881 0
-9869 9881 0
-3719 -9869 9882 0
-9870 9882 0
-3719 -9870 9883 0
-9871 9883 0
-3719 -9871 9884 0
-9872 9884 0
-3719 -9872 0
-3729 9885 0
-9873 9885 0
-3729 -9873 9886 0
-9874 9886 0
-3729 -9874 9887 0
-9875 9887 0
-3729 -9875 9888 0
-9876 9888 0
-3729 -9876 9889 0
-9877 9889 0
-3729 -9877 9890 0
-9878 9890 0
-3729 -9878 9891 0
-9879 9891 0
-3729 -9879 9892 0
-9880 9892 0
-3729 -9880 9893 0
-9881 9893 0
-3729 -9881 9894 0
-9882 9894 0
-3729 -9882 9895 0
-9883 9895 0
-3729 -9883 9896 0
-9884 9896 0
-3729 -9884 0
-3729 9897 0
-9885 9897 0
-3729 -9885 9898 0
-9886 9898 0
-3729 -9886 9899 0
-9887 9899 0
-3729 -9887 9900 0
-9888 9900 0
-3729 -9888 9901 0
-9889 9901 0
-3729 -9889 9902 0
-9890 9902 0
-3729 -9890 9903 0
-9891 9903 0
-3729 -9891 9904 0
-9892 9904 0
-3729 -9892 9905 0
-9893 9905 0
-3729 -9893 9906 0
-9894 9906 0
-3729 -9894 9907 0
-9895 9907 0
-3729 -9895 9908 0
-9896 9908 0
-3729 -9896 0
-3729 9909 0
-9897 9909 0
-3729 -9897 9910 0
-9898 9910 0
-3729 -9898 9911 0
-9899 9911 0
-3729 -9899 9912 0
-9900 9912 0
-3729 -9900 9913 0
-9901 9913 0
-3729 -9901 9914 0
-9902 9914 0
-3729 -9902 9915 0
-9903 9915 0
-3729 -9903 9916 0
-9904 9916 0
-3729 -9904 9917 0
-9905 9917 0
-3729 -9905 9918 0
-9906 9918 0
-3729 -9906 9919 0
-9907 9919 0
-3729 -9907 9920 0
-9908 9920 0
-3729 -9908 0
-3730 9921 0
-9909 9921 0
-3730 -9909 9922 0
-9910 9922 0
-3730 -9910 9923 0
-9911 9923 0
-3730 -9911 9924 0
-9912 9924 0
-3730 -9912 9925 0
-9913 9925 0
-3730 -9913 9926 0
-9914 9926 0
-3730 -9914 9927 0
-9915 9927 0
-3730 -9915 9928 0
-9916 9928 0
-3730 -9916 9929 0
-9917 9929 0
-3730 -9917 9930 0
-9918 9930 0
-3730 -9918 9931 0
-9919 9931 0
-3730 -9919 9932 0
-9920 9932 0
-3730 -9920 0
-3730 9933 0
-9921 9933 0
-3730 -9921 9934 0
-9922 9934 0
-3730 -9922 9935 0
-9923 9935 0
-3730 -9923 9936 0
-9924 9936 0
-3730 -9924 9937 0
-9925 9937 0
-3730 -9925 9938 0
-9926 9938 0
-3730 -9926 9939 0
-9927 9939 0
-3730 -9927 9940 0
-9928 9940 0
-3730 -9928 9941 0
-9929 9941 0
-3730 -9929 9942 0
-9930 9942 0
-3730 -9930 9943 0
-9931 9943 0
-3730 -9931 9944 0
-9932 9944 0
-3730 -9932 0
-3740 9945 0
-9933 9945 0
-3740 -9933 9946 0
-9934 9946 0
-3740 -9934 9947 0
-9935 9947 0
-3740 -9935 9948 0
-9936 9948 0
-3740 -9936 9949 0
-9937 9949 0
-3740 -9937 9950 0
-9938 9950 0
-3740 -9938 9951 0
-9939 9951 0
-3740 -9939 9952 0
-9940 9952 0
-3740 -9940 9953 0
-9941 9953 0
-3740 -9941 9954 0
-9942 9954 0
-3740 -9942 9955 0
-9943 9955 0
-3740 -9943 9956 0
-9944 9956 0
-3740 -9944 0
-3740 9957 0
-9945 9957 0
-3740 -9945 9958 0
-9946 9958 0
-3740 -9946 9959 0
-9947 9959 0
-3740 -9947 9960 0
-9948 9960 0
-3740 -9948 9961 0
-9949 9961 0
-3740 -9949 9962 0
-9950 9962 0
-3740 -9950 9963 0
-9951 9963 0
-3740 -9951 9964 0
-9952 9964 0
-3740 -9952 9965 0
-9953 9965 0
-3740 -9953 9966 0
-9954 9966 0
-3740 -9954 9967 0
-9955 9967 0
-3740 -9955 9968 0
-9956 9968 0
-3740 -9956 0
-3740 9969 0
-9957 9969 0
-3740 -9957 9970 0
-9958 9970 0
-3740 -9958 9971 0
-9959 9971 0
-3740 -9959 9972 0
-9960 9972 0
-3740 -9960 9973 0
-9961 9973 0
-3740 -9961 9974 0
-9962 9974 0
-3740 -9962 9975 0
-9963 9975 0
-3740 -9963 9976 0
-9964 9976 0
-3740 -9964 9977 0
-9965 9977 0
-3740 -9965 9978 0
-9966 9978 0
-3740 -9966 9979 0
-9967 9979 0
-3740 -9967 9980 0
-9968 9980 0
-3740 -9968 0
-3741 9981 0
-9969 9981 0
-3741 -9969 9982 0
-9970 9982 0
-3741 -9970 9983 0
-9971 9983 0
-3741 -9971 9984 0
-9972 9984 0
-3741 -9972 9985 0
-9973 9985 0
-3741 -9973 9986 0
-9974 9986 0
-3741 -9974 9987 0
-9975 9987 0
-3741 -9975 9988 0
-9976 9988 0
-3741 -9976 9989 0
-9977 9989 0
-3741 -9977 9990 0
-9978 9990 0
-3741 -9978 9991 0
-9979 9991 0
-3741 -9979 9992 0
-9980 9992 0
-3741 -9980 0
-3741 9993 0
-9981 9993 0
-3741 -9981 9994 0
-9982 9994 0
-3741 -9982 9995 0
-9983 9995 0
-3741 -9983 9996 0
-9984 9996 0
-3741 -9984 9997 0
-9985 9997 0
-3741 -9985 9998 0
-9986 9998 0
-3741 -9986 9999 0
-9987 9999 0
-3741 -9987 10000 0
-9988 10000 0
-3741 -9988 10001 0
-9989 10001 0
-3741 -9989 10002 0
-9990 10002 0
-3741 -9990 10003 0
-9991 10003 0
-3741 -9991 10004 0
-9992 10004 0
-3741 -9992 0
-3751 10005 0
-9993 10005 0
-3751 -9993 10006 0
-9994 10006 0
-3751 -9994 10007 0
-9995 10007 0
-3751 -9995 10008 0
-9996 10008 0
-3751 -9996 10009 0
-9997 10009 0
-3751 -9997 10010 0
-9998 10010 0
-3751 -9998 10011 0
-9999 10011 0
-3751 -9999 10012 0
-10000 10012 0
-3751 -10000 10013 0
-10001 10013 0
-3751 -10001 10014 0
-10002 10014 0
-3751 -10002 10015 0
-10003 10015 0
-3751 -10003 10016 0
-10004 10016 0
-3751 -10004 0
-3751 10017 0
-10005 10017 0
-3751 -10005 10018 0
-10006 10018 0
-3751 -10006 10019 0
-10007 10019 0
-3751 -10007 10020 0
-10008 10020 0
-3751 -10008 10021 0
-10009 10021 0
-3751 -10009 10022 0
-10010 10022 0
-3751 -10010 10023 0
-10011 10023 0
-3751 -10011 10024 0
-10012 10024 0
-3751 -10012 10025 0
-10013 10025 0
-3751 -10013 10026 0
-10014 10026 0
-3751 -10014 10027 0
-10015 10027 0
-3751 -10015 10028 0
-10016 10028 0
-3751 -10016 0
-3751 10029 0
-10017 10029 0
-3751 -10017 10030 0
-10018 10030 0
-3751 -10018 10031 0
-10019 10031 0
-3751 -10019 10032 0
-10020 10032 0
-3751 -10020 10033 0
-10021 10033 0
-3751 -10021 10034 0
-10022 10034 0
-3751 -10022 10035 0
-10023 10035 0
-3751 -10023 10036 0
-10024 10036 0
-3751 -10024 10037 0
-10025 10037 0
-3751 -10025 10038 0
-10026 10038 0
-3751 -10026 10039 0
-10027 10039 0
-3751 -10027 10040 0
-10028 10040 0
-3751 -10028 0
-3752 10041 0
-10029 10041 0
-3752 -10029 10042 0
-10030 10042 0
-3752 -10030 10043 0
-10031 10043 0
-3752 -10031 10044 0
-10032 10044 0
-3752 -10032 10045 0
-10033 10045 0
-3752 -10033 10046 0
-10034 10046 0
-3752 -10034 10047 0
-10035 10047 0
-3752 -10035 10048 0
-10036 10048 0
-3752 -10036 10049 0
-10037 10049 0
-3752 -10037 10050 0
-10038 10050 0
-3752 -10038 10051 0
-10039 10051 0
-3752 -10039 10052 0
-10040 10052 0
-3752 -10040 0
-3752 10053 0
-10041 10053 0
-3752 -10041 10054 0
-10042 10054 0
-3752 -10042 10055 0
-10043 10055 0
-3752 -10043 10056 0
-10044 10056 0
-3752 -10044 10057 0
-10045 10057 0
-3752 -10045 10058 0
-10046 10058 0
-3752 -10046 10059 0
-10047 10059 0
-3752 -10047 10060 0
-10048 10060 0
-3752 -10048 10061 0
-10049 10061 0
-3752 -10049 10062 0
-10050 10062 0
-3752 -10050 10063 0
-10051 10063 0
-3752 -10051 10064 0
-10052 10064 0
-3752 -10052 0
-3762 10065 0
-10053 10065 0
-3762 -10053 10066 0
-10054 10066 0
-3762 -10054 10067 0
-10055 10067 0
-3762 -10055 10068 0
-10056 10068 0
-3762 -10056 10069 0
-10057 10069 0
-3762 -10057 10070 0
-10058 10070 0
-3762 -10058 10071 0
-10059 10071 0
-3762 -10059 10072 0
-10060 10072 0
-3762 -10060 10073 0
-10061 10073 0
-3762 -10061 10074 0
-10062 10074 0
-3762 -10062 10075 0
-10063 10075 0
-3762 -10063 10076 0
-10064 10076 0
-3762 -10064 0
-3762 10077 0
-10065 10077 0
-3762 -10065 10078 0
-10066 10078 0
-3762 -10066 10079 0
-10067 10079 0
-3762 -10067 10080 0
-10068 10080 0
-3762 -10068 10081 0
-10069 10081 0
-3762 -10069 10082 0
-10070 10082 0
-3762 -10070 10083 0
-10071 10083 0
-3762 -10071 10084 0
-10072 10084 0
-3762 -10072 10085 0
-10073 10085 0
-3762 -10073 10086 0
-10074 10086 0
-3762 -10074 10087 0
-10075 10087 0
-3762 -10075 10088 0
-10076 10088 0
-3762 -10076 0
-3762 10089 0
-10077 10089 0
-3762 -10077 10090 0
-10078 10090 0
-3762 -10078 10091 0
-10079 10091 0
-3762 -10079 10092 0
-10080 10092 0
-3762 -10080 10093 0
-10081 10093 0
-3762 -10081 10094 0
-10082 10094 0
-3762 -10082 10095 0
-10083 10095 0
-3762 -10083 10096 0
-10084 10096 0
-3762 -10084 10097 0
-10085 10097 0
-3762 -10085 10098 0
-10086 10098 0
-3762 -10086 10099 0
-10087 10099 0
-3762 -10087 10100 0
-10088 10100 0
-3762 -10088 0
-3763 10101 0
-10089 10101 0
-3763 -10089 10102 0
-10090 10102 0
-3763 -10090 10103 0
-10091 10103 0
-3763 -10091 10104 0
-10092 10104 0
-3763 -10092 10105 0
-10093 10105 0
-3763 -10093 10106 0
-10094 10106 0
-3763 -10094 10107 0
-10095 10107 0
-3763 -10095 10108 0
-10096 10108 0
-3763 -10096 10109 0
-10097 10109 0
-3763 -10097 10110 0
-10098 10110 0
-3763 -10098 10111 0
-10099 10111 0
-3763 -10099 10112 0
-10100 10112 0
-3763 -10100 0
-3763 10113 0
-10101 10113 0
-3763 -10101 10114 0
-10102 10114 0
-3763 -10102 10115 0
-10103 10115 0
-3763 -10103 10116 0
-10104 10116 0
-3763 -10104 10117 0
-10105 10117 0
-3763 -10105 10118 0
-10106 10118 0
-3763 -10106 10119 0
-10107 10119 0
-3763 -10107 10120 0
-10108 10120 0
-3763 -10108 10121 0
-10109 10121 0
-3763 -10109 10122 0
-10110 10122 0
-3763 -10110 10123 0
-10111 10123 0
-3763 -10111 10124 0
-10112 10124 0
-3763 -10112 0
-3773 10125 0
-10113 10125 0
-3773 -10113 10126 0
-10114 10126 0
-3773 -10114 10127 0
-10115 10127 0
-3773 -10115 10128 0
-10116 10128 0
-3773 -10116 10129 0
-10117 10129 0
-3773 -10117 10130 0
-10118 10130 0
-3773 -10118 10131 0
-10119 10131 0
-3773 -10119 10132 0
-10120 10132 0
-3773 -10120 10133 0
-10121 10133 0
-3773 -10121 10134 0
-10122 10134 0
-3773 -10122 10135 0
-10123 10135 0
-3773 -10123 10136 0
-10124 10136 0
-3773 -10124 0
-3773 10137 0
-10125 10137 0
-3773 -10125 10138 0
-10126 10138 0
-3773 -10126 10139 0
-10127 10139 0
-3773 -10127 10140 0
-10128 10140 0
-3773 -10128 10141 0
-10129 10141 0
-3773 -10129 10142 0
-10130 10142 0
-3773 -10130 10143 0
-10131 10143 0
-3773 -10131 10144 0
-10132 10144 0
-3773 -10132 10145 0
-10133 10145 0
-3773 -10133 10146 0
-10134 10146 0
-3773 -10134 10147 0
-10135 10147 0
-3773 -10135 10148 0
-10136 10148 0
-3773 -10136 0
-3773 10149 0
-10137 10149 0
-3773 -10137 10150 0
-10138 10150 0
-3773 -10138 10151 0
-10139 10151 0
-3773 -10139 10152 0
-10140 10152 0
-3773 -10140 10153 0
-10141 10153 0
-3773 -10141 10154 0
-10142 10154 0
-3773 -10142 10155 0
-10143 10155 0
-3773 -10143 10156 0
-10144 10156 0
-3773 -10144 10157 0
-10145 10157 0
-3773 -10145 10158 0
-10146 10158 0
-3773 -10146 10159 0
-10147 10159 0
-3773 -10147 10160 0
-10148 10160 0
-3773 -10148 0
-3774 10161 0
-10149 10161 0
-3774 -10149 10162 0
-10150 10162 0
-3774 -10150 10163 0
-10151 10163 0
-3774 -10151 10164 0
-10152 10164 0
-3774 -10152 10165 0
-10153 10165 0
-3774 -10153 10166 0
-10154 10166 0
-3774 -10154 10167 0
-10155 10167 0
-3774 -10155 10168 0
-10156 10168 0
-3774 -10156 10169 0
-10157 10169 0
-3774 -10157 10170 0
-10158 10170 0
-3774 -10158 10171 0
-10159 10171 0
-3774 -10159 10172 0
-10160 10172 0
-3774 -10160 0
-3774 10173 0
-10161 10173 0
-3774 -10161 10174 0
-10162 10174 0
-3774 -10162 10175 0
-10163 10175 0
-3774 -10163 10176 0
-10164 10176 0
-3774 -10164 10177 0
-10165 10177 0
-3774 -10165 10178 0
-10166 10178 0
-3774 -10166 10179 0
-10167 10179 0
-3774 -10167 10180 0
-10168 10180 0
-3774 -10168 10181 0
-10169 10181 0
-3774 -10169 10182 0
-10170 10182 0
-3774 -10170 10183 0
-10171 10183 0
-3774 -10171 10184 0
-10172 10184 0
-3774 -10172 0
-3784 10185 0
-10173 10185 0
-3784 -10173 10186 0
-10174 10186 0
-3784 -10174 10187 0
-10175 10187 0
-3784 -10175 10188 0
-10176 10188 0
-3784 -10176 10189 0
-10177 10189 0
-3784 -10177 10190 0
-10178 10190 0
-3784 -10178 10191 0
-10179 10191 0
-3784 -10179 10192 0
-10180 10192 0
-3784 -10180 10193 0
-10181 10193 0
-3784 -10181 10194 0
-10182 10194 0
-3784 -10182 10195 0
-10183 10195 0
-3784 -10183 10196 0
-10184 10196 0
-3784 -10184 0
-3784 10197 0
-10185 10197 0
-3784 -10185 10198 0
-10186 10198 0
-3784 -10186 10199 0
-10187 10199 0
-3784 -10187 10200 0
-10188 10200 0
-3784 -10188 10201 0
-10189 10201 0
-3784 -10189 10202 0
-10190 10202 0
-3784 -10190 10203 0
-10191 10203 0
-3784 -10191 10204 0
-10192 10204 0
-3784 -10192 10205 0
-10193 10205 0
-3784 -10193 10206 0
-10194 10206 0
-3784 -10194 10207 0
-10195 10207 0
-3784 -10195 10208 0
-10196 10208 0
-3784 -10196 0
-3784 10209 0
-10197 10209 0
-3784 -10197 10210 0
-10198 10210 0
-3784 -10198 10211 0
-10199 10211 0
-3784 -10199 10212 0
-10200 10212 0
-3784 -10200 10213 0
-10201 10213 0
-3784 -10201 10214 0
-10202 10214 0
-3784 -10202 10215 0
-10203 10215 0
-3784 -10203 10216 0
-10204 10216 0
-3784 -10204 10217 0
-10205 10217 0
-3784 -10205 10218 0
-10206 10218 0
-3784 -10206 10219 0
-10207 10219 0
-3784 -10207 10220 0
-10208 10220 0
-3784 -10208 0
-3785 10221 0
-10209 10221 0
-3785 -10209 10222 0
-10210 10222 0
-3785 -10210 10223 0
-10211 10223 0
-3785 -10211 10224 0
-10212 10224 0
-3785 -10212 10225 0
-10213 10225 0
-3785 -10213 10226 0
-10214 10226 0
-3785 -10214 10227 0
-10215 10227 0
-3785 -10215 10228 0
-10216 10228 0
-3785 -10216 10229 0
-10217 10229 0
-3785 -10217 10230 0
-10218 10230 0
-3785 -10218 10231 0
-10219 10231 0
-3785 -10219 10232 0
-10220 10232 0
-3785 -10220 0
-3785 10233 0
-10221 10233 0
-3785 -10221 10234 0
-10222 10234 0
-3785 -10222 10235 0
-10223 10235 0
-3785 -10223 10236 0
-10224 10236 0
-3785 -10224 10237 0
-10225 10237 0
-3785 -10225 10238 0
-10226 10238 0
-3785 -10226 10239 0
-10227 10239 0
-3785 -10227 10240 0
-10228 10240 0
-3785 -10228 10241 0
-10229 10241 0
-3785 -10229 10242 0
-10230 10242 0
-3785 -10230 10243 0
-10231 10243 0
-3785 -10231 10244 0
-10232 10244 0
-3785 -10232 0
-3795 10245 0
-10233 10245 0
-3795 -10233 10246 0
-10234 10246 0
-3795 -10234 10247 0
-10235 10247 0
-3795 -10235 10248 0
-10236 10248 0
-3795 -10236 10249 0
-10237 10249 0
-3795 -10237 10250 0
-10238 10250 0
-3795 -10238 10251 0
-10239 10251 0
-3795 -10239 10252 0
-10240 10252 0
-3795 -10240 10253 0
-10241 10253 0
-3795 -10241 10254 0
-10242 10254 0
-3795 -10242 10255 0
-10243 10255 0
-3795 -10243 10256 0
-10244 10256 0
-3795 -10244 0
-3795 10257 0
-10245 10257 0
-3795 -10245 10258 0
-10246 10258 0
-3795 -10246 10259 0
-10247 10259 0
-3795 -10247 10260 0
-10248 10260 0
-3795 -10248 10261 0
-10249 10261 0
-3795 -10249 10262 0
-10250 10262 0
-3795 -10250 10263 0
-10251 10263 0
-3795 -10251 10264 0
-10252 10264 0
-3795 -10252 10265 0
-10253 10265 0
-3795 -10253 10266 0
-10254 10266 0
-3795 -10254 10267 0
-10255 10267 0
-3795 -10255 10268 0
-10256 10268 0
-3795 -10256 0
-3795 10269 0
-10257 10269 0
-3795 -10257 10270 0
-10258 10270 0
-3795 -10258 10271 0
-10259 10271 0
-3795 -10259 10272 0
-10260 10272 0
-3795 -10260 10273 0
-10261 10273 0
-3795 -10261 10274 0
-10262 10274 0
-3795 -10262 10275 0
-10263 10275 0
-3795 -10263 10276 0
-10264 10276 0
-3795 -10264 10277 0
-10265 10277 0
-3795 -10265 10278 0
-10266 10278 0
-3795 -10266 10279 0
-10267 10279 0
-3795 -10267 10280 0
-10268 10280 0
-3795 -10268 0
-3796 10281 0
-10269 10281 0
-3796 -10269 10282 0
-10270 10282 0
-3796 -10270 10283 0
-10271 10283 0
-3796 -10271 10284 0
-10272 10284 0
-3796 -10272 10285 0
-10273 10285 0
-3796 -10273 10286 0
-10274 10286 0
-3796 -10274 10287 0
-10275 10287 0
-3796 -10275 10288 0
-10276 10288 0
-3796 -10276 10289 0
-10277 10289 0
-3796 -10277 10290 0
-10278 10290 0
-3796 -10278 10291 0
-10279 10291 0
-3796 -10279 10292 0
-10280 10292 0
-3796 -10280 0
-3796 10293 0
-10281 10293 0
-3796 -10281 10294 0
-10282 10294 0
-3796 -10282 10295 0
-10283 10295 0
-3796 -10283 10296 0
-10284 10296 0
-3796 -10284 10297 0
-10285 10297 0
-3796 -10285 10298 0
-10286 10298 0
-3796 -10286 10299 0
-10287 10299 0
-3796 -10287 10300 0
-10288 10300 0
-3796 -10288 10301 0
-10289 10301 0
-3796 -10289 10302 0
-10290 10302 0
-3796 -10290 10303 0
-10291 10303 0
-3796 -10291 10304 0
-10292 10304 0
-3796 -10292 0
-3806 10305 0
-10293 10305 0
-3806 -10293 10306 0
-10294 10306 0
-3806 -10294 10307 0
-10295 10307 0
-3806 -10295 10308 0
-10296 10308 0
-3806 -10296 10309 0
-10297 10309 0
-3806 -10297 10310 0
-10298 10310 0
-3806 -10298 10311 0
-10299 10311 0
-3806 -10299 10312 0
-10300 10312 0
-3806 -10300 10313 0
-10301 10313 0
-3806 -10301 10314 0
-10302 10314 0
-3806 -10302 10315 0
-10303 10315 0
-3806 -10303 10316 0
-10304 10316 0
-3806 -10304 0
-3806 10317 0
-10305 10317 0
-3806 -10305 10318 0
-10306 10318 0
-3806 -10306 10319 0
-10307 10319 0
-3806 -10307 10320 0
-10308 10320 0
-3806 -10308 10321 0
-10309 10321 0
-3806 -10309 10322 0
-10310 10322 0
-3806 -10310 10323 0
-10311 10323 0
-3806 -10311 10324 0
-10312 10324 0
-3806 -10312 10325 0
-10313 10325 0
-3806 -10313 10326 0
-10314 10326 0
-3806 -10314 10327 0
-10315 10327 0
-3806 -10315 10328 0
-10316 10328 0
-3806 -10316 0
-3806 10329 0
-10317 10329 0
-3806 -10317 10330 0
-10318 10330 0
-3806 -10318 10331 0
-10319 10331 0
-3806 -10319 10332 0
-10320 10332 0
-3806 -10320 10333 0
-10321 10333 0
-3806 -10321 10334 0
-10322 10334 0
-3806 -10322 10335 0
-10323 10335 0
-3806 -10323 10336 0
-10324 10336 0
-3806 -10324 10337 0
-10325 10337 0
-3806 -10325 10338 0
-10326 10338 0
-3806 -10326 10339 0
-10327 10339 0
-3806 -10327 10340 0
-10328 10340 0
-3806 -10328 0
-3807 10341 0
-10329 10341 0
-3807 -10329 10342 0
-10330 10342 0
-3807 -10330 10343 0
-10331 10343 0
-3807 -10331 10344 0
-10332 10344 0
-3807 -10332 10345 0
-10333 10345 0
-3807 -10333 10346 0
-10334 10346 0
-3807 -10334 10347 0
-10335 10347 0
-3807 -10335 10348 0
-10336 10348 0
-3807 -10336 10349 0
-10337 10349 0
-3807 -10337 10350 0
-10338 10350 0
-3807 -10338 10351 0
-10339 10351 0
-3807 -10339 10352 0
-10340 10352 0
-3807 -10340 0
-3807 10353 0
-10341 10353 0
-3807 -10341 10354 0
-10342 10354 0
-3807 -10342 10355 0
-10343 10355 0
-3807 -10343 10356 0
-10344 10356 0
-3807 -10344 10357 0
-10345 10357 0
-3807 -10345 10358 0
-10346 10358 0
-3807 -10346 10359 0
-10347 10359 0
-3807 -10347 10360 0
-10348 10360 0
-3807 -10348 10361 0
-10349 10361 0
-3807 -10349 10362 0
-10350 10362 0
-3807 -10350 10363 0
-10351 10363 0
-3807 -10351 10364 0
-10352 10364 0
-3807 -10352 0
-3817 10365 0
-10353 10365 0
-3817 -10353 10366 0
-10354 10366 0
-3817 -10354 10367 0
-10355 10367 0
-3817 -10355 10368 0
-10356 10368 0
-3817 -10356 10369 0
-10357 10369 0
-3817 -10357 10370 0
-10358 10370 0
-3817 -10358 10371 0
-10359 10371 0
-3817 -10359 10372 0
-10360 10372 0
-3817 -10360 10373 0
-10361 10373 0
-3817 -10361 10374 0
-10362 10374 0
-3817 -10362 10375 0
-10363 10375 0
-3817 -10363 10376 0
-10364 10376 0
-3817 -10364 0
-3817 10377 0
-10365 10377 0
-3817 -10365 10378 0
-10366 10378 0
-3817 -10366 10379 0
-10367 10379 0
-3817 -10367 10380 0
-10368 10380 0
-3817 -10368 10381 0
-10369 10381 0
-3817 -10369 10382 0
-10370 10382 0
-3817 -10370 10383 0
-10371 10383 0
-3817 -10371 10384 0
-10372 10384 0
-3817 -10372 10385 0
-10373 10385 0
-3817 -10373 10386 0
-10374 10386 0
-3817 -10374 10387 0
-10375 10387 0
-3817 -10375 10388 0
-10376 10388 0
-3817 -10376 0
-3817 10389 0
-10377 10389 0
-3817 -10377 10390 0
-10378 10390 0
-3817 -10378 10391 0
-10379 10391 0
-3817 -10379 10392 0
-10380 10392 0
-3817 -10380 10393 0
-10381 10393 0
-3817 -10381 10394 0
-10382 10394 0
-3817 -10382 10395 0
-10383 10395 0
-3817 -10383 10396 0
-10384 10396 0
-3817 -10384 10397 0
-10385 10397 0
-3817 -10385 10398 0
-10386 10398 0
-3817 -10386 10399 0
-10387 10399 0
-3817 -10387 10400 0
-10388 10400 0
-3817 -10388 0
-3818 10401 0
-10389 10401 0
-3818 -10389 10402 0
-10390 10402 0
-3818 -10390 10403 0
-10391 10403 0
-3818 -10391 10404 0
-10392 10404 0
-3818 -10392 10405 0
-10393 10405 0
-3818 -10393 10406 0
-10394 10406 0
-3818 -10394 10407 0
-10395 10407 0
-3818 -10395 10408 0
-10396 10408 0
-3818 -10396 10409 0
-10397 10409 0
-3818 -10397 10410 0
-10398 10410 0
-3818 -10398 10411 0
-10399 10411 0
-3818 -10399 10412 0
-10400 10412 0
-3818 -10400 0
-3818 10413 0
-10401 10413 0
-3818 -10401 10414 0
-10402 10414 0
-3818 -10402 10415 0
-10403 10415 0
-3818 -10403 10416 0
-10404 10416 0
-3818 -10404 10417 0
-10405 10417 0
-3818 -10405 10418 0
-10406 10418 0
-3818 -10406 10419 0
-10407 10419 0
-3818 -10407 10420 0
-10408 10420 0
-3818 -10408 10421 0
-10409 10421 0
-3818 -10409 10422 0
-10410 10422 0
-3818 -10410 10423 0
-10411 10423 0
-3818 -10411 10424 0
-10412 10424 0
-3818 -10412 0
-3828 10425 0
-10413 10425 0
-3828 -10413 10426 0
-10414 10426 0
-3828 -10414 10427 0
-10415 10427 0
-3828 -10415 10428 0
-10416 10428 0
-3828 -10416 10429 0
-10417 10429 0
-3828 -10417 10430 0
-10418 10430 0
-3828 -10418 10431 0
-10419 10431 0
-3828 -10419 10432 0
-10420 10432 0
-3828 -10420 10433 0
-10421 10433 0
-3828 -10421 10434 0
-10422 10434 0
-3828 -10422 10435 0
-10423 10435 0
-3828 -10423 10436 0
-10424 10436 0
-3828 -10424 0
-3828 10437 0
-10425 10437 0
-3828 -10425 10438 0
-10426 10438 0
-3828 -10426 10439 0
-10427 10439 0
-3828 -10427 10440 0
-10428 10440 0
-3828 -10428 10441 0
-10429 10441 0
-3828 -10429 10442 0
-10430 10442 0
-3828 -10430 10443 0
-10431 10443 0
-3828 -10431 10444 0
-10432 10444 0
-3828 -10432 10445 0
-10433 10445 0
-3828 -10433 10446 0
-10434 10446 0
-3828 -10434 10447 0
-10435 10447 0
-3828 -10435 10448 0
-10436 10448 0
-3828 -10436 0
-3828 10449 0
-10437 10449 0
-3828 -10437 10450 0
-10438 10450 0
-3828 -10438 10451 0
-10439 10451 0
-3828 -10439 10452 0
-10440 10452 0
-3828 -10440 10453 0
-10441 10453 0
-3828 -10441 10454 0
-10442 10454 0
-3828 -10442 10455 0
-10443 10455 0
-3828 -10443 10456 0
-10444 10456 0
-3828 -10444 10457 0
-10445 10457 0
-3828 -10445 10458 0
-10446 10458 0
-3828 -10446 10459 0
-10447 10459 0
-3828 -10447 10460 0
-10448 10460 0
-3828 -10448 0
-3829 10461 0
-10449 10461 0
-3829 -10449 10462 0
-10450 10462 0
-3829 -10450 10463 0
-10451 10463 0
-3829 -10451 10464 0
-10452 10464 0
-3829 -10452 10465 0
-10453 10465 0
-3829 -10453 10466 0
-10454 10466 0
-3829 -10454 10467 0
-10455 10467 0
-3829 -10455 10468 0
-10456 10468 0
-3829 -10456 10469 0
-10457 10469 0
-3829 -10457 10470 0
-10458 10470 0
-3829 -10458 10471 0
-10459 10471 0
-3829 -10459 10472 0
-10460 10472 0
-3829 -10460 0
-3829 10473 0
-10461 10473 0
-3829 -10461 10474 0
-10462 10474 0
-3829 -10462 10475 0
-10463 10475 0
-3829 -10463 10476 0
-10464 10476 0
-3829 -10464 10477 0
-10465 10477 0
-3829 -10465 10478 0
-10466 10478 0
-3829 -10466 10479 0
-10467 10479 0
-3829 -10467 10480 0
-10468 10480 0
-3829 -10468 10481 0
-10469 10481 0
-3829 -10469 10482 0
-10470 10482 0
-3829 -10470 10483 0
-10471 10483 0
-3829 -10471 10484 0
-10472 10484 0
-3829 -10472 0
-3839 10485 0
-10473 10485 0
-3839 -10473 10486 0
-10474 10486 0
-3839 -10474 10487 0
-10475 10487 0
-3839 -10475 10488 0
-10476 10488 0
-3839 -10476 10489 0
-10477 10489 0
-3839 -10477 10490 0
-10478 10490 0
-3839 -10478 10491 0
-10479 10491 0
-3839 -10479 10492 0
-10480 10492 0
-3839 -10480 10493 0
-10481 10493 0
-3839 -10481 10494 0
-10482 10494 0
-3839 -10482 10495 0
-10483 10495 0
-3839 -10483 10496 0
-10484 10496 0
-3839 -10484 0
-3839 10497 0
-10485 10497 0
-3839 -10485 10498 0
-10486 10498 0
-3839 -10486 10499 0
-10487 10499 0
-3839 -10487 10500 0
-10488 10500 0
-3839 -10488 10501 0
-10489 10501 0
-3839 -10489 10502 0
-10490 10502 0
-3839 -10490 10503 0
-10491 10503 0
-3839 -10491 10504 0
-10492 10504 0
-3839 -10492 10505 0
-10493 10505 0
-3839 -10493 10506 0
-10494 10506 0
-3839 -10494 10507 0
-10495 10507 0
-3839 -10495 10508 0
-10496 10508 0
-3839 -10496 0
-3839 10509 0
-10497 10509 0
-3839 -10497 10510 0
-10498 10510 0
-3839 -10498 10511 0
-10499 10511 0
-3839 -10499 10512 0
-10500 10512 0
-3839 -10500 10513 0
-10501 10513 0
-3839 -10501 10514 0
-10502 10514 0
-3839 -10502 10515 0
-10503 10515 0
-3839 -10503 10516 0
-10504 10516 0
-3839 -10504 10517 0
-10505 10517 0
-3839 -10505 10518 0
-10506 10518 0
-3839 -10506 10519 0
-10507 10519 0
-3839 -10507 10520 0
-10508 10520 0
-3839 -10508 0
-3840 10521 0
-10509 10521 0
-3840 -10509 10522 0
-10510 10522 0
-3840 -10510 10523 0
-10511 10523 0
-3840 -10511 10524 0
-10512 10524 0
-3840 -10512 10525 0
-10513 10525 0
-3840 -10513 10526 0
-10514 10526 0
-3840 -10514 10527 0
-10515 10527 0
-3840 -10515 10528 0
-10516 10528 0
-3840 -10516 10529 0
-10517 10529 0
-3840 -10517 10530 0
-10518 10530 0
-3840 -10518 10531 0
-10519 10531 0
-3840 -10519 10532 0
-10520 10532 0
-3840 -10520 0
-3840 10533 0
-10521 10533 0
-3840 -10521 10534 0
-10522 10534 0
-3840 -10522 10535 0
-10523 10535 0
-3840 -10523 10536 0
-10524 10536 0
-3840 -10524 10537 0
-10525 10537 0
-3840 -10525 10538 0
-10526 10538 0
-3840 -10526 10539 0
-10527 10539 0
-3840 -10527 10540 0
-10528 10540 0
-3840 -10528 10541 0
-10529 10541 0
-3840 -10529 10542 0
-10530 10542 0
-3840 -10530 10543 0
-10531 10543 0
-3840 -10531 10544 0
-10532 10544 0
-3840 -10532 0
-3850 10545 0
-10533 10545 0
-3850 -10533 10546 0
-10534 10546 0
-3850 -10534 10547 0
-10535 10547 0
-3850 -10535 10548 0
-10536 10548 0
-3850 -10536 10549 0
-10537 10549 0
-3850 -10537 10550 0
-10538 10550 0
-3850 -10538 10551 0
-10539 10551 0
-3850 -10539 10552 0
-10540 10552 0
-3850 -10540 10553 0
-10541 10553 0
-3850 -10541 10554 0
-10542 10554 0
-3850 -10542 10555 0
-10543 10555 0
-3850 -10543 10556 0
-10544 10556 0
-3850 -10544 0
-3850 10557 0
-10545 10557 0
-3850 -10545 10558 0
-10546 10558 0
-3850 -10546 10559 0
-10547 10559 0
-3850 -10547 10560 0
-10548 10560 0
-3850 -10548 10561 0
-10549 10561 0
-3850 -10549 10562 0
-10550 10562 0
-3850 -10550 10563 0
-10551 10563 0
-3850 -10551 10564 0
-10552 10564 0
-3850 -10552 10565 0
-10553 10565 0
-3850 -10553 10566 0
-10554 10566 0
-3850 -10554 10567 0
-10555 10567 0
-3850 -10555 10568 0
-10556 10568 0
-3850 -10556 0
-3850 10569 0
-10557 10569 0
-3850 -10557 10570 0
-10558 10570 0
-3850 -10558 10571 0
-10559 10571 0
-3850 -10559 10572 0
-10560 10572 0
-3850 -10560 10573 0
-10561 10573 0
-3850 -10561 10574 0
-10562 10574 0
-3850 -10562 10575 0
-10563 10575 0
-3850 -10563 10576 0
-10564 10576 0
-3850 -10564 10577 0
-10565 10577 0
-3850 -10565 10578 0
-10566 10578 0
-3850 -10566 10579 0
-10567 10579 0
-3850 -10567 10580 0
-10568 10580 0
-3850 -10568 0
-3851 10581 0
-10569 10581 0
-3851 -10569 10582 0
-10570 10582 0
-3851 -10570 10583 0
-10571 10583 0
-3851 -10571 10584 0
-10572 10584 0
-3851 -10572 10585 0
-10573 10585 0
-3851 -10573 10586 0
-10574 10586 0
-3851 -10574 10587 0
-10575 10587 0
-3851 -10575 10588 0
-10576 10588 0
-3851 -10576 10589 0
-10577 10589 0
-3851 -10577 10590 0
-10578 10590 0
-3851 -10578 10591 0
-10579 10591 0
-3851 -10579 10592 0
-10580 10592 0
-3851 -10580 0
-3851 10593 0
-10581 10593 0
-3851 -10581 10594 0
-10582 10594 0
-3851 -10582 10595 0
-10583 10595 0
-3851 -10583 10596 0
-10584 10596 0
-3851 -10584 10597 0
-10585 10597 0
-3851 -10585 10598 0
-10586 10598 0
-3851 -10586 10599 0
-10587 10599 0
-3851 -10587 10600 0
-10588 10600 0
-3851 -10588 10601 0
-10589 10601 0
-3851 -10589 10602 0
-10590 10602 0
-3851 -10590 10603 0
-10591 10603 0
-3851 -10591 10604 0
-10592 10604 0
-3851 -10592 0
-3861 10605 0
-10593 10605 0
-3861 -10593 10606 0
-10594 10606 0
-3861 -10594 10607 0
-10595 10607 0
-3861 -10595 10608 0
-10596 10608 0
-3861 -10596 10609 0
-10597 10609 0
-3861 -10597 10610 0
-10598 10610 0
-3861 -10598 10611 0
-10599 10611 0
-3861 -10599 10612 0
-10600 10612 0
-3861 -10600 10613 0
-10601 10613 0
-3861 -10601 10614 0
-10602 10614 0
-3861 -10602 10615 0
-10603 10615 0
-3861 -10603 10616 0
-10604 10616 0
-3861 -10604 0
-3861 10617 0
-10605 10617 0
-3861 -10605 10618 0
-10606 10618 0
-3861 -10606 10619 0
-10607 10619 0
-3861 -10607 10620 0
-10608 10620 0
-3861 -10608 10621 0
-10609 10621 0
-3861 -10609 10622 0
-10610 10622 0
-3861 -10610 10623 0
-10611 10623 0
-3861 -10611 10624 0
-10612 10624 0
-3861 -10612 10625 0
-10613 10625 0
-3861 -10613 10626 0
-10614 10626 0
-3861 -10614 10627 0
-10615 10627 0
-3861 -10615 10628 0
-10616 10628 0
-3861 -10616 0
-3861 10629 0
-10617 10629 0
-3861 -10617 10630 0
-10618 10630 0
-3861 -10618 10631 0
-10619 10631 0
-3861 -10619 10632 0
-10620 10632 0
-3861 -10620 10633 0
-10621 10633 0
-3861 -10621 10634 0
-10622 10634 0
-3861 -10622 10635 0
-10623 10635 0
-3861 -10623 10636 0
-10624 10636 0
-3861 -10624 10637 0
-10625 10637 0
-3861 -10625 10638 0
-10626 10638 0
-3861 -10626 10639 0
-10627 10639 0
-3861 -10627 10640 0
-10628 10640 0
-3861 -10628 0
-3862 10641 0
-10629 10641 0
-3862 -10629 10642 0
-10630 10642 0
-3862 -10630 10643 0
-10631 10643 0
-3862 -10631 10644 0
-10632 10644 0
-3862 -10632 10645 0
-10633 10645 0
-3862 -10633 10646 0
-10634 10646 0
-3862 -10634 10647 0
-10635 10647 0
-3862 -10635 10648 0
-10636 10648 0
-3862 -10636 10649 0
-10637 10649 0
-3862 -10637 10650 0
-10638 10650 0
-3862 -10638 10651 0
-10639 10651 0
-3862 -10639 10652 0
-10640 10652 0
-3862 -10640 0
-3862 10653 0
-10641 10653 0
-3862 -10641 10654 0
-10642 10654 0
-3862 -10642 10655 0
-10643 10655 0
-3862 -10643 10656 0
-10644 10656 0
-3862 -10644 10657 0
-10645 10657 0
-3862 -10645 10658 0
-10646 10658 0
-3862 -10646 10659 0
-10647 10659 0
-3862 -10647 10660 0
-10648 10660 0
-3862 -10648 10661 0
-10649 10661 0
-3862 -10649 10662 0
-10650 10662 0
-3862 -10650 10663 0
-10651 10663 0
-3862 -10651 10664 0
-10652 10664 0
-3862 -10652 0
-3872 10665 0
-10653 10665 0
-3872 -10653 10666 0
-10654 10666 0
-3872 -10654 10667 0
-10655 10667 0
-3872 -10655 10668 0
-10656 10668 0
-3872 -10656 10669 0
-10657 10669 0
-3872 -10657 10670 0
-10658 10670 0
-3872 -10658 10671 0
-10659 10671 0
-3872 -10659 10672 0
-10660 10672 0
-3872 -10660 10673 0
-10661 10673 0
-3872 -10661 10674 0
-10662 10674 0
-3872 -10662 10675 0
-10663 10675 0
-3872 -10663 10676 0
-10664 10676 0
-3872 -10664 0
-3872 10677 0
-10665 10677 0
-3872 -10665 10678 0
-10666 10678 0
-3872 -10666 10679 0
-10667 10679 0
-3872 -10667 10680 0
-10668 10680 0
-3872 -10668 10681 0
-10669 10681 0
-3872 -10669 10682 0
-10670 10682 0
-3872 -10670 10683 0
-10671 10683 0
-3872 -10671 10684 0
-10672 10684 0
-3872 -10672 10685 0
-10673 10685 0
-3872 -10673 10686 0
-10674 10686 0
-3872 -10674 10687 0
-10675 10687 0
-3872 -10675 10688 0
-10676 10688 0
-3872 -10676 0
-3872 10689 0
-10677 10689 0
-3872 -10677 10690 0
-10678 10690 0
-3872 -10678 10691 0
-10679 10691 0
-3872 -10679 10692 0
-10680 10692 0
-3872 -10680 10693 0
-10681 10693 0
-3872 -10681 10694 0
-10682 10694 0
-3872 -10682 10695 0
-10683 10695 0
-3872 -10683 10696 0
-10684 10696 0
-3872 -10684 10697 0
-10685 10697 0
-3872 -10685 10698 0
-10686 10698 0
-3872 -10686 10699 0
-10687 10699 0
-3872 -10687 10700 0
-10688 10700 0
-3872 -10688 0
-3873 10701 0
-10689 10701 0
-3873 -10689 10702 0
-10690 10702 0
-3873 -10690 10703 0
-10691 10703 0
-3873 -10691 10704 0
-10692 10704 0
-3873 -10692 10705 0
-10693 10705 0
-3873 -10693 10706 0
-10694 10706 0
-3873 -10694 10707 0
-10695 10707 0
-3873 -10695 10708 0
-10696 10708 0
-3873 -10696 10709 0
-10697 10709 0
-3873 -10697 10710 0
-10698 10710 0
-3873 -10698 10711 0
-10699 10711 0
-3873 -10699 10712 0
-10700 10712 0
-3873 -10700 0
-3873 10713 0
-10701 10713 0
-3873 -10701 10714 0
-10702 10714 0
-3873 -10702 10715 0
-10703 10715 0
-3873 -10703 10716 0
-10704 10716 0
-3873 -10704 10717 0
-10705 10717 0
-3873 -10705 10718 0
-10706 10718 0
-3873 -10706 10719 0
-10707 10719 0
-3873 -10707 10720 0
-10708 10720 0
-3873 -10708 10721 0
-10709 10721 0
-3873 -10709 10722 0
-10710 10722 0
-3873 -10710 10723 0
-10711 10723 0
-3873 -10711 10724 0
-10712 10724 0
-3873 -10712 0
-5517 10725 0
-10713 10725 0
-5517 -10713 10726 0
-10714 10726 0
-5517 -10714 10727 0
-10715 10727 0
-5517 -10715 10728 0
-10716 10728 0
-5517 -10716 10729 0
-10717 10729 0
-5517 -10717 10730 0
-10718 10730 0
-5517 -10718 10731 0
-10719 10731 0
-5517 -10719 10732 0
-10720 10732 0
-5517 -10720 10733 0
-10721 10733 0
-5517 -10721 10734 0
-10722 10734 0
-5517 -10722 10735 0
-10723 10735 0
-5517 -10723 10736 0
-10724 10736 0
-5517 -10724 0
-5517 10737 0
-10725 10737 0
-5517 -10725 10738 0
-10726 10738 0
-5517 -10726 10739 0
-10727 10739 0
-5517 -10727 10740 0
-10728 10740 0
-5517 -10728 10741 0
-10729 10741 0
-5517 -10729 10742 0
-10730 10742 0
-5517 -10730 10743 0
-10731 10743 0
-5517 -10731 10744 0
-10732 10744 0
-5517 -10732 10745 0
-10733 10745 0
-5517 -10733 10746 0
-10734 10746 0
-5517 -10734 10747 0
-10735 10747 0
-5517 -10735 10748 0
-10736 10748 0
-5517 -10736 0
-5517 10749 0
-10737 10749 0
-5517 -10737 10750 0
-10738 10750 0
-5517 -10738 10751 0
-10739 10751 0
-5517 -10739 10752 0
-10740 10752 0
-5517 -10740 10753 0
-10741 10753 0
-5517 -10741 10754 0
-10742 10754 0
-5517 -10742 10755 0
-10743 10755 0
-5517 -10743 10756 0
-10744 10756 0
-5517 -10744 10757 0
-10745 10757 0
-5517 -10745 10758 0
-10746 10758 0
-5517 -10746 10759 0
-10747 10759 0
-5517 -10747 10760 0
-10748 10760 0
-5517 -10748 0
-5518 10761 0
-10749 10761 0
-5518 -10749 10762 0
-10750 10762 0
-5518 -10750 10763 0
-10751 10763 0
-5518 -10751 10764 0
-10752 10764 0
-5518 -10752 10765 0
-10753 10765 0
-5518 -10753 10766 0
-10754 10766 0
-5518 -10754 10767 0
-10755 10767 0
-5518 -10755 10768 0
-10756 10768 0
-5518 -10756 10769 0
-10757 10769 0
-5518 -10757 10770 0
-10758 10770 0
-5518 -10758 10771 0
-10759 10771 0
-5518 -10759 10772 0
-10760 10772 0
-5518 -10760 0
-5518 10773 0
-10761 10773 0
-5518 -10761 10774 0
-10762 10774 0
-5518 -10762 10775 0
-10763 10775 0
-5518 -10763 10776 0
-10764 10776 0
-5518 -10764 10777 0
-10765 10777 0
-5518 -10765 10778 0
-10766 10778 0
-5518 -10766 10779 0
-10767 10779 0
-5518 -10767 10780 0
-10768 10780 0
-5518 -10768 10781 0
-10769 10781 0
-5518 -10769 10782 0
-10770 10782 0
-5518 -10770 10783 0
-10771 10783 0
-5518 -10771 10784 0
-10772 10784 0
-5518 -10772 0
-5528 10785 0
-10773 10785 0
-5528 -10773 10786 0
-10774 10786 0
-5528 -10774 10787 0
-10775 10787 0
-5528 -10775 10788 0
-10776 10788 0
-5528 -10776 10789 0
-10777 10789 0
-5528 -10777 10790 0
-10778 10790 0
-5528 -10778 10791 0
-10779 10791 0
-5528 -10779 10792 0
-10780 10792 0
-5528 -10780 10793 0
-10781 10793 0
-5528 -10781 10794 0
-10782 10794 0
-5528 -10782 10795 0
-10783 10795 0
-5528 -10783 10796 0
-10784 10796 0
-5528 -10784 0
-5528 10797 0
-10785 10797 0
-5528 -10785 10798 0
-10786 10798 0
-5528 -10786 10799 0
-10787 10799 0
-5528 -10787 10800 0
-10788 10800 0
-5528 -10788 10801 0
-10789 10801 0
-5528 -10789 10802 0
-10790 10802 0
-5528 -10790 10803 0
-10791 10803 0
-5528 -10791 10804 0
-10792 10804 0
-5528 -10792 10805 0
-10793 10805 0
-5528 -10793 10806 0
-10794 10806 0
-5528 -10794 10807 0
-10795 10807 0
-5528 -10795 10808 0
-10796 10808 0
-5528 -10796 0
-5528 10809 0
-10797 10809 0
-5528 -10797 10810 0
-10798 10810 0
-5528 -10798 10811 0
-10799 10811 0
-5528 -10799 10812 0
-10800 10812 0
-5528 -10800 10813 0
-10801 10813 0
-5528 -10801 10814 0
-10802 10814 0
-5528 -10802 10815 0
-10803 10815 0
-5528 -10803 10816 0
-10804 10816 0
-5528 -10804 10817 0
-10805 10817 0
-5528 -10805 10818 0
-10806 10818 0
-5528 -10806 10819 0
-10807 10819 0
-5528 -10807 10820 0
-10808 10820 0
-5528 -10808 0
-5529 10821 0
-10809 10821 0
-5529 -10809 10822 0
-10810 10822 0
-5529 -10810 10823 0
-10811 10823 0
-5529 -10811 10824 0
-10812 10824 0
-5529 -10812 10825 0
-10813 10825 0
-5529 -10813 10826 0
-10814 10826 0
-5529 -10814 10827 0
-10815 10827 0
-5529 -10815 10828 0
-10816 10828 0
-5529 -10816 10829 0
-10817 10829 0
-5529 -10817 10830 0
-10818 10830 0
-5529 -10818 10831 0
-10819 10831 0
-5529 -10819 10832 0
-10820 10832 0
-5529 -10820 0
-5529 10833 0
-10821 10833 0
-5529 -10821 10834 0
-10822 10834 0
-5529 -10822 10835 0
-10823 10835 0
-5529 -10823 10836 0
-10824 10836 0
-5529 -10824 10837 0
-10825 10837 0
-5529 -10825 10838 0
-10826 10838 0
-5529 -10826 10839 0
-10827 10839 0
-5529 -10827 10840 0
-10828 10840 0
-5529 -10828 10841 0
-10829 10841 0
-5529 -10829 10842 0
-10830 10842 0
-5529 -10830 10843 0
-10831 10843 0
-5529 -10831 10844 0
-10832 10844 0
-5529 -10832 0
-5539 10845 0
-10833 10845 0
-5539 -10833 10846 0
-10834 10846 0
-5539 -10834 10847 0
-10835 10847 0
-5539 -10835 10848 0
-10836 10848 0
-5539 -10836 10849 0
-10837 10849 0
-5539 -10837 10850 0
-10838 10850 0
-5539 -10838 10851 0
-10839 10851 0
-5539 -10839 10852 0
-10840 10852 0
-5539 -10840 10853 0
-10841 10853 0
-5539 -10841 10854 0
-10842 10854 0
-5539 -10842 10855 0
-10843 10855 0
-5539 -10843 10856 0
-10844 10856 0
-5539 -10844 0
-5539 10857 0
-10845 10857 0
-5539 -10845 10858 0
-10846 10858 0
-5539 -10846 10859 0
-10847 10859 0
-5539 -10847 10860 0
-10848 10860 0
-5539 -10848 10861 0
-10849 10861 0
-5539 -10849 10862 0
-10850 10862 0
-5539 -10850 10863 0
-10851 10863 0
-5539 -10851 10864 0
-10852 10864 0
-5539 -10852 10865 0
-10853 10865 0
-5539 -10853 10866 0
-10854 10866 0
-5539 -10854 10867 0
-10855 10867 0
-5539 -10855 10868 0
-10856 10868 0
-5539 -10856 0
-5539 10869 0
-10857 10869 0
-5539 -10857 10870 0
-10858 10870 0
-5539 -10858 10871 0
-10859 10871 0
-5539 -10859 10872 0
-10860 10872 0
-5539 -10860 10873 0
-10861 10873 0
-5539 -10861 10874 0
-10862 10874 0
-5539 -10862 10875 0
-10863 10875 0
-5539 -10863 10876 0
-10864 10876 0
-5539 -10864 10877 0
-10865 10877 0
-5539 -10865 10878 0
-10866 10878 0
-5539 -10866 10879 0
-10867 10879 0
-5539 -10867 10880 0
-10868 10880 0
-5539 -10868 0
-5540 10881 0
-10869 10881 0
-5540 -10869 10882 0
-10870 10882 0
-5540 -10870 10883 0
-10871 10883 0
-5540 -10871 10884 0
-10872 10884 0
-5540 -10872 10885 0
-10873 10885 0
-5540 -10873 10886 0
-10874 10886 0
-5540 -10874 10887 0
-10875 10887 0
-5540 -10875 10888 0
-10876 10888 0
-5540 -10876 10889 0
-10877 10889 0
-5540 -10877 10890 0
-10878 10890 0
-5540 -10878 10891 0
-10879 10891 0
-5540 -10879 10892 0
-10880 10892 0
-5540 -10880 0
-5540 10893 0
-10881 10893 0
-5540 -10881 10894 0
-10882 10894 0
-5540 -10882 10895 0
-10883 10895 0
-5540 -10883 10896 0
-10884 10896 0
-5540 -10884 10897 0
-10885 10897 0
-5540 -10885 10898 0
-10886 10898 0
-5540 -10886 10899 0
-10887 10899 0
-5540 -10887 10900 0
-10888 10900 0
-5540 -10888 10901 0
-10889 10901 0
-5540 -10889 10902 0
-10890 10902 0
-5540 -10890 10903 0
-10891 10903 0
-5540 -10891 10904 0
-10892 10904 0
-5540 -10892 0
-5550 10905 0
-10893 10905 0
-5550 -10893 10906 0
-10894 10906 0
-5550 -10894 10907 0
-10895 10907 0
-5550 -10895 10908 0
-10896 10908 0
-5550 -10896 10909 0
-10897 10909 0
-5550 -10897 10910 0
-10898 10910 0
-5550 -10898 10911 0
-10899 10911 0
-5550 -10899 10912 0
-10900 10912 0
-5550 -10900 10913 0
-10901 10913 0
-5550 -10901 10914 0
-10902 10914 0
-5550 -10902 10915 0
-10903 10915 0
-5550 -10903 10916 0
-10904 10916 0
-5550 -10904 0
-5550 10917 0
-10905 10917 0
-5550 -10905 10918 0
-10906 10918 0
-5550 -10906 10919 0
-10907 10919 0
-5550 -10907 10920 0
-10908 10920 0
-5550 -10908 10921 0
-10909 10921 0
-5550 -10909 10922 0
-10910 10922 0
-5550 -10910 10923 0
-10911 10923 0
-5550 -10911 10924 0
-10912 10924 0
-5550 -10912 10925 0
-10913 10925 0
-5550 -10913 10926 0
-10914 10926 0
-5550 -10914 10927 0
-10915 10927 0
-5550 -10915 10928 0
-10916 10928 0
-5550 -10916 0
-5550 10929 0
-10917 10929 0
-5550 -10917 10930 0
-10918 10930 0
-5550 -10918 10931 0
-10919 10931 0
-5550 -10919 10932 0
-10920 10932 0
-5550 -10920 10933 0
-10921 10933 0
-5550 -10921 10934 0
-10922 10934 0
-5550 -10922 10935 0
-10923 10935 0
-5550 -10923 10936 0
-10924 10936 0
-5550 -10924 10937 0
-10925 10937 0
-5550 -10925 10938 0
-10926 10938 0
-5550 -10926 10939 0
-10927 10939 0
-5550 -10927 10940 0
-10928 10940 0
-5550 -10928 0
-5551 10941 0
-10929 10941 0
-5551 -10929 10942 0
-10930 10942 0
-5551 -10930 10943 0
-10931 10943 0
-5551 -10931 10944 0
-10932 10944 0
-5551 -10932 10945 0
-10933 10945 0
-5551 -10933 10946 0
-10934 10946 0
-5551 -10934 10947 0
-10935 10947 0
-5551 -10935 10948 0
-10936 10948 0
-5551 -10936 10949 0
-10937 10949 0
-5551 -10937 10950 0
-10938 10950 0
-5551 -10938 10951 0
-10939 10951 0
-5551 -10939 10952 0
-10940 10952 0
-5551 -10940 0
-5551 10953 0
-10941 10953 0
-5551 -10941 10954 0
-10942 10954 0
-5551 -10942 10955 0
-10943 10955 0
-5551 -10943 10956 0
-10944 10956 0
-5551 -10944 10957 0
-10945 10957 0
-5551 -10945 10958 0
-10946 10958 0
-5551 -10946 10959 0
-10947 10959 0
-5551 -10947 10960 0
-10948 10960 0
-5551 -10948 10961 0
-10949 10961 0
-5551 -10949 10962 0
-10950 10962 0
-5551 -10950 10963 0
-10951 10963 0
-5551 -10951 10964 0
-10952 10964 0
-5551 -10952 0
-5561 10965 0
-10953 10965 0
-5561 -10953 10966 0
-10954 10966 0
-5561 -10954 10967 0
-10955 10967 0
-5561 -10955 10968 0
-10956 10968 0
-5561 -10956 10969 0
-10957 10969 0
-5561 -10957 10970 0
-10958 10970 0
-5561 -10958 10971 0
-10959 10971 0
-5561 -10959 10972 0
-10960 10972 0
-5561 -10960 10973 0
-10961 10973 0
-5561 -10961 10974 0
-10962 10974 0
-5561 -10962 10975 0
-10963 10975 0
-5561 -10963 10976 0
-10964 10976 0
-5561 -10964 0
-5561 10977 0
-10965 10977 0
-5561 -10965 10978 0
-10966 10978 0
-5561 -10966 10979 0
-10967 10979 0
-5561 -10967 10980 0
-10968 10980 0
-5561 -10968 10981 0
-10969 10981 0
-5561 -10969 10982 0
-10970 10982 0
-5561 -10970 10983 0
-10971 10983 0
-5561 -10971 10984 0
-10972 10984 0
-5561 -10972 10985 0
-10973 10985 0
-5561 -10973 10986 0
-10974 10986 0
-5561 -10974 10987 0
-10975 10987 0
-5561 -10975 10988 0
-10976 10988 0
-5561 -10976 0
-5561 10989 0
-10977 10989 0
-5561 -10977 10990 0
-10978 10990 0
-5561 -10978 10991 0
-10979 10991 0
-5561 -10979 10992 0
-10980 10992 0
-5561 -10980 10993 0
-10981 10993 0
-5561 -10981 10994 0
-10982 10994 0
-5561 -10982 10995 0
-10983 10995 0
-5561 -10983 10996 0
-10984 10996 0
-5561 -10984 10997 0
-10985 10997 0
-5561 -10985 10998 0
-10986 10998 0
-5561 -10986 10999 0
-10987 10999 0
-5561 -10987 11000 0
-10988 11000 0
-5561 -10988 0
-5562 11001 0
-10989 11001 0
-5562 -10989 11002 0
-10990 11002 0
-5562 -10990 11003 0
-10991 11003 0
-5562 -10991 11004 0
-10992 11004 0
-5562 -10992 11005 0
-10993 11005 0
-5562 -10993 11006 0
-10994 11006 0
-5562 -10994 11007 0
-10995 11007 0
-5562 -10995 11008 0
-10996 11008 0
-5562 -10996 11009 0
-10997 11009 0
-5562 -10997 11010 0
-10998 11010 0
-5562 -10998 11011 0
-10999 11011 0
-5562 -10999 11012 0
-11000 11012 0
-5562 -11000 0
-5562 11013 0
-11001 11013 0
-5562 -11001 11014 0
-11002 11014 0
-5562 -11002 11015 0
-11003 11015 0
-5562 -11003 11016 0
-11004 11016 0
-5562 -11004 11017 0
-11005 11017 0
-5562 -11005 11018 0
-11006 11018 0
-5562 -11006 11019 0
-11007 11019 0
-5562 -11007 11020 0
-11008 11020 0
-5562 -11008 11021 0
-11009 11021 0
-5562 -11009 11022 0
-11010 11022 0
-5562 -11010 11023 0
-11011 11023 0
-5562 -11011 11024 0
-11012 11024 0
-5562 -11012 0
-5572 11025 0
-11013 11025 0
-5572 -11013 11026 0
-11014 11026 0
-5572 -11014 11027 0
-11015 11027 0
-5572 -11015 11028 0
-11016 11028 0
-5572 -11016 11029 0
-11017 11029 0
-5572 -11017 11030 0
-11018 11030 0
-5572 -11018 11031 0
-11019 11031 0
-5572 -11019 11032 0
-11020 11032 0
-5572 -11020 11033 0
-11021 11033 0
-5572 -11021 11034 0
-11022 11034 0
-5572 -11022 11035 0
-11023 11035 0
-5572 -11023 11036 0
-11024 11036 0
-5572 -11024 0
-5572 11037 0
-11025 11037 0
-5572 -11025 11038 0
-11026 11038 0
-5572 -11026 11039 0
-11027 11039 0
-5572 -11027 11040 0
-11028 11040 0
-5572 -11028 11041 0
-11029 11041 0
-5572 -11029 11042 0
-11030 11042 0
-5572 -11030 11043 0
-11031 11043 0
-5572 -11031 11044 0
-11032 11044 0
-5572 -11032 11045 0
-11033 11045 0
-5572 -11033 11046 0
-11034 11046 0
-5572 -11034 11047 0
-11035 11047 0
-5572 -11035 11048 0
-11036 11048 0
-5572 -11036 0
-5572 11049 0
-11037 11049 0
-5572 -11037 11050 0
-11038 11050 0
-5572 -11038 11051 0
-11039 11051 0
-5572 -11039 11052 0
-11040 11052 0
-5572 -11040 11053 0
-11041 11053 0
-5572 -11041 11054 0
-11042 11054 0
-5572 -11042 11055 0
-11043 11055 0
-5572 -11043 11056 0
-11044 11056 0
-5572 -11044 11057 0
-11045 11057 0
-5572 -11045 11058 0
-11046 11058 0
-5572 -11046 11059 0
-11047 11059 0
-5572 -11047 11060 0
-11048 11060 0
-5572 -11048 0
-5573 11061 0
-11049 11061 0
-5573 -11049 11062 0
-11050 11062 0
-5573 -11050 11063 0
-11051 11063 0
-5573 -11051 11064 0
-11052 11064 0
-5573 -11052 11065 0
-11053 11065 0
-5573 -11053 11066 0
-11054 11066 0
-5573 -11054 11067 0
-11055 11067 0
-5573 -11055 11068 0
-11056 11068 0
-5573 -11056 11069 0
-11057 11069 0
-5573 -11057 11070 0
-11058 11070 0
-5573 -11058 11071 0
-11059 11071 0
-5573 -11059 11072 0
-11060 11072 0
-5573 -11060 0
-5573 11073 0
-11061 11073 0
-5573 -11061 11074 0
-11062 11074 0
-5573 -11062 11075 0
-11063 11075 0
-5573 -11063 11076 0
-11064 11076 0
-5573 -11064 11077 0
-11065 11077 0
-5573 -11065 11078 0
-11066 11078 0
-5573 -11066 11079 0
-11067 11079 0
-5573 -11067 11080 0
-11068 11080 0
-5573 -11068 11081 0
-11069 11081 0
-5573 -11069 11082 0
-11070 11082 0
-5573 -11070 11083 0
-11071 11083 0
-5573 -11071 11084 0
-11072 11084 0
-5573 -11072 0
-5583 11085 0
-11073 11085 0
-5583 -11073 11086 0
-11074 11086 0
-5583 -11074 11087 0
-11075 11087 0
-5583 -11075 11088 0
-11076 11088 0
-5583 -11076 11089 0
-11077 11089 0
-5583 -11077 11090 0
-11078 11090 0
-5583 -11078 11091 0
-11079 11091 0
-5583 -11079 11092 0
-11080 11092 0
-5583 -11080 11093 0
-11081 11093 0
-5583 -11081 11094 0
-11082 11094 0
-5583 -11082 11095 0
-11083 11095 0
-5583 -11083 11096 0
-11084 11096 0
-5583 -11084 0
-5583 11097 0
-11085 11097 0
-5583 -11085 11098 0
-11086 11098 0
-5583 -11086 11099 0
-11087 11099 0
-5583 -11087 11100 0
-11088 11100 0
-5583 -11088 11101 0
-11089 11101 0
-5583 -11089 11102 0
-11090 11102 0
-5583 -11090 11103 0
-11091 11103 0
-5583 -11091 11104 0
-11092 11104 0
-5583 -11092 11105 0
-11093 11105 0
-5583 -11093 11106 0
-11094 11106 0
-5583 -11094 11107 0
-11095 11107 0
-5583 -11095 11108 0
-11096 11108 0
-5583 -11096 0
-5583 11109 0
-11097 11109 0
-5583 -11097 11110 0
-11098 11110 0
-5583 -11098 11111 0
-11099 11111 0
-5583 -11099 11112 0
-11100 11112 0
-5583 -11100 11113 0
-11101 11113 0
-5583 -11101 11114 0
-11102 11114 0
-5583 -11102 11115 0
-11103 11115 0
-5583 -11103 11116 0
-11104 11116 0
-5583 -11104 11117 0
-11105 11117 0
-5583 -11105 11118 0
-11106 11118 0
-5583 -11106 11119 0
-11107 11119 0
-5583 -11107 11120 0
-11108 11120 0
-5583 -11108 0
-5584 11121 0
-11109 11121 0
-5584 -11109 11122 0
-11110 11122 0
-5584 -11110 11123 0
-11111 11123 0
-5584 -11111 11124 0
-11112 11124 0
-5584 -11112 11125 0
-11113 11125 0
-5584 -11113 11126 0
-11114 11126 0
-5584 -11114 11127 0
-11115 11127 0
-5584 -11115 11128 0
-11116 11128 0
-5584 -11116 11129 0
-11117 11129 0
-5584 -11117 11130 0
-11118 11130 0
-5584 -11118 11131 0
-11119 11131 0
-5584 -11119 11132 0
-11120 11132 0
-5584 -11120 0
-5584 11133 0
-11121 11133 0
-5584 -11121 11134 0
-11122 11134 0
-5584 -11122 11135 0
-11123 11135 0
-5584 -11123 11136 0
-11124 11136 0
-5584 -11124 11137 0
-11125 11137 0
-5584 -11125 11138 0
-11126 11138 0
-5584 -11126 11139 0
-11127 11139 0
-5584 -11127 11140 0
-11128 11140 0
-5584 -11128 11141 0
-11129 11141 0
-5584 -11129 11142 0
-11130 11142 0
-5584 -11130 11143 0
-11131 11143 0
-5584 -11131 11144 0
-11132 11144 0
-5584 -11132 0
-5594 11145 0
-11133 11145 0
-5594 -11133 11146 0
-11134 11146 0
-5594 -11134 11147 0
-11135 11147 0
-5594 -11135 11148 0
-11136 11148 0
-5594 -11136 11149 0
-11137 11149 0
-5594 -11137 11150 0
-11138 11150 0
-5594 -11138 11151 0
-11139 11151 0
-5594 -11139 11152 0
-11140 11152 0
-5594 -11140 11153 0
-11141 11153 0
-5594 -11141 11154 0
-11142 11154 0
-5594 -11142 11155 0
-11143 11155 0
-5594 -11143 11156 0
-11144 11156 0
-5594 -11144 0
-5594 11157 0
-11145 11157 0
-5594 -11145 11158 0
-11146 11158 0
-5594 -11146 11159 0
-11147 11159 0
-5594 -11147 11160 0
-11148 11160 0
-5594 -11148 11161 0
-11149 11161 0
-5594 -11149 11162 0
-11150 11162 0
-5594 -11150 11163 0
-11151 11163 0
-5594 -11151 11164 0
-11152 11164 0
-5594 -11152 11165 0
-11153 11165 0
-5594 -11153 11166 0
-11154 11166 0
-5594 -11154 11167 0
-11155 11167 0
-5594 -11155 11168 0
-11156 11168 0
-5594 -11156 0
-5594 11169 0
-11157 11169 0
-5594 -11157 11170 0
-11158 11170 0
-5594 -11158 11171 0
-11159 11171 0
-5594 -11159 11172 0
-11160 11172 0
-5594 -11160 11173 0
-11161 11173 0
-5594 -11161 11174 0
-11162 11174 0
-5594 -11162 11175 0
-11163 11175 0
-5594 -11163 11176 0
-11164 11176 0
-5594 -11164 11177 0
-11165 11177 0
-5594 -11165 11178 0
-11166 11178 0
-5594 -11166 11179 0
-11167 11179 0
-5594 -11167 11180 0
-11168 11180 0
-5594 -11168 0
-5595 11181 0
-11169 11181 0
-5595 -11169 11182 0
-11170 11182 0
-5595 -11170 11183 0
-11171 11183 0
-5595 -11171 11184 0
-11172 11184 0
-5595 -11172 11185 0
-11173 11185 0
-5595 -11173 11186 0
-11174 11186 0
-5595 -11174 11187 0
-11175 11187 0
-5595 -11175 11188 0
-11176 11188 0
-5595 -11176 11189 0
-11177 11189 0
-5595 -11177 11190 0
-11178 11190 0
-5595 -11178 11191 0
-11179 11191 0
-5595 -11179 11192 0
-11180 11192 0
-5595 -11180 0
-5595 11193 0
-11181 11193 0
-5595 -11181 11194 0
-11182 11194 0
-5595 -11182 11195 0
-11183 11195 0
-5595 -11183 11196 0
-11184 11196 0
-5595 -11184 11197 0
-11185 11197 0
-5595 -11185 11198 0
-11186 11198 0
-5595 -11186 11199 0
-11187 11199 0
-5595 -11187 11200 0
-11188 11200 0
-5595 -11188 11201 0
-11189 11201 0
-5595 -11189 11202 0
-11190 11202 0
-5595 -11190 11203 0
-11191 11203 0
-5595 -11191 11204 0
-11192 11204 0
-5595 -11192 0
-5605 11205 0
-11193 11205 0
-5605 -11193 11206 0
-11194 11206 0
-5605 -11194 11207 0
-11195 11207 0
-5605 -11195 11208 0
-11196 11208 0
-5605 -11196 11209 0
-11197 11209 0
-5605 -11197 11210 0
-11198 11210 0
-5605 -11198 11211 0
-11199 11211 0
-5605 -11199 11212 0
-11200 11212 0
-5605 -11200 11213 0
-11201 11213 0
-5605 -11201 11214 0
-11202 11214 0
-5605 -11202 11215 0
-11203 11215 0
-5605 -11203 11216 0
-11204 11216 0
-5605 -11204 0
-5605 11217 0
-11205 11217 0
-5605 -11205 11218 0
-11206 11218 0
-5605 -11206 11219 0
-11207 11219 0
-5605 -11207 11220 0
-11208 11220 0
-5605 -11208 11221 0
-11209 11221 0
-5605 -11209 11222 0
-11210 11222 0
-5605 -11210 11223 0
-11211 11223 0
-5605 -11211 11224 0
-11212 11224 0
-5605 -11212 11225 0
-11213 11225 0
-5605 -11213 11226 0
-11214 11226 0
-5605 -11214 11227 0
-11215 11227 0
-5605 -11215 11228 0
-11216 11228 0
-5605 -11216 0
-5605 11229 0
-11217 11229 0
-5605 -11217 11230 0
-11218 11230 0
-5605 -11218 11231 0
-11219 11231 0
-5605 -11219 11232 0
-11220 11232 0
-5605 -11220 11233 0
-11221 11233 0
-5605 -11221 11234 0
-11222 11234 0
-5605 -11222 11235 0
-11223 11235 0
-5605 -11223 11236 0
-11224 11236 0
-5605 -11224 11237 0
-11225 11237 0
-5605 -11225 11238 0
-11226 11238 0
-5605 -11226 11239 0
-11227 11239 0
-5605 -11227 11240 0
-11228 11240 0
-5605 -11228 0
-5606 11241 0
-11229 11241 0
-5606 -11229 11242 0
-11230 11242 0
-5606 -11230 11243 0
-11231 11243 0
-5606 -11231 11244 0
-11232 11244 0
-5606 -11232 11245 0
-11233 11245 0
-5606 -11233 11246 0
-11234 11246 0
-5606 -11234 11247 0
-11235 11247 0
-5606 -11235 11248 0
-11236 11248 0
-5606 -11236 11249 0
-11237 11249 0
-5606 -11237 11250 0
-11238 11250 0
-5606 -11238 11251 0
-11239 11251 0
-5606 -11239 11252 0
-11240 11252 0
-5606 -11240 0
-5606 11253 0
-11241 11253 0
-5606 -11241 11254 0
-11242 11254 0
-5606 -11242 11255 0
-11243 11255 0
-5606 -11243 11256 0
-11244 11256 0
-5606 -11244 11257 0
-11245 11257 0
-5606 -11245 11258 0
-11246 11258 0
-5606 -11246 11259 0
-11247 11259 0
-5606 -11247 11260 0
-11248 11260 0
-5606 -11248 11261 0
-11249 11261 0
-5606 -11249 11262 0
-11250 11262 0
-5606 -11250 11263 0
-11251 11263 0
-5606 -11251 11264 0
-11252 11264 0
-5606 -11252 0
-5616 11265 0
-11253 11265 0
-5616 -11253 11266 0
-11254 11266 0
-5616 -11254 11267 0
-11255 11267 0
-5616 -11255 11268 0
-11256 11268 0
-5616 -11256 11269 0
-11257 11269 0
-5616 -11257 11270 0
-11258 11270 0
-5616 -11258 11271 0
-11259 11271 0
-5616 -11259 11272 0
-11260 11272 0
-5616 -11260 11273 0
-11261 11273 0
-5616 -11261 11274 0
-11262 11274 0
-5616 -11262 11275 0
-11263 11275 0
-5616 -11263 11276 0
-11264 11276 0
-5616 -11264 0
-5616 11277 0
-11265 11277 0
-5616 -11265 11278 0
-11266 11278 0
-5616 -11266 11279 0
-11267 11279 0
-5616 -11267 11280 0
-11268 11280 0
-5616 -11268 11281 0
-11269 11281 0
-5616 -11269 11282 0
-11270 11282 0
-5616 -11270 11283 0
-11271 11283 0
-5616 -11271 11284 0
-11272 11284 0
-5616 -11272 11285 0
-11273 11285 0
-5616 -11273 11286 0
-11274 11286 0
-5616 -11274 11287 0
-11275 11287 0
-5616 -11275 11288 0
-11276 11288 0
-5616 -11276 0
-5616 11289 0
-11277 11289 0
-5616 -11277 11290 0
-11278 11290 0
-5616 -11278 11291 0
-11279 11291 0
-5616 -11279 11292 0
-11280 11292 0
-5616 -11280 11293 0
-11281 11293 0
-5616 -11281 11294 0
-11282 11294 0
-5616 -11282 11295 0
-11283 11295 0
-5616 -11283 11296 0
-11284 11296 0
-5616 -11284 11297 0
-11285 11297 0
-5616 -11285 11298 0
-11286 11298 0
-5616 -11286 11299 0
-11287 11299 0
-5616 -11287 11300 0
-11288 11300 0
-5616 -11288 0
-5617 11301 0
-11289 11301 0
-5617 -11289 11302 0
-11290 11302 0
-5617 -11290 11303 0
-11291 11303 0
-5617 -11291 11304 0
-11292 11304 0
-5617 -11292 11305 0
-11293 11305 0
-5617 -11293 11306 0
-11294 11306 0
-5617 -11294 11307 0
-11295 11307 0
-5617 -11295 11308 0
-11296 11308 0
-5617 -11296 11309 0
-11297 11309 0
-5617 -11297 11310 0
-11298 11310 0
-5617 -11298 11311 0
-11299 11311 0
-5617 -11299 11312 0
-11300 11312 0
-5617 -11300 0
-5617 11313 0
-11301 11313 0
-5617 -11301 11314 0
-11302 11314 0
-5617 -11302 11315 0
-11303 11315 0
-5617 -11303 11316 0
-11304 11316 0
-5617 -11304 11317 0
-11305 11317 0
-5617 -11305 11318 0
-11306 11318 0
-5617 -11306 11319 0
-11307 11319 0
-5617 -11307 11320 0
-11308 11320 0
-5617 -11308 11321 0
-11309 11321 0
-5617 -11309 11322 0
-11310 11322 0
-5617 -11310 11323 0
-11311 11323 0
-5617 -11311 11324 0
-11312 11324 0
-5617 -11312 0
-5627 11325 0
-11313 11325 0
-5627 -11313 11326 0
-11314 11326 0
-5627 -11314 11327 0
-11315 11327 0
-5627 -11315 11328 0
-11316 11328 0
-5627 -11316 11329 0
-11317 11329 0
-5627 -11317 11330 0
-11318 11330 0
-5627 -11318 11331 0
-11319 11331 0
-5627 -11319 11332 0
-11320 11332 0
-5627 -11320 11333 0
-11321 11333 0
-5627 -11321 11334 0
-11322 11334 0
-5627 -11322 11335 0
-11323 11335 0
-5627 -11323 11336 0
-11324 11336 0
-5627 -11324 0
-5627 11337 0
-11325 11337 0
-5627 -11325 11338 0
-11326 11338 0
-5627 -11326 11339 0
-11327 11339 0
-5627 -11327 11340 0
-11328 11340 0
-5627 -11328 11341 0
-11329 11341 0
-5627 -11329 11342 0
-11330 11342 0
-5627 -11330 11343 0
-11331 11343 0
-5627 -11331 11344 0
-11332 11344 0
-5627 -11332 11345 0
-11333 11345 0
-5627 -11333 11346 0
-11334 11346 0
-5627 -11334 11347 0
-11335 11347 0
-5627 -11335 11348 0
-11336 11348 0
-5627 -11336 0
-5627 11349 0
-11337 11349 0
-5627 -11337 11350 0
-11338 11350 0
-5627 -11338 11351 0
-11339 11351 0
-5627 -11339 11352 0
-11340 11352 0
-5627 -11340 11353 0
-11341 11353 0
-5627 -11341 11354 0
-11342 11354 0
-5627 -11342 11355 0
-11343 11355 0
-5627 -11343 11356 0
-11344 11356 0
-5627 -11344 11357 0
-11345 11357 0
-5627 -11345 11358 0
-11346 11358 0
-5627 -11346 11359 0
-11347 11359 0
-5627 -11347 11360 0
-11348 11360 0
-5627 -11348 0
-5628 11361 0
-11349 11361 0
-5628 -11349 11362 0
-11350 11362 0
-5628 -11350 11363 0
-11351 11363 0
-5628 -11351 11364 0
-11352 11364 0
-5628 -11352 11365 0
-11353 11365 0
-5628 -11353 11366 0
-11354 11366 0
-5628 -11354 11367 0
-11355 11367 0
-5628 -11355 11368 0
-11356 11368 0
-5628 -11356 11369 0
-11357 11369 0
-5628 -11357 11370 0
-11358 11370 0
-5628 -11358 11371 0
-11359 11371 0
-5628 -11359 11372 0
-11360 11372 0
-5628 -11360 0
-5628 11373 0
-11361 11373 0
-5628 -11361 11374 0
-11362 11374 0
-5628 -11362 11375 0
-11363 11375 0
-5628 -11363 11376 0
-11364 11376 0
-5628 -11364 11377 0
-11365 11377 0
-5628 -11365 11378 0
-11366 11378 0
-5628 -11366 11379 0
-11367 11379 0
-5628 -11367 11380 0
-11368 11380 0
-5628 -11368 11381 0
-11369 11381 0
-5628 -11369 11382 0
-11370 11382 0
-5628 -11370 11383 0
-11371 11383 0
-5628 -11371 11384 0
-11372 11384 0
-5628 -11372 0
-5638 11385 0
-11373 11385 0
-5638 -11373 11386 0
-11374 11386 0
-5638 -11374 11387 0
-11375 11387 0
-5638 -11375 11388 0
-11376 11388 0
-5638 -11376 11389 0
-11377 11389 0
-5638 -11377 11390 0
-11378 11390 0
-5638 -11378 11391 0
-11379 11391 0
-5638 -11379 11392 0
-11380 11392 0
-5638 -11380 11393 0
-11381 11393 0
-5638 -11381 11394 0
-11382 11394 0
-5638 -11382 11395 0
-11383 11395 0
-5638 -11383 11396 0
-11384 11396 0
-5638 -11384 0
-5638 11397 0
-11385 11397 0
-5638 -11385 11398 0
-11386 11398 0
-5638 -11386 11399 0
-11387 11399 0
-5638 -11387 11400 0
-11388 11400 0
-5638 -11388 11401 0
-11389 11401 0
-5638 -11389 11402 0
-11390 11402 0
-5638 -11390 11403 0
-11391 11403 0
-5638 -11391 11404 0
-11392 11404 0
-5638 -11392 11405 0
-11393 11405 0
-5638 -11393 11406 0
-11394 11406 0
-5638 -11394 11407 0
-11395 11407 0
-5638 -11395 11408 0
-11396 11408 0
-5638 -11396 0
-5638 11409 0
-11397 11409 0
-5638 -11397 11410 0
-11398 11410 0
-5638 -11398 11411 0
-11399 11411 0
-5638 -11399 11412 0
-11400 11412 0
-5638 -11400 11413 0
-11401 11413 0
-5638 -11401 11414 0
-11402 11414 0
-5638 -11402 11415 0
-11403 11415 0
-5638 -11403 11416 0
-11404 11416 0
-5638 -11404 11417 0
-11405 11417 0
-5638 -11405 11418 0
-11406 11418 0
-5638 -11406 11419 0
-11407 11419 0
-5638 -11407 11420 0
-11408 11420 0
-5638 -11408 0
-5639 11421 0
-11409 11421 0
-5639 -11409 11422 0
-11410 11422 0
-5639 -11410 11423 0
-11411 11423 0
-5639 -11411 11424 0
-11412 11424 0
-5639 -11412 11425 0
-11413 11425 0
-5639 -11413 11426 0
-11414 11426 0
-5639 -11414 11427 0
-11415 11427 0
-5639 -11415 11428 0
-11416 11428 0
-5639 -11416 11429 0
-11417 11429 0
-5639 -11417 11430 0
-11418 11430 0
-5639 -11418 11431 0
-11419 11431 0
-5639 -11419 11432 0
-11420 11432 0
-5639 -11420 0
-5639 11433 0
-11421 11433 0
-5639 -11421 11434 0
-11422 11434 0
-5639 -11422 11435 0
-11423 11435 0
-5639 -11423 11436 0
-11424 11436 0
-5639 -11424 11437 0
-11425 11437 0
-5639 -11425 11438 0
-11426 11438 0
-5639 -11426 11439 0
-11427 11439 0
-5639 -11427 11440 0
-11428 11440 0
-5639 -11428 11441 0
-11429 11441 0
-5639 -11429 11442 0
-11430 11442 0
-5639 -11430 11443 0
-11431 11443 0
-5639 -11431 11444 0
-11432 11444 0
-5639 -11432 0
-5649 11445 0
-11433 11445 0
-5649 -11433 11446 0
-11434 11446 0
-5649 -11434 11447 0
-11435 11447 0
-5649 -11435 11448 0
-11436 11448 0
-5649 -11436 11449 0
-11437 11449 0
-5649 -11437 11450 0
-11438 11450 0
-5649 -11438 11451 0
-11439 11451 0
-5649 -11439 11452 0
-11440 11452 0
-5649 -11440 11453 0
-11441 11453 0
-5649 -11441 11454 0
-11442 11454 0
-5649 -11442 11455 0
-11443 11455 0
-5649 -11443 11456 0
-11444 11456 0
-5649 -11444 0
-5649 11457 0
-11445 11457 0
-5649 -11445 11458 0
-11446 11458 0
-5649 -11446 11459 0
-11447 11459 0
-5649 -11447 11460 0
-11448 11460 0
-5649 -11448 11461 0
-11449 11461 0
-5649 -11449 11462 0
-11450 11462 0
-5649 -11450 11463 0
-11451 11463 0
-5649 -11451 11464 0
-11452 11464 0
-5649 -11452 11465 0
-11453 11465 0
-5649 -11453 11466 0
-11454 11466 0
-5649 -11454 11467 0
-11455 11467 0
-5649 -11455 11468 0
-11456 11468 0
-5649 -11456 0
-5649 11469 0
-11457 11469 0
-5649 -11457 11470 0
-11458 11470 0
-5649 -11458 11471 0
-11459 11471 0
-5649 -11459 11472 0
-11460 11472 0
-5649 -11460 11473 0
-11461 11473 0
-5649 -11461 11474 0
-11462 11474 0
-5649 -11462 11475 0
-11463 11475 0
-5649 -11463 11476 0
-11464 11476 0
-5649 -11464 11477 0
-11465 11477 0
-5649 -11465 11478 0
-11466 11478 0
-5649 -11466 11479 0
-11467 11479 0
-5649 -11467 11480 0
-11468 11480 0
-5649 -11468 0
-5650 11481 0
-11469 11481 0
-5650 -11469 11482 0
-11470 11482 0
-5650 -11470 11483 0
-11471 11483 0
-5650 -11471 11484 0
-11472 11484 0
-5650 -11472 11485 0
-11473 11485 0
-5650 -11473 11486 0
-11474 11486 0
-5650 -11474 11487 0
-11475 11487 0
-5650 -11475 11488 0
-11476 11488 0
-5650 -11476 11489 0
-11477 11489 0
-5650 -11477 11490 0
-11478 11490 0
-5650 -11478 11491 0
-11479 11491 0
-5650 -11479 11492 0
-11480 11492 0
-5650 -11480 0
-5650 11493 0
-11481 11493 0
-5650 -11481 11494 0
-11482 11494 0
-5650 -11482 11495 0
-11483 11495 0
-5650 -11483 11496 0
-11484 11496 0
-5650 -11484 11497 0
-11485 11497 0
-5650 -11485 11498 0
-11486 11498 0
-5650 -11486 11499 0
-11487 11499 0
-5650 -11487 11500 0
-11488 11500 0
-5650 -11488 11501 0
-11489 11501 0
-5650 -11489 11502 0
-11490 11502 0
-5650 -11490 11503 0
-11491 11503 0
-5650 -11491 11504 0
-11492 11504 0
-5650 -11492 0
-5660 11505 0
-11493 11505 0
-5660 -11493 11506 0
-11494 11506 0
-5660 -11494 11507 0
-11495 11507 0
-5660 -11495 11508 0
-11496 11508 0
-5660 -11496 11509 0
-11497 11509 0
-5660 -11497 11510 0
-11498 11510 0
-5660 -11498 11511 0
-11499 11511 0
-5660 -11499 11512 0
-11500 11512 0
-5660 -11500 11513 0
-11501 11513 0
-5660 -11501 11514 0
-11502 11514 0
-5660 -11502 11515 0
-11503 11515 0
-5660 -11503 11516 0
-11504 11516 0
-5660 -11504 0
-5660 11517 0
-11505 11517 0
-5660 -11505 11518 0
-11506 11518 0
-5660 -11506 11519 0
-11507 11519 0
-5660 -11507 11520 0
-11508 11520 0
-5660 -11508 11521 0
-11509 11521 0
-5660 -11509 11522 0
-11510 11522 0
-5660 -11510 11523 0
-11511 11523 0
-5660 -11511 11524 0
-11512 11524 0
-5660 -11512 11525 0
-11513 11525 0
-5660 -11513 11526 0
-11514 11526 0
-5660 -11514 11527 0
-11515 11527 0
-5660 -11515 11528 0
-11516 11528 0
-5660 -11516 0
-5660 11529 0
-11517 11529 0
-5660 -11517 11530 0
-11518 11530 0
-5660 -11518 11531 0
-11519 11531 0
-5660 -11519 11532 0
-11520 11532 0
-5660 -11520 11533 0
-11521 11533 0
-5660 -11521 11534 0
-11522 11534 0
-5660 -11522 11535 0
-11523 11535 0
-5660 -11523 11536 0
-11524 11536 0
-5660 -11524 11537 0
-11525 11537 0
-5660 -11525 11538 0
-11526 11538 0
-5660 -11526 11539 0
-11527 11539 0
-5660 -11527 11540 0
-11528 11540 0
-5660 -11528 0
-5661 11541 0
-11529 11541 0
-5661 -11529 11542 0
-11530 11542 0
-5661 -11530 11543 0
-11531 11543 0
-5661 -11531 11544 0
-11532 11544 0
-5661 -11532 11545 0
-11533 11545 0
-5661 -11533 11546 0
-11534 11546 0
-5661 -11534 11547 0
-11535 11547 0
-5661 -11535 11548 0
-11536 11548 0
-5661 -11536 11549 0
-11537 11549 0
-5661 -11537 11550 0
-11538 11550 0
-5661 -11538 11551 0
-11539 11551 0
-5661 -11539 11552 0
-11540 11552 0
-5661 -11540 0
-5661 11553 0
-11541 11553 0
-5661 -11541 11554 0
-11542 11554 0
-5661 -11542 11555 0
-11543 11555 0
-5661 -11543 11556 0
-11544 11556 0
-5661 -11544 11557 0
-11545 11557 0
-5661 -11545 11558 0
-11546 11558 0
-5661 -11546 11559 0
-11547 11559 0
-5661 -11547 11560 0
-11548 11560 0
-5661 -11548 11561 0
-11549 11561 0
-5661 -11549 11562 0
-11550 11562 0
-5661 -11550 11563 0
-11551 11563 0
-5661 -11551 11564 0
-11552 11564 0
-5661 -11552 0
-5671 11565 0
-11553 11565 0
-5671 -11553 11566 0
-11554 11566 0
-5671 -11554 11567 0
-11555 11567 0
-5671 -11555 11568 0
-11556 11568 0
-5671 -11556 11569 0
-11557 11569 0
-5671 -11557 11570 0
-11558 11570 0
-5671 -11558 11571 0
-11559 11571 0
-5671 -11559 11572 0
-11560 11572 0
-5671 -11560 11573 0
-11561 11573 0
-5671 -11561 11574 0
-11562 11574 0
-5671 -11562 11575 0
-11563 11575 0
-5671 -11563 11576 0
-11564 11576 0
-5671 -11564 0
-5671 11577 0
-11565 11577 0
-5671 -11565 11578 0
-11566 11578 0
-5671 -11566 11579 0
-11567 11579 0
-5671 -11567 11580 0
-11568 11580 0
-5671 -11568 11581 0
-11569 11581 0
-5671 -11569 11582 0
-11570 11582 0
-5671 -11570 11583 0
-11571 11583 0
-5671 -11571 11584 0
-11572 11584 0
-5671 -11572 11585 0
-11573 11585 0
-5671 -11573 11586 0
-11574 11586 0
-5671 -11574 11587 0
-11575 11587 0
-5671 -11575 11588 0
-11576 11588 0
-5671 -11576 0
-5671 11589 0
-11577 11589 0
-5671 -11577 11590 0
-11578 11590 0
-5671 -11578 11591 0
-11579 11591 0
-5671 -11579 11592 0
-11580 11592 0
-5671 -11580 11593 0
-11581 11593 0
-5671 -11581 11594 0
-11582 11594 0
-5671 -11582 11595 0
-11583 11595 0
-5671 -11583 11596 0
-11584 11596 0
-5671 -11584 11597 0
-11585 11597 0
-5671 -11585 11598 0
-11586 11598 0
-5671 -11586 11599 0
-11587 11599 0
-5671 -11587 11600 0
-11588 11600 0
-5671 -11588 0
-5672 11601 0
-11589 11601 0
-5672 -11589 11602 0
-11590 11602 0
-5672 -11590 11603 0
-11591 11603 0
-5672 -11591 11604 0
-11592 11604 0
-5672 -11592 11605 0
-11593 11605 0
-5672 -11593 11606 0
-11594 11606 0
-5672 -11594 11607 0
-11595 11607 0
-5672 -11595 11608 0
-11596 11608 0
-5672 -11596 11609 0
-11597 11609 0
-5672 -11597 11610 0
-11598 11610 0
-5672 -11598 11611 0
-11599 11611 0
-5672 -11599 11612 0
-11600 11612 0
-5672 -11600 0
-5672 11613 0
-11601 11613 0
-5672 -11601 11614 0
-11602 11614 0
-5672 -11602 11615 0
-11603 11615 0
-5672 -11603 11616 0
-11604 11616 0
-5672 -11604 11617 0
-11605 11617 0
-5672 -11605 11618 0
-11606 11618 0
-5672 -11606 11619 0
-11607 11619 0
-5672 -11607 11620 0
-11608 11620 0
-5672 -11608 11621 0
-11609 11621 0
-5672 -11609 11622 0
-11610 11622 0
-5672 -11610 11623 0
-11611 11623 0
-5672 -11611 11624 0
-11612 11624 0
-5672 -11612 0
-5682 11625 0
-11613 11625 0
-5682 -11613 11626 0
-11614 11626 0
-5682 -11614 11627 0
-11615 11627 0
-5682 -11615 11628 0
-11616 11628 0
-5682 -11616 11629 0
-11617 11629 0
-5682 -11617 11630 0
-11618 11630 0
-5682 -11618 11631 0
-11619 11631 0
-5682 -11619 11632 0
-11620 11632 0
-5682 -11620 11633 0
-11621 11633 0
-5682 -11621 11634 0
-11622 11634 0
-5682 -11622 11635 0
-11623 11635 0
-5682 -11623 11636 0
-11624 11636 0
-5682 -11624 0
-5682 11637 0
-11625 11637 0
-5682 -11625 11638 0
-11626 11638 0
-5682 -11626 11639 0
-11627 11639 0
-5682 -11627 11640 0
-11628 11640 0
-5682 -11628 11641 0
-11629 11641 0
-5682 -11629 11642 0
-11630 11642 0
-5682 -11630 11643 0
-11631 11643 0
-5682 -11631 11644 0
-11632 11644 0
-5682 -11632 11645 0
-11633 11645 0
-5682 -11633 11646 0
-11634 11646 0
-5682 -11634 11647 0
-11635 11647 0
-5682 -11635 11648 0
-11636 11648 0
-5682 -11636 0
-5682 11649 0
-11637 11649 0
-5682 -11637 11650 0
-11638 11650 0
-5682 -11638 11651 0
-11639 11651 0
-5682 -11639 11652 0
-11640 11652 0
-5682 -11640 11653 0
-11641 11653 0
-5682 -11641 11654 0
-11642 11654 0
-5682 -11642 11655 0
-11643 11655 0
-5682 -11643 11656 0
-11644 11656 0
-5682 -11644 11657 0
-11645 11657 0
-5682 -11645 11658 0
-11646 11658 0
-5682 -11646 11659 0
-11647 11659 0
-5682 -11647 11660 0
-11648 11660 0
-5682 -11648 0
-5683 11661 0
-11649 11661 0
-5683 -11649 11662 0
-11650 11662 0
-5683 -11650 11663 0
-11651 11663 0
-5683 -11651 11664 0
-11652 11664 0
-5683 -11652 11665 0
-11653 11665 0
-5683 -11653 11666 0
-11654 11666 0
-5683 -11654 11667 0
-11655 11667 0
-5683 -11655 11668 0
-11656 11668 0
-5683 -11656 11669 0
-11657 11669 0
-5683 -11657 11670 0
-11658 11670 0
-5683 -11658 11671 0
-11659 11671 0
-5683 -11659 11672 0
-11660 11672 0
-5683 -11660 0
-5683 11673 0
-11661 11673 0
-5683 -11661 11674 0
-11662 11674 0
-5683 -11662 11675 0
-11663 11675 0
-5683 -11663 11676 0
-11664 11676 0
-5683 -11664 11677 0
-11665 11677 0
-5683 -11665 11678 0
-11666 11678 0
-5683 -11666 11679 0
-11667 11679 0
-5683 -11667 11680 0
-11668 11680 0
-5683 -11668 11681 0
-11669 11681 0
-5683 -11669 11682 0
-11670 11682 0
-5683 -11670 11683 0
-11671 11683 0
-5683 -11671 11684 0
-11672 11684 0
-5683 -11672 0
-5693 11685 0
-11673 11685 0
-5693 -11673 11686 0
-11674 11686 0
-5693 -11674 11687 0
-11675 11687 0
-5693 -11675 11688 0
-11676 11688 0
-5693 -11676 11689 0
-11677 11689 0
-5693 -11677 11690 0
-11678 11690 0
-5693 -11678 11691 0
-11679 11691 0
-5693 -11679 11692 0
-11680 11692 0
-5693 -11680 11693 0
-11681 11693 0
-5693 -11681 11694 0
-11682 11694 0
-5693 -11682 11695 0
-11683 11695 0
-5693 -11683 11696 0
-11684 11696 0
-5693 -11684 0
-5693 11697 0
-11685 11697 0
-5693 -11685 11698 0
-11686 11698 0
-5693 -11686 11699 0
-11687 11699 0
-5693 -11687 11700 0
-11688 11700 0
-5693 -11688 11701 0
-11689 11701 0
-5693 -11689 11702 0
-11690 11702 0
-5693 -11690 11703 0
-11691 11703 0
-5693 -11691 11704 0
-11692 11704 0
-5693 -11692 11705 0
-11693 11705 0
-5693 -11693 11706 0
-11694 11706 0
-5693 -11694 11707 0
-11695 11707 0
-5693 -11695 11708 0
-11696 11708 0
-5693 -11696 0
-5693 11709 0
-11697 11709 0
-5693 -11697 11710 0
-11698 11710 0
-5693 -11698 11711 0
-11699 11711 0
-5693 -11699 11712 0
-11700 11712 0
-5693 -11700 11713 0
-11701 11713 0
-5693 -11701 11714 0
-11702 11714 0
-5693 -11702 11715 0
-11703 11715 0
-5693 -11703 11716 0
-11704 11716 0
-5693 -11704 11717 0
-11705 11717 0
-5693 -11705 11718 0
-11706 11718 0
-5693 -11706 11719 0
-11707 11719 0
-5693 -11707 11720 0
-11708 11720 0
-5693 -11708 0
-5694 11721 0
-11709 11721 0
-5694 -11709 11722 0
-11710 11722 0
-5694 -11710 11723 0
-11711 11723 0
-5694 -11711 11724 0
-11712 11724 0
-5694 -11712 11725 0
-11713 11725 0
-5694 -11713 11726 0
-11714 11726 0
-5694 -11714 11727 0
-11715 11727 0
-5694 -11715 11728 0
-11716 11728 0
-5694 -11716 11729 0
-11717 11729 0
-5694 -11717 11730 0
-11718 11730 0
-5694 -11718 11731 0
-11719 11731 0
-5694 -11719 11732 0
-11720 11732 0
-5694 -11720 0
-5694 11733 0
-11721 11733 0
-5694 -11721 11734 0
-11722 11734 0
-5694 -11722 11735 0
-11723 11735 0
-5694 -11723 11736 0
-11724 11736 0
-5694 -11724 11737 0
-11725 11737 0
-5694 -11725 11738 0
-11726 11738 0
-5694 -11726 11739 0
-11727 11739 0
-5694 -11727 11740 0
-11728 11740 0
-5694 -11728 11741 0
-11729 11741 0
-5694 -11729 11742 0
-11730 11742 0
-5694 -11730 11743 0
-11731 11743 0
-5694 -11731 11744 0
-11732 11744 0
-5694 -11732 0
-5704 11745 0
-11733 11745 0
-5704 -11733 11746 0
-11734 11746 0
-5704 -11734 11747 0
-11735 11747 0
-5704 -11735 11748 0
-11736 11748 0
-5704 -11736 11749 0
-11737 11749 0
-5704 -11737 11750 0
-11738 11750 0
-5704 -11738 11751 0
-11739 11751 0
-5704 -11739 11752 0
-11740 11752 0
-5704 -11740 11753 0
-11741 11753 0
-5704 -11741 11754 0
-11742 11754 0
-5704 -11742 11755 0
-11743 11755 0
-5704 -11743 11756 0
-11744 11756 0
-5704 -11744 0
-5704 11757 0
-11745 11757 0
-5704 -11745 11758 0
-11746 11758 0
-5704 -11746 11759 0
-11747 11759 0
-5704 -11747 11760 0
-11748 11760 0
-5704 -11748 11761 0
-11749 11761 0
-5704 -11749 11762 0
-11750 11762 0
-5704 -11750 11763 0
-11751 11763 0
-5704 -11751 11764 0
-11752 11764 0
-5704 -11752 11765 0
-11753 11765 0
-5704 -11753 11766 0
-11754 11766 0
-5704 -11754 11767 0
-11755 11767 0
-5704 -11755 11768 0
-11756 11768 0
-5704 -11756 0
-5704 11769 0
-11757 11769 0
-5704 -11757 11770 0
-11758 11770 0
-5704 -11758 11771 0
-11759 11771 0
-5704 -11759 11772 0
-11760 11772 0
-5704 -11760 11773 0
-11761 11773 0
-5704 -11761 11774 0
-11762 11774 0
-5704 -11762 11775 0
-11763 11775 0
-5704 -11763 11776 0
-11764 11776 0
-5704 -11764 11777 0
-11765 11777 0
-5704 -11765 11778 0
-11766 11778 0
-5704 -11766 11779 0
-11767 11779 0
-5704 -11767 11780 0
-11768 11780 0
-5704 -11768 0
-5705 11781 0
-11769 11781 0
-5705 -11769 11782 0
-11770 11782 0
-5705 -11770 11783 0
-11771 11783 0
-5705 -11771 11784 0
-11772 11784 0
-5705 -11772 11785 0
-11773 11785 0
-5705 -11773 11786 0
-11774 11786 0
-5705 -11774 11787 0
-11775 11787 0
-5705 -11775 11788 0
-11776 11788 0
-5705 -11776 11789 0
-11777 11789 0
-5705 -11777 11790 0
-11778 11790 0
-5705 -11778 11791 0
-11779 11791 0
-5705 -11779 11792 0
-11780 11792 0
-5705 -11780 0
-5705 11793 0
-11781 11793 0
-5705 -11781 11794 0
-11782 11794 0
-5705 -11782 11795 0
-11783 11795 0
-5705 -11783 11796 0
-11784 11796 0
-5705 -11784 11797 0
-11785 11797 0
-5705 -11785 11798 0
-11786 11798 0
-5705 -11786 11799 0
-11787 11799 0
-5705 -11787 11800 0
-11788 11800 0
-5705 -11788 11801 0
-11789 11801 0
-5705 -11789 11802 0
-11790 11802 0
-5705 -11790 11803 0
-11791 11803 0
-5705 -11791 11804 0
-11792 11804 0
-5705 -11792 0
-5715 11805 0
-11793 11805 0
-5715 -11793 11806 0
-11794 11806 0
-5715 -11794 11807 0
-11795 11807 0
-5715 -11795 11808 0
-11796 11808 0
-5715 -11796 11809 0
-11797 11809 0
-5715 -11797 11810 0
-11798 11810 0
-5715 -11798 11811 0
-11799 11811 0
-5715 -11799 11812 0
-11800 11812 0
-5715 -11800 11813 0
-11801 11813 0
-5715 -11801 11814 0
-11802 11814 0
-5715 -11802 11815 0
-11803 11815 0
-5715 -11803 11816 0
-11804 11816 0
-5715 -11804 0
-5715 11817 0
-11805 11817 0
-5715 -11805 11818 0
-11806 11818 0
-5715 -11806 11819 0
-11807 11819 0
-5715 -11807 11820 0
-11808 11820 0
-5715 -11808 11821 0
-11809 11821 0
-5715 -11809 11822 0
-11810 11822 0
-5715 -11810 11823 0
-11811 11823 0
-5715 -11811 11824 0
-11812 11824 0
-5715 -11812 11825 0
-11813 11825 0
-5715 -11813 11826 0
-11814 11826 0
-5715 -11814 11827 0
-11815 11827 0
-5715 -11815 11828 0
-11816 11828 0
-5715 -11816 0
-5715 11829 0
-11817 11829 0
-5715 -11817 11830 0
-11818 11830 0
-5715 -11818 11831 0
-11819 11831 0
-5715 -11819 11832 0
-11820 11832 0
-5715 -11820 11833 0
-11821 11833 0
-5715 -11821 11834 0
-11822 11834 0
-5715 -11822 11835 0
-11823 11835 0
-5715 -11823 11836 0
-11824 11836 0
-5715 -11824 11837 0
-11825 11837 0
-5715 -11825 11838 0
-11826 11838 0
-5715 -11826 11839 0
-11827 11839 0
-5715 -11827 11840 0
-11828 11840 0
-5715 -11828 0
-5716 11841 0
-11829 11841 0
-5716 -11829 11842 0
-11830 11842 0
-5716 -11830 11843 0
-11831 11843 0
-5716 -11831 11844 0
-11832 11844 0
-5716 -11832 11845 0
-11833 11845 0
-5716 -11833 11846 0
-11834 11846 0
-5716 -11834 11847 0
-11835 11847 0
-5716 -11835 11848 0
-11836 11848 0
-5716 -11836 11849 0
-11837 11849 0
-5716 -11837 11850 0
-11838 11850 0
-5716 -11838 11851 0
-11839 11851 0
-5716 -11839 11852 0
-11840 11852 0
-5716 -11840 0
-5716 11853 0
-11841 11853 0
-5716 -11841 11854 0
-11842 11854 0
-5716 -11842 11855 0
-11843 11855 0
-5716 -11843 11856 0
-11844 11856 0
-5716 -11844 11857 0
-11845 11857 0
-5716 -11845 11858 0
-11846 11858 0
-5716 -11846 11859 0
-11847 11859 0
-5716 -11847 11860 0
-11848 11860 0
-5716 -11848 11861 0
-11849 11861 0
-5716 -11849 11862 0
-11850 11862 0
-5716 -11850 11863 0
-11851 11863 0
-5716 -11851 11864 0
-11852 11864 0
-5716 -11852 0
-5726 11865 0
-11853 11865 0
-5726 -11853 11866 0
-11854 11866 0
-5726 -11854 11867 0
-11855 11867 0
-5726 -11855 11868 0
-11856 11868 0
-5726 -11856 11869 0
-11857 11869 0
-5726 -11857 11870 0
-11858 11870 0
-5726 -11858 11871 0
-11859 11871 0
-5726 -11859 11872 0
-11860 11872 0
-5726 -11860 11873 0
-11861 11873 0
-5726 -11861 11874 0
-11862 11874 0
-5726 -11862 11875 0
-11863 11875 0
-5726 -11863 11876 0
-11864 11876 0
-5726 -11864 0
-5726 11877 0
-11865 11877 0
-5726 -11865 11878 0
-11866 11878 0
-5726 -11866 11879 0
-11867 11879 0
-5726 -11867 11880 0
-11868 11880 0
-5726 -11868 11881 0
-11869 11881 0
-5726 -11869 11882 0
-11870 11882 0
-5726 -11870 11883 0
-11871 11883 0
-5726 -11871 11884 0
-11872 11884 0
-5726 -11872 11885 0
-11873 11885 0
-5726 -11873 11886 0
-11874 11886 0
-5726 -11874 11887 0
-11875 11887 0
-5726 -11875 11888 0
-11876 11888 0
-5726 -11876 0
-5726 11889 0
-11877 11889 0
-5726 -11877 11890 0
-11878 11890 0
-5726 -11878 11891 0
-11879 11891 0
-5726 -11879 11892 0
-11880 11892 0
-5726 -11880 11893 0
-11881 11893 0
-5726 -11881 11894 0
-11882 11894 0
-5726 -11882 11895 0
-11883 11895 0
-5726 -11883 11896 0
-11884 11896 0
-5726 -11884 11897 0
-11885 11897 0
-5726 -11885 11898 0
-11886 11898 0
-5726 -11886 11899 0
-11887 11899 0
-5726 -11887 11900 0
-11888 11900 0
-5726 -11888 0
-5727 11901 0
-11889 11901 0
-5727 -11889 11902 0
-11890 11902 0
-5727 -11890 11903 0
-11891 11903 0
-5727 -11891 11904 0
-11892 11904 0
-5727 -11892 11905 0
-11893 11905 0
-5727 -11893 11906 0
-11894 11906 0
-5727 -11894 11907 0
-11895 11907 0
-5727 -11895 11908 0
-11896 11908 0
-5727 -11896 11909 0
-11897 11909 0
-5727 -11897 11910 0
-11898 11910 0
-5727 -11898 11911 0
-11899 11911 0
-5727 -11899 11912 0
-11900 11912 0
-5727 -11900 0
-5727 11913 0
-11901 11913 0
-5727 -11901 11914 0
-11902 11914 0
-5727 -11902 11915 0
-11903 11915 0
-5727 -11903 11916 0
-11904 11916 0
-5727 -11904 11917 0
-11905 11917 0
-5727 -11905 11918 0
-11906 11918 0
-5727 -11906 11919 0
-11907 11919 0
-5727 -11907 11920 0
-11908 11920 0
-5727 -11908 11921 0
-11909 11921 0
-5727 -11909 11922 0
-11910 11922 0
-5727 -11910 11923 0
-11911 11923 0
-5727 -11911 11924 0
-11912 11924 0
-5727 -11912 0
-5737 11925 0
-11913 11925 0
-5737 -11913 11926 0
-11914 11926 0
-5737 -11914 11927 0
-11915 11927 0
-5737 -11915 11928 0
-11916 11928 0
-5737 -11916 11929 0
-11917 11929 0
-5737 -11917 11930 0
-11918 11930 0
-5737 -11918 11931 0
-11919 11931 0
-5737 -11919 11932 0
-11920 11932 0
-5737 -11920 11933 0
-11921 11933 0
-5737 -11921 11934 0
-11922 11934 0
-5737 -11922 11935 0
-11923 11935 0
-5737 -11923 11936 0
-11924 11936 0
-5737 -11924 0
-5737 11937 0
-11925 11937 0
-5737 -11925 11938 0
-11926 11938 0
-5737 -11926 11939 0
-11927 11939 0
-5737 -11927 11940 0
-11928 11940 0
-5737 -11928 11941 0
-11929 11941 0
-5737 -11929 11942 0
-11930 11942 0
-5737 -11930 11943 0
-11931 11943 0
-5737 -11931 11944 0
-11932 11944 0
-5737 -11932 11945 0
-11933 11945 0
-5737 -11933 11946 0
-11934 11946 0
-5737 -11934 11947 0
-11935 11947 0
-5737 -11935 11948 0
-11936 11948 0
-5737 -11936 0
-5737 11949 0
-11937 11949 0
-5737 -11937 11950 0
-11938 11950 0
-5737 -11938 11951 0
-11939 11951 0
-5737 -11939 11952 0
-11940 11952 0
-5737 -11940 11953 0
-11941 11953 0
-5737 -11941 11954 0
-11942 11954 0
-5737 -11942 11955 0
-11943 11955 0
-5737 -11943 11956 0
-11944 11956 0
-5737 -11944 11957 0
-11945 11957 0
-5737 -11945 11958 0
-11946 11958 0
-5737 -11946 11959 0
-11947 11959 0
-5737 -11947 11960 0
-11948 11960 0
-5737 -11948 0
-5738 11961 0
-11949 11961 0
-5738 -11949 11962 0
-11950 11962 0
-5738 -11950 11963 0
-11951 11963 0
-5738 -11951 11964 0
-11952 11964 0
-5738 -11952 11965 0
-11953 11965 0
-5738 -11953 11966 0
-11954 11966 0
-5738 -11954 11967 0
-11955 11967 0
-5738 -11955 11968 0
-11956 11968 0
-5738 -11956 11969 0
-11957 11969 0
-5738 -11957 11970 0
-11958 11970 0
-5738 -11958 11971 0
-11959 11971 0
-5738 -11959 11972 0
-11960 11972 0
-5738 -11960 0
-5738 11973 0
-11961 11973 0
-5738 -11961 11974 0
-11962 11974 0
-5738 -11962 11975 0
-11963 11975 0
-5738 -11963 11976 0
-11964 11976 0
-5738 -11964 11977 0
-11965 11977 0
-5738 -11965 11978 0
-11966 11978 0
-5738 -11966 11979 0
-11967 11979 0
-5738 -11967 11980 0
-11968 11980 0
-5738 -11968 11981 0
-11969 11981 0
-5738 -11969 11982 0
-11970 11982 0
-5738 -11970 11983 0
-11971 11983 0
-5738 -11971 11984 0
-11972 11984 0
-5738 -11972 0
-5748 11985 0
-11973 11985 0
-5748 -11973 11986 0
-11974 11986 0
-5748 -11974 11987 0
-11975 11987 0
-5748 -11975 11988 0
-11976 11988 0
-5748 -11976 11989 0
-11977 11989 0
-5748 -11977 11990 0
-11978 11990 0
-5748 -11978 11991 0
-11979 11991 0
-5748 -11979 11992 0
-11980 11992 0
-5748 -11980 11993 0
-11981 11993 0
-5748 -11981 11994 0
-11982 11994 0
-5748 -11982 11995 0
-11983 11995 0
-5748 -11983 11996 0
-11984 11996 0
-5748 -11984 0
-5748 11997 0
-11985 11997 0
-5748 -11985 11998 0
-11986 11998 0
-5748 -11986 11999 0
-11987 11999 0
-5748 -11987 12000 0
-11988 12000 0
-5748 -11988 12001 0
-11989 12001 0
-5748 -11989 12002 0
-11990 12002 0
-5748 -11990 12003 0
-11991 12003 0
-5748 -11991 12004 0
-11992 12004 0
-5748 -11992 12005 0
-11993 12005 0
-5748 -11993 12006 0
-11994 12006 0
-5748 -11994 12007 0
-11995 12007 0
-5748 -11995 12008 0
-11996 12008 0
-5748 -11996 0
-5748 12009 0
-11997 12009 0
-5748 -11997 12010 0
-11998 12010 0
-5748 -11998 12011 0
-11999 12011 0
-5748 -11999 12012 0
-12000 12012 0
-5748 -12000 12013 0
-12001 12013 0
-5748 -12001 12014 0
-12002 12014 0
-5748 -12002 12015 0
-12003 12015 0
-5748 -12003 12016 0
-12004 12016 0
-5748 -12004 12017 0
-12005 12017 0
-5748 -12005 12018 0
-12006 12018 0
-5748 -12006 12019 0
-12007 12019 0
-5748 -12007 12020 0
-12008 12020 0
-5748 -12008 0
-5749 12021 0
-12009 12021 0
-5749 -12009 12022 0
-12010 12022 0
-5749 -12010 12023 0
-12011 12023 0
-5749 -12011 12024 0
-12012 12024 0
-5749 -12012 12025 0
-12013 12025 0
-5749 -12013 12026 0
-12014 12026 0
-5749 -12014 12027 0
-12015 12027 0
-5749 -12015 12028 0
-12016 12028 0
-5749 -12016 12029 0
-12017 12029 0
-5749 -12017 12030 0
-12018 12030 0
-5749 -12018 12031 0
-12019 12031 0
-5749 -12019 12032 0
-12020 12032 0
-5749 -12020 0
-5749 12033 0
-12021 12033 0
-5749 -12021 12034 0
-12022 12034 0
-5749 -12022 12035 0
-12023 12035 0
-5749 -12023 12036 0
-12024 12036 0
-5749 -12024 12037 0
-12025 12037 0
-5749 -12025 12038 0
-12026 12038 0
-5749 -12026 12039 0
-12027 12039 0
-5749 -12027 12040 0
-12028 12040 0
-5749 -12028 12041 0
-12029 12041 0
-5749 -12029 12042 0
-12030 12042 0
-5749 -12030 12043 0
-12031 12043 0
-5749 -12031 12044 0
-12032 12044 0
-5749 -12032 0
-5759 12045 0
-12033 12045 0
-5759 -12033 12046 0
-12034 12046 0
-5759 -12034 12047 0
-12035 12047 0
-5759 -12035 12048 0
-12036 12048 0
-5759 -12036 12049 0
-12037 12049 0
-5759 -12037 12050 0
-12038 12050 0
-5759 -12038 12051 0
-12039 12051 0
-5759 -12039 12052 0
-12040 12052 0
-5759 -12040 12053 0
-12041 12053 0
-5759 -12041 12054 0
-12042 12054 0
-5759 -12042 12055 0
-12043 12055 0
-5759 -12043 12056 0
-12044 12056 0
-5759 -12044 0
-5759 12057 0
-12045 12057 0
-5759 -12045 12058 0
-12046 12058 0
-5759 -12046 12059 0
-12047 12059 0
-5759 -12047 12060 0
-12048 12060 0
-5759 -12048 12061 0
-12049 12061 0
-5759 -12049 12062 0
-12050 12062 0
-5759 -12050 12063 0
-12051 12063 0
-5759 -12051 12064 0
-12052 12064 0
-5759 -12052 12065 0
-12053 12065 0
-5759 -12053 12066 0
-12054 12066 0
-5759 -12054 12067 0
-12055 12067 0
-5759 -12055 12068 0
-12056 12068 0
-5759 -12056 0
-5759 12069 0
-12057 12069 0
-5759 -12057 12070 0
-12058 12070 0
-5759 -12058 12071 0
-12059 12071 0
-5759 -12059 12072 0
-12060 12072 0
-5759 -12060 12073 0
-12061 12073 0
-5759 -12061 12074 0
-12062 12074 0
-5759 -12062 12075 0
-12063 12075 0
-5759 -12063 12076 0
-12064 12076 0
-5759 -12064 12077 0
-12065 12077 0
-5759 -12065 12078 0
-12066 12078 0
-5759 -12066 12079 0
-12067 12079 0
-5759 -12067 12080 0
-12068 12080 0
-5759 -12068 0
-5760 12081 0
-12069 12081 0
-5760 -12069 12082 0
-12070 12082 0
-5760 -12070 12083 0
-12071 12083 0
-5760 -12071 12084 0
-12072 12084 0
-5760 -12072 12085 0
-12073 12085 0
-5760 -12073 12086 0
-12074 12086 0
-5760 -12074 12087 0
-12075 12087 0
-5760 -12075 12088 0
-12076 12088 0
-5760 -12076 12089 0
-12077 12089 0
-5760 -12077 12090 0
-12078 12090 0
-5760 -12078 12091 0
-12079 12091 0
-5760 -12079 12092 0
-12080 12092 0
-5760 -12080 0
-5760 12093 0
-12081 12093 0
-5760 -12081 12094 0
-12082 12094 0
-5760 -12082 12095 0
-12083 12095 0
-5760 -12083 12096 0
-12084 12096 0
-5760 -12084 12097 0
-12085 12097 0
-5760 -12085 12098 0
-12086 12098 0
-5760 -12086 12099 0
-12087 12099 0
-5760 -12087 12100 0
-12088 12100 0
-5760 -12088 12101 0
-12089 12101 0
-5760 -12089 12102 0
-12090 12102 0
-5760 -12090 12103 0
-12091 12103 0
-5760 -12091 12104 0
-12092 12104 0
-5760 -12092 0
-5770 12105 0
-12093 12105 0
-5770 -12093 12106 0
-12094 12106 0
-5770 -12094 12107 0
-12095 12107 0
-5770 -12095 12108 0
-12096 12108 0
-5770 -12096 12109 0
-12097 12109 0
-5770 -12097 12110 0
-12098 12110 0
-5770 -12098 12111 0
-12099 12111 0
-5770 -12099 12112 0
-12100 12112 0
-5770 -12100 12113 0
-12101 12113 0
-5770 -12101 12114 0
-12102 12114 0
-5770 -12102 12115 0
-12103 12115 0
-5770 -12103 12116 0
-12104 12116 0
-5770 -12104 0
-5770 12117 0
-12105 12117 0
-5770 -12105 12118 0
-12106 12118 0
-5770 -12106 12119 0
-12107 12119 0
-5770 -12107 12120 0
-12108 12120 0
-5770 -12108 12121 0
-12109 12121 0
-5770 -12109 12122 0
-12110 12122 0
-5770 -12110 12123 0
-12111 12123 0
-5770 -12111 12124 0
-12112 12124 0
-5770 -12112 12125 0
-12113 12125 0
-5770 -12113 12126 0
-12114 12126 0
-5770 -12114 12127 0
-12115 12127 0
-5770 -12115 12128 0
-12116 12128 0
-5770 -12116 0
-5770 12129 0
-12117 12129 0
-5770 -12117 12130 0
-12118 12130 0
-5770 -12118 12131 0
-12119 12131 0
-5770 -12119 12132 0
-12120 12132 0
-5770 -12120 12133 0
-12121 12133 0
-5770 -12121 12134 0
-12122 12134 0
-5770 -12122 12135 0
-12123 12135 0
-5770 -12123 12136 0
-12124 12136 0
-5770 -12124 12137 0
-12125 12137 0
-5770 -12125 12138 0
-12126 12138 0
-5770 -12126 12139 0
-12127 12139 0
-5770 -12127 12140 0
-12128 12140 0
-5770 -12128 0
-5771 12141 0
-12129 12141 0
-5771 -12129 12142 0
-12130 12142 0
-5771 -12130 12143 0
-12131 12143 0
-5771 -12131 12144 0
-12132 12144 0
-5771 -12132 12145 0
-12133 12145 0
-5771 -12133 12146 0
-12134 12146 0
-5771 -12134 12147 0
-12135 12147 0
-5771 -12135 12148 0
-12136 12148 0
-5771 -12136 12149 0
-12137 12149 0
-5771 -12137 12150 0
-12138 12150 0
-5771 -12138 12151 0
-12139 12151 0
-5771 -12139 12152 0
-12140 12152 0
-5771 -12140 0
-5771 12153 0
-12141 12153 0
-5771 -12141 12154 0
-12142 12154 0
-5771 -12142 12155 0
-12143 12155 0
-5771 -12143 12156 0
-12144 12156 0
-5771 -12144 12157 0
-12145 12157 0
-5771 -12145 12158 0
-12146 12158 0
-5771 -12146 12159 0
-12147 12159 0
-5771 -12147 12160 0
-12148 12160 0
-5771 -12148 12161 0
-12149 12161 0
-5771 -12149 12162 0
-12150 12162 0
-5771 -12150 12163 0
-12151 12163 0
-5771 -12151 12164 0
-12152 12164 0
-5771 -12152 0
-5781 12165 0
-12153 12165 0
-5781 -12153 12166 0
-12154 12166 0
-5781 -12154 12167 0
-12155 12167 0
-5781 -12155 12168 0
-12156 12168 0
-5781 -12156 12169 0
-12157 12169 0
-5781 -12157 12170 0
-12158 12170 0
-5781 -12158 12171 0
-12159 12171 0
-5781 -12159 12172 0
-12160 12172 0
-5781 -12160 12173 0
-12161 12173 0
-5781 -12161 12174 0
-12162 12174 0
-5781 -12162 12175 0
-12163 12175 0
-5781 -12163 12176 0
-12164 12176 0
-5781 -12164 0
-5781 12177 0
-12165 12177 0
-5781 -12165 12178 0
-12166 12178 0
-5781 -12166 12179 0
-12167 12179 0
-5781 -12167 12180 0
-12168 12180 0
-5781 -12168 12181 0
-12169 12181 0
-5781 -12169 12182 0
-12170 12182 0
-5781 -12170 12183 0
-12171 12183 0
-5781 -12171 12184 0
-12172 12184 0
-5781 -12172 12185 0
-12173 12185 0
-5781 -12173 12186 0
-12174 12186 0
-5781 -12174 12187 0
-12175 12187 0
-5781 -12175 12188 0
-12176 12188 0
-5781 -12176 0
-5781 12189 0
-12177 12189 0
-5781 -12177 12190 0
-12178 12190 0
-5781 -12178 12191 0
-12179 12191 0
-5781 -12179 12192 0
-12180 12192 0
-5781 -12180 12193 0
-12181 12193 0
-5781 -12181 12194 0
-12182 12194 0
-5781 -12182 12195 0
-12183 12195 0
-5781 -12183 12196 0
-12184 12196 0
-5781 -12184 12197 0
-12185 12197 0
-5781 -12185 12198 0
-12186 12198 0
-5781 -12186 12199 0
-12187 12199 0
-5781 -12187 12200 0
-12188 12200 0
-5781 -12188 0
-5782 12201 0
-12189 12201 0
-5782 -12189 12202 0
-12190 12202 0
-5782 -12190 12203 0
-12191 12203 0
-5782 -12191 12204 0
-12192 12204 0
-5782 -12192 12205 0
-12193 12205 0
-5782 -12193 12206 0
-12194 12206 0
-5782 -12194 12207 0
-12195 12207 0
-5782 -12195 12208 0
-12196 12208 0
-5782 -12196 12209 0
-12197 12209 0
-5782 -12197 12210 0
-12198 12210 0
-5782 -12198 12211 0
-12199 12211 0
-5782 -12199 12212 0
-12200 12212 0
-5782 -12200 0
-5782 12213 0
-12201 12213 0
-5782 -12201 12214 0
-12202 12214 0
-5782 -12202 12215 0
-12203 12215 0
-5782 -12203 12216 0
-12204 12216 0
-5782 -12204 12217 0
-12205 12217 0
-5782 -12205 12218 0
-12206 12218 0
-5782 -12206 12219 0
-12207 12219 0
-5782 -12207 12220 0
-12208 12220 0
-5782 -12208 12221 0
-12209 12221 0
-5782 -12209 12222 0
-12210 12222 0
-5782 -12210 12223 0
-12211 12223 0
-5782 -12211 12224 0
-12212 12224 0
-5782 -12212 0
-5792 12225 0
-12213 12225 0
-5792 -12213 12226 0
-12214 12226 0
-5792 -12214 12227 0
-12215 12227 0
-5792 -12215 12228 0
-12216 12228 0
-5792 -12216 12229 0
-12217 12229 0
-5792 -12217 12230 0
-12218 12230 0
-5792 -12218 12231 0
-12219 12231 0
-5792 -12219 12232 0
-12220 12232 0
-5792 -12220 12233 0
-12221 12233 0
-5792 -12221 12234 0
-12222 12234 0
-5792 -12222 12235 0
-12223 12235 0
-5792 -12223 12236 0
-12224 12236 0
-5792 -12224 0
-5792 12237 0
-12225 12237 0
-5792 -12225 12238 0
-12226 12238 0
-5792 -12226 12239 0
-12227 12239 0
-5792 -12227 12240 0
-12228 12240 0
-5792 -12228 12241 0
-12229 12241 0
-5792 -12229 12242 0
-12230 12242 0
-5792 -12230 12243 0
-12231 12243 0
-5792 -12231 12244 0
-12232 12244 0
-5792 -12232 12245 0
-12233 12245 0
-5792 -12233 12246 0
-12234 12246 0
-5792 -12234 12247 0
-12235 12247 0
-5792 -12235 12248 0
-12236 12248 0
-5792 -12236 0
-5792 12249 0
-12237 12249 0
-5792 -12237 12250 0
-12238 12250 0
-5792 -12238 12251 0
-12239 12251 0
-5792 -12239 12252 0
-12240 12252 0
-5792 -12240 12253 0
-12241 12253 0
-5792 -12241 12254 0
-12242 12254 0
-5792 -12242 12255 0
-12243 12255 0
-5792 -12243 12256 0
-12244 12256 0
-5792 -12244 12257 0
-12245 12257 0
-5792 -12245 12258 0
-12246 12258 0
-5792 -12246 12259 0
-12247 12259 0
-5792 -12247 12260 0
-12248 12260 0
-5792 -12248 0
-5793 12261 0
-12249 12261 0
-5793 -12249 12262 0
-12250 12262 0
-5793 -12250 12263 0
-12251 12263 0
-5793 -12251 12264 0
-12252 12264 0
-5793 -12252 12265 0
-12253 12265 0
-5793 -12253 12266 0
-12254 12266 0
-5793 -12254 12267 0
-12255 12267 0
-5793 -12255 12268 0
-12256 12268 0
-5793 -12256 12269 0
-12257 12269 0
-5793 -12257 12270 0
-12258 12270 0
-5793 -12258 12271 0
-12259 12271 0
-5793 -12259 12272 0
-12260 12272 0
-5793 -12260 0
-5793 12273 0
-12261 12273 0
-5793 -12261 12274 0
-12262 12274 0
-5793 -12262 12275 0
-12263 12275 0
-5793 -12263 12276 0
-12264 12276 0
-5793 -12264 12277 0
-12265 12277 0
-5793 -12265 12278 0
-12266 12278 0
-5793 -12266 12279 0
-12267 12279 0
-5793 -12267 12280 0
-12268 12280 0
-5793 -12268 12281 0
-12269 12281 0
-5793 -12269 12282 0
-12270 12282 0
-5793 -12270 12283 0
-12271 12283 0
-5793 -12271 12284 0
-12272 12284 0
-5793 -12272 0
-5803 12285 0
-12273 12285 0
-5803 -12273 12286 0
-12274 12286 0
-5803 -12274 12287 0
-12275 12287 0
-5803 -12275 12288 0
-12276 12288 0
-5803 -12276 12289 0
-12277 12289 0
-5803 -12277 12290 0
-12278 12290 0
-5803 -12278 12291 0
-12279 12291 0
-5803 -12279 12292 0
-12280 12292 0
-5803 -12280 12293 0
-12281 12293 0
-5803 -12281 12294 0
-12282 12294 0
-5803 -12282 12295 0
-12283 12295 0
-5803 -12283 12296 0
-12284 12296 0
-5803 -12284 0
-5803 12297 0
-12285 12297 0
-5803 -12285 12298 0
-12286 12298 0
-5803 -12286 12299 0
-12287 12299 0
-5803 -12287 12300 0
-12288 12300 0
-5803 -12288 12301 0
-12289 12301 0
-5803 -12289 12302 0
-12290 12302 0
-5803 -12290 12303 0
-12291 12303 0
-5803 -12291 12304 0
-12292 12304 0
-5803 -12292 12305 0
-12293 12305 0
-5803 -12293 12306 0
-12294 12306 0
-5803 -12294 12307 0
-12295 12307 0
-5803 -12295 12308 0
-12296 12308 0
-5803 -12296 0
-5803 12309 0
-12297 12309 0
-5803 -12297 12310 0
-12298 12310 0
-5803 -12298 12311 0
-12299 12311 0
-5803 -12299 12312 0
-12300 12312 0
-5803 -12300 12313 0
-12301 12313 0
-5803 -12301 12314 0
-12302 12314 0
-5803 -12302 12315 0
-12303 12315 0
-5803 -12303 12316 0
-12304 12316 0
-5803 -12304 12317 0
-12305 12317 0
-5803 -12305 12318 0
-12306 12318 0
-5803 -12306 12319 0
-12307 12319 0
-5803 -12307 12320 0
-12308 12320 0
-5803 -12308 0
-5804 12321 0
-12309 12321 0
-5804 -12309 12322 0
-12310 12322 0
-5804 -12310 12323 0
-12311 12323 0
-5804 -12311 12324 0
-12312 12324 0
-5804 -12312 12325 0
-12313 12325 0
-5804 -12313 12326 0
-12314 12326 0
-5804 -12314 12327 0
-12315 12327 0
-5804 -12315 12328 0
-12316 12328 0
-5804 -12316 12329 0
-12317 12329 0
-5804 -12317 12330 0
-12318 12330 0
-5804 -12318 12331 0
-12319 12331 0
-5804 -12319 12332 0
-12320 12332 0
-5804 -12320 0
-5804 12333 0
-12321 12333 0
-5804 -12321 12334 0
-12322 12334 0
-5804 -12322 12335 0
-12323 12335 0
-5804 -12323 12336 0
-12324 12336 0
-5804 -12324 12337 0
-12325 12337 0
-5804 -12325 12338 0
-12326 12338 0
-5804 -12326 12339 0
-12327 12339 0
-5804 -12327 12340 0
-12328 12340 0
-5804 -12328 12341 0
-12329 12341 0
-5804 -12329 12342 0
-12330 12342 0
-5804 -12330 12343 0
-12331 12343 0
-5804 -12331 12344 0
-12332 12344 0
-5804 -12332 0
-5814 12345 0
-12333 12345 0
-5814 -12333 12346 0
-12334 12346 0
-5814 -12334 12347 0
-12335 12347 0
-5814 -12335 12348 0
-12336 12348 0
-5814 -12336 12349 0
-12337 12349 0
-5814 -12337 12350 0
-12338 12350 0
-5814 -12338 12351 0
-12339 12351 0
-5814 -12339 12352 0
-12340 12352 0
-5814 -12340 12353 0
-12341 12353 0
-5814 -12341 12354 0
-12342 12354 0
-5814 -12342 12355 0
-12343 12355 0
-5814 -12343 12356 0
-12344 12356 0
-5814 -12344 0
-5814 12357 0
-12345 12357 0
-5814 -12345 12358 0
-12346 12358 0
-5814 -12346 12359 0
-12347 12359 0
-5814 -12347 12360 0
-12348 12360 0
-5814 -12348 12361 0
-12349 12361 0
-5814 -12349 12362 0
-12350 12362 0
-5814 -12350 12363 0
-12351 12363 0
-5814 -12351 12364 0
-12352 12364 0
-5814 -12352 12365 0
-12353 12365 0
-5814 -12353 12366 0
-12354 12366 0
-5814 -12354 12367 0
-12355 12367 0
-5814 -12355 12368 0
-12356 12368 0
-5814 -12356 0
-5814 12369 0
-12357 12369 0
-5814 -12357 12370 0
-12358 12370 0
-5814 -12358 12371 0
-12359 12371 0
-5814 -12359 12372 0
-12360 12372 0
-5814 -12360 12373 0
-12361 12373 0
-5814 -12361 12374 0
-12362 12374 0
-5814 -12362 12375 0
-12363 12375 0
-5814 -12363 12376 0
-12364 12376 0
-5814 -12364 12377 0
-12365 12377 0
-5814 -12365 12378 0
-12366 12378 0
-5814 -12366 12379 0
-12367 12379 0
-5814 -12367 12380 0
-12368 12380 0
-5814 -12368 0
-5815 12381 0
-12369 12381 0
-5815 -12369 12382 0
-12370 12382 0
-5815 -12370 12383 0
-12371 12383 0
-5815 -12371 12384 0
-12372 12384 0
-5815 -12372 12385 0
-12373 12385 0
-5815 -12373 12386 0
-12374 12386 0
-5815 -12374 12387 0
-12375 12387 0
-5815 -12375 12388 0
-12376 12388 0
-5815 -12376 12389 0
-12377 12389 0
-5815 -12377 12390 0
-12378 12390 0
-5815 -12378 12391 0
-12379 12391 0
-5815 -12379 12392 0
-12380 12392 0
-5815 -12380 0
-5815 12393 0
-12381 12393 0
-5815 -12381 12394 0
-12382 12394 0
-5815 -12382 12395 0
-12383 12395 0
-5815 -12383 12396 0
-12384 12396 0
-5815 -12384 12397 0
-12385 12397 0
-5815 -12385 12398 0
-12386 12398 0
-5815 -12386 12399 0
-12387 12399 0
-5815 -12387 12400 0
-12388 12400 0
-5815 -12388 12401 0
-12389 12401 0
-5815 -12389 12402 0
-12390 12402 0
-5815 -12390 12403 0
-12391 12403 0
-5815 -12391 12404 0
-12392 12404 0
-5815 -12392 0
-5825 12405 0
-12393 12405 0
-5825 -12393 12406 0
-12394 12406 0
-5825 -12394 12407 0
-12395 12407 0
-5825 -12395 12408 0
-12396 12408 0
-5825 -12396 12409 0
-12397 12409 0
-5825 -12397 12410 0
-12398 12410 0
-5825 -12398 12411 0
-12399 12411 0
-5825 -12399 12412 0
-12400 12412 0
-5825 -12400 12413 0
-12401 12413 0
-5825 -12401 12414 0
-12402 12414 0
-5825 -12402 12415 0
-12403 12415 0
-5825 -12403 12416 0
-12404 12416 0
-5825 -12404 0
-5825 12417 0
-12405 12417 0
-5825 -12405 12418 0
-12406 12418 0
-5825 -12406 12419 0
-12407 12419 0
-5825 -12407 12420 0
-12408 12420 0
-5825 -12408 12421 0
-12409 12421 0
-5825 -12409 12422 0
-12410 12422 0
-5825 -12410 12423 0
-12411 12423 0
-5825 -12411 12424 0
-12412 12424 0
-5825 -12412 12425 0
-12413 12425 0
-5825 -12413 12426 0
-12414 12426 0
-5825 -12414 12427 0
-12415 12427 0
-5825 -12415 12428 0
-12416 12428 0
-5825 -12416 0
-5825 12429 0
-12417 12429 0
-5825 -12417 12430 0
-12418 12430 0
-5825 -12418 12431 0
-12419 12431 0
-5825 -12419 12432 0
-12420 12432 0
-5825 -12420 12433 0
-12421 12433 0
-5825 -12421 12434 0
-12422 12434 0
-5825 -12422 12435 0
-12423 12435 0
-5825 -12423 12436 0
-12424 12436 0
-5825 -12424 12437 0
-12425 12437 0
-5825 -12425 12438 0
-12426 12438 0
-5825 -12426 12439 0
-12427 12439 0
-5825 -12427 12440 0
-12428 12440 0
-5825 -12428 0
-5826 12441 0
-12429 12441 0
-5826 -12429 12442 0
-12430 12442 0
-5826 -12430 12443 0
-12431 12443 0
-5826 -12431 12444 0
-12432 12444 0
-5826 -12432 12445 0
-12433 12445 0
-5826 -12433 12446 0
-12434 12446 0
-5826 -12434 12447 0
-12435 12447 0
-5826 -12435 12448 0
-12436 12448 0
-5826 -12436 12449 0
-12437 12449 0
-5826 -12437 12450 0
-12438 12450 0
-5826 -12438 12451 0
-12439 12451 0
-5826 -12439 12452 0
-12440 12452 0
-5826 -12440 0
-5826 12453 0
-12441 12453 0
-5826 -12441 12454 0
-12442 12454 0
-5826 -12442 12455 0
-12443 12455 0
-5826 -12443 12456 0
-12444 12456 0
-5826 -12444 12457 0
-12445 12457 0
-5826 -12445 12458 0
-12446 12458 0
-5826 -12446 12459 0
-12447 12459 0
-5826 -12447 12460 0
-12448 12460 0
-5826 -12448 12461 0
-12449 12461 0
-5826 -12449 12462 0
-12450 12462 0
-5826 -12450 12463 0
-12451 12463 0
-5826 -12451 12464 0
-12452 12464 0
-5826 -12452 0
-5836 12465 0
-12453 12465 0
-5836 -12453 12466 0
-12454 12466 0
-5836 -12454 12467 0
-12455 12467 0
-5836 -12455 12468 0
-12456 12468 0
-5836 -12456 12469 0
-12457 12469 0
-5836 -12457 12470 0
-12458 12470 0
-5836 -12458 12471 0
-12459 12471 0
-5836 -12459 12472 0
-12460 12472 0
-5836 -12460 12473 0
-12461 12473 0
-5836 -12461 12474 0
-12462 12474 0
-5836 -12462 12475 0
-12463 12475 0
-5836 -12463 12476 0
-12464 12476 0
-5836 -12464 0
-5836 12477 0
-12465 12477 0
-5836 -12465 12478 0
-12466 12478 0
-5836 -12466 12479 0
-12467 12479 0
-5836 -12467 12480 0
-12468 12480 0
-5836 -12468 12481 0
-12469 12481 0
-5836 -12469 12482 0
-12470 12482 0
-5836 -12470 12483 0
-12471 12483 0
-5836 -12471 12484 0
-12472 12484 0
-5836 -12472 12485 0
-12473 12485 0
-5836 -12473 12486 0
-12474 12486 0
-5836 -12474 12487 0
-12475 12487 0
-5836 -12475 12488 0
-12476 12488 0
-5836 -12476 0
-5836 12489 0
-12477 12489 0
-5836 -12477 12490 0
-12478 12490 0
-5836 -12478 12491 0
-12479 12491 0
-5836 -12479 12492 0
-12480 12492 0
-5836 -12480 12493 0
-12481 12493 0
-5836 -12481 12494 0
-12482 12494 0
-5836 -12482 12495 0
-12483 12495 0
-5836 -12483 12496 0
-12484 12496 0
-5836 -12484 12497 0
-12485 12497 0
-5836 -12485 12498 0
-12486 12498 0
-5836 -12486 12499 0
-12487 12499 0
-5836 -12487 12500 0
-12488 12500 0
-5836 -12488 0
-5837 12501 0
-12489 12501 0
-5837 -12489 12502 0
-12490 12502 0
-5837 -12490 12503 0
-12491 12503 0
-5837 -12491 12504 0
-12492 12504 0
-5837 -12492 12505 0
-12493 12505 0
-5837 -12493 12506 0
-12494 12506 0
-5837 -12494 12507 0
-12495 12507 0
-5837 -12495 12508 0
-12496 12508 0
-5837 -12496 12509 0
-12497 12509 0
-5837 -12497 12510 0
-12498 12510 0
-5837 -12498 12511 0
-12499 12511 0
-5837 -12499 12512 0
-12500 12512 0
-5837 -12500 0
-5837 12513 0
-12501 12513 0
-5837 -12501 12514 0
-12502 12514 0
-5837 -12502 12515 0
-12503 12515 0
-5837 -12503 12516 0
-12504 12516 0
-5837 -12504 12517 0
-12505 12517 0
-5837 -12505 12518 0
-12506 12518 0
-5837 -12506 12519 0
-12507 12519 0
-5837 -12507 12520 0
-12508 12520 0
-5837 -12508 12521 0
-12509 12521 0
-5837 -12509 12522 0
-12510 12522 0
-5837 -12510 12523 0
-12511 12523 0
-5837 -12511 12524 0
-12512 12524 0
-5837 -12512 0
-5847 12525 0
-12513 12525 0
-5847 -12513 12526 0
-12514 12526 0
-5847 -12514 12527 0
-12515 12527 0
-5847 -12515 12528 0
-12516 12528 0
-5847 -12516 12529 0
-12517 12529 0
-5847 -12517 12530 0
-12518 12530 0
-5847 -12518 12531 0
-12519 12531 0
-5847 -12519 12532 0
-12520 12532 0
-5847 -12520 12533 0
-12521 12533 0
-5847 -12521 12534 0
-12522 12534 0
-5847 -12522 12535 0
-12523 12535 0
-5847 -12523 12536 0
-12524 12536 0
-5847 -12524 0
-5847 12537 0
-12525 12537 0
-5847 -12525 12538 0
-12526 12538 0
-5847 -12526 12539 0
-12527 12539 0
-5847 -12527 12540 0
-12528 12540 0
-5847 -12528 12541 0
-12529 12541 0
-5847 -12529 12542 0
-12530 12542 0
-5847 -12530 12543 0
-12531 12543 0
-5847 -12531 12544 0
-12532 12544 0
-5847 -12532 12545 0
-12533 12545 0
-5847 -12533 12546 0
-12534 12546 0
-5847 -12534 12547 0
-12535 12547 0
-5847 -12535 12548 0
-12536 12548 0
-5847 -12536 0
-5847 12549 0
-12537 12549 0
-5847 -12537 12550 0
-12538 12550 0
-5847 -12538 12551 0
-12539 12551 0
-5847 -12539 12552 0
-12540 12552 0
-5847 -12540 12553 0
-12541 12553 0
-5847 -12541 12554 0
-12542 12554 0
-5847 -12542 12555 0
-12543 12555 0
-5847 -12543 12556 0
-12544 12556 0
-5847 -12544 12557 0
-12545 12557 0
-5847 -12545 12558 0
-12546 12558 0
-5847 -12546 12559 0
-12547 12559 0
-5847 -12547 12560 0
-12548 12560 0
-5847 -12548 0
-5848 12561 0
-12549 12561 0
-5848 -12549 12562 0
-12550 12562 0
-5848 -12550 12563 0
-12551 12563 0
-5848 -12551 12564 0
-12552 12564 0
-5848 -12552 12565 0
-12553 12565 0
-5848 -12553 12566 0
-12554 12566 0
-5848 -12554 12567 0
-12555 12567 0
-5848 -12555 12568 0
-12556 12568 0
-5848 -12556 12569 0
-12557 12569 0
-5848 -12557 12570 0
-12558 12570 0
-5848 -12558 12571 0
-12559 12571 0
-5848 -12559 12572 0
-12560 12572 0
-5848 -12560 0
-5848 12573 0
-12561 12573 0
-5848 -12561 12574 0
-12562 12574 0
-5848 -12562 12575 0
-12563 12575 0
-5848 -12563 12576 0
-12564 12576 0
-5848 -12564 12577 0
-12565 12577 0
-5848 -12565 12578 0
-12566 12578 0
-5848 -12566 12579 0
-12567 12579 0
-5848 -12567 12580 0
-12568 12580 0
-5848 -12568 12581 0
-12569 12581 0
-5848 -12569 12582 0
-12570 12582 0
-5848 -12570 12583 0
-12571 12583 0
-5848 -12571 12584 0
-12572 12584 0
-5848 -12572 0
-5858 12585 0
-12573 12585 0
-5858 -12573 12586 0
-12574 12586 0
-5858 -12574 12587 0
-12575 12587 0
-5858 -12575 12588 0
-12576 12588 0
-5858 -12576 12589 0
-12577 12589 0
-5858 -12577 12590 0
-12578 12590 0
-5858 -12578 12591 0
-12579 12591 0
-5858 -12579 12592 0
-12580 12592 0
-5858 -12580 12593 0
-12581 12593 0
-5858 -12581 12594 0
-12582 12594 0
-5858 -12582 12595 0
-12583 12595 0
-5858 -12583 12596 0
-12584 12596 0
-5858 -12584 0
-5858 12597 0
-12585 12597 0
-5858 -12585 12598 0
-12586 12598 0
-5858 -12586 12599 0
-12587 12599 0
-5858 -12587 12600 0
-12588 12600 0
-5858 -12588 12601 0
-12589 12601 0
-5858 -12589 12602 0
-12590 12602 0
-5858 -12590 12603 0
-12591 12603 0
-5858 -12591 12604 0
-12592 12604 0
-5858 -12592 12605 0
-12593 12605 0
-5858 -12593 12606 0
-12594 12606 0
-5858 -12594 12607 0
-12595 12607 0
-5858 -12595 12608 0
-12596 12608 0
-5858 -12596 0
-5858 12609 0
-12597 12609 0
-5858 -12597 12610 0
-12598 12610 0
-5858 -12598 12611 0
-12599 12611 0
-5858 -12599 12612 0
-12600 12612 0
-5858 -12600 12613 0
-12601 12613 0
-5858 -12601 12614 0
-12602 12614 0
-5858 -12602 12615 0
-12603 12615 0
-5858 -12603 12616 0
-12604 12616 0
-5858 -12604 12617 0
-12605 12617 0
-5858 -12605 12618 0
-12606 12618 0
-5858 -12606 12619 0
-12607 12619 0
-5858 -12607 12620 0
-12608 12620 0
-5858 -12608 0
-5859 12621 0
-12609 12621 0
-5859 -12609 12622 0
-12610 12622 0
-5859 -12610 12623 0
-12611 12623 0
-5859 -12611 12624 0
-12612 12624 0
-5859 -12612 12625 0
-12613 12625 0
-5859 -12613 12626 0
-12614 12626 0
-5859 -12614 12627 0
-12615 12627 0
-5859 -12615 12628 0
-12616 12628 0
-5859 -12616 12629 0
-12617 12629 0
-5859 -12617 12630 0
-12618 12630 0
-5859 -12618 12631 0
-12619 12631 0
-5859 -12619 12632 0
-12620 12632 0
-5859 -12620 0
-5859 -12632 0
