p cnf 16004 38615
-385 257 0
385 -257 0
-386 258 0
386 -258 0
-387 259 0
387 -259 0
-388 260 0
388 -260 0
-389 261 0
389 -261 0
-390 262 0
390 -262 0
-391 263 0
391 -263 0
-392 264 0
392 -264 0
-393 265 0
393 -265 0
-394 266 0
394 -266 0
-395 267 0
395 -267 0
-396 268 0
396 -268 0
-397 269 0
397 -269 0
-398 270 0
398 -270 0
-399 271 0
399 -271 0
-400 272 0
400 -272 0
-401 273 0
401 -273 0
-402 274 0
402 -274 0
-403 275 0
403 -275 0
-404 276 0
404 -276 0
-405 277 0
405 -277 0
-406 278 0
406 -278 0
-407 279 0
407 -279 0
-408 280 0
408 -280 0
-409 281 0
409 -281 0
-410 282 0
410 -282 0
-411 283 0
411 -283 0
-412 284 0
412 -284 0
-413 285 0
413 -285 0
-414 286 0
414 -286 0
-415 287 0
415 -287 0
-416 288 0
416 -288 0
-417 289 0
417 -289 0
-418 290 0
418 -290 0
-419 291 0
419 -291 0
-420 292 0
420 -292 0
-421 293 0
421 -293 0
-422 294 0
422 -294 0
-423 295 0
423 -295 0
-424 296 0
424 -296 0
-425 297 0
425 -297 0
-426 298 0
426 -298 0
-427 299 0
427 -299 0
-428 300 0
428 -300 0
-429 301 0
429 -301 0
-430 302 0
430 -302 0
-431 303 0
431 -303 0
-432 304 0
432 -304 0
-433 305 0
433 -305 0
-434 306 0
434 -306 0
-435 307 0
435 -307 0
-436 308 0
436 -308 0
-437 309 0
437 -309 0
-438 310 0
438 -310 0
-439 311 0
439 -311 0
-440 312 0
440 -312 0
-441 313 0
441 -313 0
-442 314 0
442 -314 0
-443 315 0
443 -315 0
-444 316 0
444 -316 0
-445 317 0
445 -317 0
-446 318 0
446 -318 0
-447 319 0
447 -319 0
-448 320 0
448 -320 0
-449 321 0
449 -321 0
-450 322 0
450 -322 0
-451 323 0
451 -323 0
-452 324 0
452 -324 0
-453 325 0
453 -325 0
-454 326 0
454 -326 0
-455 327 0
455 -327 0
-456 328 0
456 -328 0
-457 329 0
457 -329 0
-458 330 0
458 -330 0
-459 331 0
459 -331 0
-460 332 0
460 -332 0
-461 333 0
461 -333 0
-462 334 0
462 -334 0
-463 335 0
463 -335 0
-464 336 0
464 -336 0
-465 337 0
465 -337 0
-466 338 0
466 -338 0
-467 339 0
467 -339 0
-468 340 0
468 -340 0
-469 341 0
469 -341 0
-470 342 0
470 -342 0
-471 343 0
471 -343 0
-472 344 0
472 -344 0
-473 345 0
473 -345 0
-474 346 0
474 -346 0
-475 347 0
475 -347 0
-476 348 0
476 -348 0
-477 349 0
477 -349 0
-478 350 0
478 -350 0
-479 351 0
479 -351 0
-480 352 0
480 -352 0
-481 353 0
481 -353 0
-482 354 0
482 -354 0
-483 355 0
483 -355 0
-484 356 0
484 -356 0
-485 357 0
485 -357 0
-486 358 0
486 -358 0
-487 359 0
487 -359 0
-488 360 0
488 -360 0
-489 361 0
489 -361 0
-490 362 0
490 -362 0
-491 363 0
491 -363 0
-492 364 0
492 -364 0
-493 365 0
493 -365 0
-494 366 0
494 -366 0
-495 367 0
495 -367 0
-496 368 0
496 -368 0
-497 369 0
497 -369 0
-498 370 0
498 -370 0
-499 371 0
499 -371 0
-500 372 0
500 -372 0
-501 373 0
501 -373 0
-502 374 0
502 -374 0
-503 375 0
503 -375 0
-504 376 0
504 -376 0
-505 377 0
505 -377 0
-506 378 0
506 -378 0
-507 379 0
507 -379 0
-508 380 0
508 -380 0
-509 381 0
509 -381 0
-510 382 0
510 -382 0
-511 383 0
511 -383 0
-512 384 0
512 -384 0
641 -513 0
-641 513 0
645 -514 0
-645 514 0
649 -515 0
-649 515 0
653 -516 0
-653 516 0
657 -517 0
-657 517 0
661 -518 0
-661 518 0
665 -519 0
-665 519 0
669 -520 0
-669 520 0
673 -521 0
-673 521 0
677 -522 0
-677 522 0
681 -523 0
-681 523 0
685 -524 0
-685 524 0
689 -525 0
-689 525 0
693 -526 0
-693 526 0
697 -527 0
-697 527 0
701 -528 0
-701 528 0
705 -529 0
-705 529 0
709 -530 0
-709 530 0
713 -531 0
-713 531 0
717 -532 0
-717 532 0
721 -533 0
-721 533 0
725 -534 0
-725 534 0
729 -535 0
-729 535 0
733 -536 0
-733 536 0
737 -537 0
-737 537 0
741 -538 0
-741 538 0
745 -539 0
-745 539 0
749 -540 0
-749 540 0
753 -541 0
-753 541 0
757 -542 0
-757 542 0
761 -543 0
-761 543 0
765 -544 0
-765 544 0
642 -545 0
-642 545 0
646 -546 0
-646 546 0
650 -547 0
-650 547 0
654 -548 0
-654 548 0
658 -549 0
-658 549 0
662 -550 0
-662 550 0
666 -551 0
-666 551 0
670 -552 0
-670 552 0
674 -553 0
-674 553 0
678 -554 0
-678 554 0
682 -555 0
-682 555 0
686 -556 0
-686 556 0
690 -557 0
-690 557 0
694 -558 0
-694 558 0
698 -559 0
-698 559 0
702 -560 0
-702 560 0
706 -561 0
-706 561 0
710 -562 0
-710 562 0
714 -563 0
-714 563 0
718 -564 0
-718 564 0
722 -565 0
-722 565 0
726 -566 0
-726 566 0
730 -567 0
-730 567 0
734 -568 0
-734 568 0
738 -569 0
-738 569 0
742 -570 0
-742 570 0
746 -571 0
-746 571 0
750 -572 0
-750 572 0
754 -573 0
-754 573 0
758 -574 0
-758 574 0
762 -575 0
-762 575 0
766 -576 0
-766 576 0
643 -577 0
-643 577 0
647 -578 0
-647 578 0
651 -579 0
-651 579 0
655 -580 0
-655 580 0
659 -581 0
-659 581 0
663 -582 0
-663 582 0
667 -583 0
-667 583 0
671 -584 0
-671 584 0
675 -585 0
-675 585 0
679 -586 0
-679 586 0
683 -587 0
-683 587 0
687 -588 0
-687 588 0
691 -589 0
-691 589 0
695 -590 0
-695 590 0
699 -591 0
-699 591 0
703 -592 0
-703 592 0
707 -593 0
-707 593 0
711 -594 0
-711 594 0
715 -595 0
-715 595 0
719 -596 0
-719 596 0
723 -597 0
-723 597 0
727 -598 0
-727 598 0
731 -599 0
-731 599 0
735 -600 0
-735 600 0
739 -601 0
-739 601 0
743 -602 0
-743 602 0
747 -603 0
-747 603 0
751 -604 0
-751 604 0
755 -605 0
-755 605 0
759 -606 0
-759 606 0
763 -607 0
-763 607 0
767 -608 0
-767 608 0
644 -609 0
-644 609 0
648 -610 0
-648 610 0
652 -611 0
-652 611 0
656 -612 0
-656 612 0
660 -613 0
-660 613 0
664 -614 0
-664 614 0
668 -615 0
-668 615 0
672 -616 0
-672 616 0
676 -617 0
-676 617 0
680 -618 0
-680 618 0
684 -619 0
-684 619 0
688 -620 0
-688 620 0
692 -621 0
-692 621 0
696 -622 0
-696 622 0
700 -623 0
-700 623 0
704 -624 0
-704 624 0
708 -625 0
-708 625 0
712 -626 0
-712 626 0
716 -627 0
-716 627 0
720 -628 0
-720 628 0
724 -629 0
-724 629 0
728 -630 0
-728 630 0
732 -631 0
-732 631 0
736 -632 0
-736 632 0
740 -633 0
-740 633 0
744 -634 0
-744 634 0
748 -635 0
-748 635 0
752 -636 0
-752 636 0
756 -637 0
-756 637 0
760 -638 0
-760 638 0
764 -639 0
-764 639 0
768 -640 0
-768 640 0
897 -769 0
-897 769 0
898 -770 0
-898 770 0
899 -771 0
-899 771 0
900 -772 0
-900 772 0
901 -773 0
-901 773 0
902 -774 0
-902 774 0
903 -775 0
-903 775 0
904 -776 0
-904 776 0
905 -777 0
-905 777 0
906 -778 0
-906 778 0
907 -779 0
-907 779 0
908 -780 0
-908 780 0
909 -781 0
-909 781 0
910 -782 0
-910 782 0
911 -783 0
-911 783 0
912 -784 0
-912 784 0
913 -785 0
-913 785 0
914 -786 0
-914 786 0
915 -787 0
-915 787 0
916 -788 0
-916 788 0
917 -789 0
-917 789 0
918 -790 0
-918 790 0
919 -791 0
-919 791 0
920 -792 0
-920 792 0
921 -793 0
-921 793 0
922 -794 0
-922 794 0
923 -795 0
-923 795 0
924 -796 0
-924 796 0
925 -797 0
-925 797 0
926 -798 0
-926 798 0
927 -799 0
-927 799 0
928 -800 0
-928 800 0
929 -801 0
-929 801 0
930 -802 0
-930 802 0
931 -803 0
-931 803 0
932 -804 0
-932 804 0
933 -805 0
-933 805 0
934 -806 0
-934 806 0
935 -807 0
-935 807 0
936 -808 0
-936 808 0
937 -809 0
-937 809 0
938 -810 0
-938 810 0
939 -811 0
-939 811 0
940 -812 0
-940 812 0
941 -813 0
-941 813 0
942 -814 0
-942 814 0
943 -815 0
-943 815 0
944 -816 0
-944 816 0
945 -817 0
-945 817 0
946 -818 0
-946 818 0
947 -819 0
-947 819 0
948 -820 0
-948 820 0
949 -821 0
-949 821 0
950 -822 0
-950 822 0
951 -823 0
-951 823 0
952 -824 0
-952 824 0
953 -825 0
-953 825 0
954 -826 0
-954 826 0
955 -827 0
-955 827 0
956 -828 0
-956 828 0
957 -829 0
-957 829 0
958 -830 0
-958 830 0
959 -831 0
-959 831 0
960 -832 0
-960 832 0
961 -833 0
-961 833 0
962 -834 0
-962 834 0
963 -835 0
-963 835 0
964 -836 0
-964 836 0
965 -837 0
-965 837 0
966 -838 0
-966 838 0
967 -839 0
-967 839 0
968 -840 0
-968 840 0
969 -841 0
-969 841 0
970 -842 0
-970 842 0
971 -843 0
-971 843 0
972 -844 0
-972 844 0
973 -845 0
-973 845 0
974 -846 0
-974 846 0
975 -847 0
-975 847 0
976 -848 0
-976 848 0
977 -849 0
-977 849 0
978 -850 0
-978 850 0
979 -851 0
-979 851 0
980 -852 0
-980 852 0
981 -853 0
-981 853 0
982 -854 0
-982 854 0
983 -855 0
-983 855 0
984 -856 0
-984 856 0
985 -857 0
-985 857 0
986 -858 0
-986 858 0
987 -859 0
-987 859 0
988 -860 0
-988 860 0
989 -861 0
-989 861 0
990 -862 0
-990 862 0
991 -863 0
-991 863 0
992 -864 0
-992 864 0
993 -865 0
-993 865 0
994 -866 0
-994 866 0
995 -867 0
-995 867 0
996 -868 0
-996 868 0
997 -869 0
-997 869 0
998 -870 0
-998 870 0
999 -871 0
-999 871 0
1000 -872 0
-1000 872 0
1001 -873 0
-1001 873 0
1002 -874 0
-1002 874 0
1003 -875 0
-1003 875 0
1004 -876 0
-1004 876 0
1005 -877 0
-1005 877 0
1006 -878 0
-1006 878 0
1007 -879 0
-1007 879 0
1008 -880 0
-1008 880 0
1009 -881 0
-1009 881 0
1010 -882 0
-1010 882 0
1011 -883 0
-1011 883 0
1012 -884 0
-1012 884 0
1013 -885 0
-1013 885 0
1014 -886 0
-1014 886 0
1015 -887 0
-1015 887 0
1016 -888 0
-1016 888 0
1017 -889 0
-1017 889 0
1018 -890 0
-1018 890 0
1019 -891 0
-1019 891 0
1020 -892 0
-1020 892 0
1021 -893 0
-1021 893 0
1022 -894 0
-1022 894 0
1023 -895 0
-1023 895 0
1024 -896 0
-1024 896 0
-1409 1281 0
1409 -1281 0
-1410 1282 0
1410 -1282 0
-1411 1283 0
1411 -1283 0
-1412 1284 0
1412 -1284 0
-1413 1285 0
1413 -1285 0
-1414 1286 0
1414 -1286 0
-1415 1287 0
1415 -1287 0
-1416 1288 0
1416 -1288 0
-1417 1289 0
1417 -1289 0
-1418 1290 0
1418 -1290 0
-1419 1291 0
1419 -1291 0
-1420 1292 0
1420 -1292 0
-1421 1293 0
1421 -1293 0
-1422 1294 0
1422 -1294 0
-1423 1295 0
1423 -1295 0
-1424 1296 0
1424 -1296 0
-1425 1297 0
1425 -1297 0
-1426 1298 0
1426 -1298 0
-1427 1299 0
1427 -1299 0
-1428 1300 0
1428 -1300 0
-1429 1301 0
1429 -1301 0
-1430 1302 0
1430 -1302 0
-1431 1303 0
1431 -1303 0
-1432 1304 0
1432 -1304 0
-1433 1305 0
1433 -1305 0
-1434 1306 0
1434 -1306 0
-1435 1307 0
1435 -1307 0
-1436 1308 0
1436 -1308 0
-1437 1309 0
1437 -1309 0
-1438 1310 0
1438 -1310 0
-1439 1311 0
1439 -1311 0
-1440 1312 0
1440 -1312 0
-1441 1313 0
1441 -1313 0
-1442 1314 0
1442 -1314 0
-1443 1315 0
1443 -1315 0
-1444 1316 0
1444 -1316 0
-1445 1317 0
1445 -1317 0
-1446 1318 0
1446 -1318 0
-1447 1319 0
1447 -1319 0
-1448 1320 0
1448 -1320 0
-1449 1321 0
1449 -1321 0
-1450 1322 0
1450 -1322 0
-1451 1323 0
1451 -1323 0
-1452 1324 0
1452 -1324 0
-1453 1325 0
1453 -1325 0
-1454 1326 0
1454 -1326 0
-1455 1327 0
1455 -1327 0
-1456 1328 0
1456 -1328 0
-1457 1329 0
1457 -1329 0
-1458 1330 0
1458 -1330 0
-1459 1331 0
1459 -1331 0
-1460 1332 0
1460 -1332 0
-1461 1333 0
1461 -1333 0
-1462 1334 0
1462 -1334 0
-1463 1335 0
1463 -1335 0
-1464 1336 0
1464 -1336 0
-1465 1337 0
1465 -1337 0
-1466 1338 0
1466 -1338 0
-1467 1339 0
1467 -1339 0
-1468 1340 0
1468 -1340 0
-1469 1341 0
1469 -1341 0
-1470 1342 0
1470 -1342 0
-1471 1343 0
1471 -1343 0
-1472 1344 0
1472 -1344 0
-1473 1345 0
1473 -1345 0
-1474 1346 0
1474 -1346 0
-1475 1347 0
1475 -1347 0
-1476 1348 0
1476 -1348 0
-1477 1349 0
1477 -1349 0
-1478 1350 0
1478 -1350 0
-1479 1351 0
1479 -1351 0
-1480 1352 0
1480 -1352 0
-1481 1353 0
1481 -1353 0
-1482 1354 0
1482 -1354 0
-1483 1355 0
1483 -1355 0
-1484 1356 0
1484 -1356 0
-1485 1357 0
1485 -1357 0
-1486 1358 0
1486 -1358 0
-1487 1359 0
1487 -1359 0
-1488 1360 0
1488 -1360 0
-1489 1361 0
1489 -1361 0
-1490 1362 0
1490 -1362 0
-1491 1363 0
1491 -1363 0
-1492 1364 0
1492 -1364 0
-1493 1365 0
1493 -1365 0
-1494 1366 0
1494 -1366 0
-1495 1367 0
1495 -1367 0
-1496 1368 0
1496 -1368 0
-1497 1369 0
1497 -1369 0
-1498 1370 0
1498 -1370 0
-1499 1371 0
1499 -1371 0
-1500 1372 0
1500 -1372 0
-1501 1373 0
1501 -1373 0
-1502 1374 0
1502 -1374 0
-1503 1375 0
1503 -1375 0
-1504 1376 0
1504 -1376 0
-1505 1377 0
1505 -1377 0
-1506 1378 0
1506 -1378 0
-1507 1379 0
1507 -1379 0
-1508 1380 0
1508 -1380 0
-1509 1381 0
1509 -1381 0
-1510 1382 0
1510 -1382 0
-1511 1383 0
1511 -1383 0
-1512 1384 0
1512 -1384 0
-1513 1385 0
1513 -1385 0
-1514 1386 0
1514 -1386 0
-1515 1387 0
1515 -1387 0
-1516 1388 0
1516 -1388 0
-1517 1389 0
1517 -1389 0
-1518 1390 0
1518 -1390 0
-1519 1391 0
1519 -1391 0
-1520 1392 0
1520 -1392 0
-1521 1393 0
1521 -1393 0
-1522 1394 0
1522 -1394 0
-1523 1395 0
1523 -1395 0
-1524 1396 0
1524 -1396 0
-1525 1397 0
1525 -1397 0
-1526 1398 0
1526 -1398 0
-1527 1399 0
1527 -1399 0
-1528 1400 0
1528 -1400 0
-1529 1401 0
1529 -1401 0
-1530 1402 0
1530 -1402 0
-1531 1403 0
1531 -1403 0
-1532 1404 0
1532 -1404 0
-1533 1405 0
1533 -1405 0
-1534 1406 0
1534 -1406 0
-1535 1407 0
1535 -1407 0
-1536 1408 0
1536 -1408 0
1537 1539 1541 1542 1543 -1545 0
1537 -1539 -1540 -1542 -1543 1544 0
1538 -1539 1540 1541 -1542 1544 0
1537 1538 -1540 -1541 -1543 1544 1546 0
1538 -1539 1540 1541 -1542 1543 0
1538 1539 1540 -1541 1543 -1544 1546 0
1537 1540 -1543 -1544 1546 0
1537 1540 1543 1544 1546 1547 0
1537 -1538 1540 1543 1544 0
-1537 -1538 1540 1541 -1542 -1544 0
1539 1540 -1541 -1543 1544 1546 0
1537 1538 -1540 -1542 1543 -1546 0
-1539 1540 1543 -1544 -1546 0
-1538 -1540 -1543 1544 -1546 0
1537 -1538 -1540 1541 -1542 -1543 0
1537 1538 1539 1540 1547 0
1537 -1539 -1543 1544 -1546 0
-1537 1538 1540 -1541 -1543 1544 1546 0
1537 1538 -1540 -1541 1543 -1544 1546 0
-1537 -1538 1540 1541 1542 1544 0
-1537 -1539 1541 -1544 -1546 0
-1537 -1540 1541 1543 -1546 0
1537 -1540 -1542 -1544 -1546 0
1537 -1538 -1539 -1541 -1546 0
-1537 1538 -1539 1540 -1542 -1546 0
1537 1538 -1539 -1540 -1542 1543 -1544 0
-1537 -1540 -1543 -1544 1546 0
-1538 1541 -1543 -1544 1546 0
1537 -1538 1540 -1541 1546 0
-1537 -1540 1543 1544 1546 0
1537 -1538 -1540 1541 1542 -1544 0
-1537 -1538 1539 -1540 1546 0
-1538 1539 -1540 -1541 1543 -1544 0
-1537 1538 1539 -1540 -1543 -1544 0
-1541 1542 -1543 -1544 -1546 0
-1537 -1538 1540 -1541 -1546 0
-1537 1538 1539 1544 -1546 0
1539 1540 -1543 -1544 -1546 0
-1537 1539 1540 1541 1542 1544 0
-1541 -1542 -1543 -1544 1546 0
1537 1542 1543 1544 -1546 0
1538 1541 -1544 1545 0
-1538 -1547 0
1537 1538 1539 1542 1544 1547 0
1538 1539 1540 1542 1543 1547 0
-1538 -1541 -1542 1543 1544 0
-1539 -1540 -1541 -1543 1544 0
-1537 -1539 -1541 1543 -1544 0
1537 1539 1540 -1545 0
1541 1543 1544 -1545 0
1538 -1539 1542 1543 1544 0
1538 1539 -1540 1543 1545 0
-1541 -1547 0
1537 1538 1540 1541 1547 0
1541 -1543 1544 1545 0
1541 1543 -1544 1545 0
-1542 -1547 0
-1545 -1547 0
-1545 -1546 0
1545 1546 1547 0
1548 1550 1552 1553 1554 -1556 0
1548 -1550 -1551 -1553 -1554 1555 0
1549 -1550 1551 1552 -1553 1555 0
1548 1549 -1551 -1552 -1554 1555 1557 0
1549 -1550 1551 1552 -1553 1554 0
1549 1550 1551 -1552 1554 -1555 1557 0
1548 1551 -1554 -1555 1557 0
1548 1551 1554 1555 1557 1558 0
1548 -1549 1551 1554 1555 0
-1548 -1549 1551 1552 -1553 -1555 0
1550 1551 -1552 -1554 1555 1557 0
1548 1549 -1551 -1553 1554 -1557 0
-1550 1551 1554 -1555 -1557 0
-1549 -1551 -1554 1555 -1557 0
1548 -1549 -1551 1552 -1553 -1554 0
1548 1549 1550 1551 1558 0
1548 -1550 -1554 1555 -1557 0
-1548 1549 1551 -1552 -1554 1555 1557 0
1548 1549 -1551 -1552 1554 -1555 1557 0
-1548 -1549 1551 1552 1553 1555 0
-1548 -1550 1552 -1555 -1557 0
-1548 -1551 1552 1554 -1557 0
1548 -1551 -1553 -1555 -1557 0
1548 -1549 -1550 -1552 -1557 0
-1548 1549 -1550 1551 -1553 -1557 0
1548 1549 -1550 -1551 -1553 1554 -1555 0
-1548 -1551 -1554 -1555 1557 0
-1549 1552 -1554 -1555 1557 0
1548 -1549 1551 -1552 1557 0
-1548 -1551 1554 1555 1557 0
1548 -1549 -1551 1552 1553 -1555 0
-1548 -1549 1550 -1551 1557 0
-1549 1550 -1551 -1552 1554 -1555 0
-1548 1549 1550 -1551 -1554 -1555 0
-1552 1553 -1554 -1555 -1557 0
-1548 -1549 1551 -1552 -1557 0
-1548 1549 1550 1555 -1557 0
1550 1551 -1554 -1555 -1557 0
-1548 1550 1551 1552 1553 1555 0
-1552 -1553 -1554 -1555 1557 0
1548 1553 1554 1555 -1557 0
1549 1552 -1555 1556 0
-1549 -1558 0
1548 1549 1550 1553 1555 1558 0
1549 1550 1551 1553 1554 1558 0
-1549 -1552 -1553 1554 1555 0
-1550 -1551 -1552 -1554 1555 0
-1548 -1550 -1552 1554 -1555 0
1548 1550 1551 -1556 0
1552 1554 1555 -1556 0
1549 -1550 1553 1554 1555 0
1549 1550 -1551 1554 1556 0
-1552 -1558 0
1548 1549 1551 1552 1558 0
1552 -1554 1555 1556 0
1552 1554 -1555 1556 0
-1553 -1558 0
-1556 -1558 0
-1556 -1557 0
1556 1557 1558 0
1559 1561 1563 1564 1565 -1567 0
1559 -1561 -1562 -1564 -1565 1566 0
1560 -1561 1562 1563 -1564 1566 0
1559 1560 -1562 -1563 -1565 1566 1568 0
1560 -1561 1562 1563 -1564 1565 0
1560 1561 1562 -1563 1565 -1566 1568 0
1559 1562 -1565 -1566 1568 0
1559 1562 1565 1566 1568 1569 0
1559 -1560 1562 1565 1566 0
-1559 -1560 1562 1563 -1564 -1566 0
1561 1562 -1563 -1565 1566 1568 0
1559 1560 -1562 -1564 1565 -1568 0
-1561 1562 1565 -1566 -1568 0
-1560 -1562 -1565 1566 -1568 0
1559 -1560 -1562 1563 -1564 -1565 0
1559 1560 1561 1562 1569 0
1559 -1561 -1565 1566 -1568 0
-1559 1560 1562 -1563 -1565 1566 1568 0
1559 1560 -1562 -1563 1565 -1566 1568 0
-1559 -1560 1562 1563 1564 1566 0
-1559 -1561 1563 -1566 -1568 0
-1559 -1562 1563 1565 -1568 0
1559 -1562 -1564 -1566 -1568 0
1559 -1560 -1561 -1563 -1568 0
-1559 1560 -1561 1562 -1564 -1568 0
1559 1560 -1561 -1562 -1564 1565 -1566 0
-1559 -1562 -1565 -1566 1568 0
-1560 1563 -1565 -1566 1568 0
1559 -1560 1562 -1563 1568 0
-1559 -1562 1565 1566 1568 0
1559 -1560 -1562 1563 1564 -1566 0
-1559 -1560 1561 -1562 1568 0
-1560 1561 -1562 -1563 1565 -1566 0
-1559 1560 1561 -1562 -1565 -1566 0
-1563 1564 -1565 -1566 -1568 0
-1559 -1560 1562 -1563 -1568 0
-1559 1560 1561 1566 -1568 0
1561 1562 -1565 -1566 -1568 0
-1559 1561 1562 1563 1564 1566 0
-1563 -1564 -1565 -1566 1568 0
1559 1564 1565 1566 -1568 0
1560 1563 -1566 1567 0
-1560 -1569 0
1559 1560 1561 1564 1566 1569 0
1560 1561 1562 1564 1565 1569 0
-1560 -1563 -1564 1565 1566 0
-1561 -1562 -1563 -1565 1566 0
-1559 -1561 -1563 1565 -1566 0
1559 1561 1562 -1567 0
1563 1565 1566 -1567 0
1560 -1561 1564 1565 1566 0
1560 1561 -1562 1565 1567 0
-1563 -1569 0
1559 1560 1562 1563 1569 0
1563 -1565 1566 1567 0
1563 1565 -1566 1567 0
-1564 -1569 0
-1567 -1569 0
-1567 -1568 0
1567 1568 1569 0
1570 1572 1574 1575 1576 -1578 0
1570 -1572 -1573 -1575 -1576 1577 0
1571 -1572 1573 1574 -1575 1577 0
1570 1571 -1573 -1574 -1576 1577 1579 0
1571 -1572 1573 1574 -1575 1576 0
1571 1572 1573 -1574 1576 -1577 1579 0
1570 1573 -1576 -1577 1579 0
1570 1573 1576 1577 1579 1580 0
1570 -1571 1573 1576 1577 0
-1570 -1571 1573 1574 -1575 -1577 0
1572 1573 -1574 -1576 1577 1579 0
1570 1571 -1573 -1575 1576 -1579 0
-1572 1573 1576 -1577 -1579 0
-1571 -1573 -1576 1577 -1579 0
1570 -1571 -1573 1574 -1575 -1576 0
1570 1571 1572 1573 1580 0
1570 -1572 -1576 1577 -1579 0
-1570 1571 1573 -1574 -1576 1577 1579 0
1570 1571 -1573 -1574 1576 -1577 1579 0
-1570 -1571 1573 1574 1575 1577 0
-1570 -1572 1574 -1577 -1579 0
-1570 -1573 1574 1576 -1579 0
1570 -1573 -1575 -1577 -1579 0
1570 -1571 -1572 -1574 -1579 0
-1570 1571 -1572 1573 -1575 -1579 0
1570 1571 -1572 -1573 -1575 1576 -1577 0
-1570 -1573 -1576 -1577 1579 0
-1571 1574 -1576 -1577 1579 0
1570 -1571 1573 -1574 1579 0
-1570 -1573 1576 1577 1579 0
1570 -1571 -1573 1574 1575 -1577 0
-1570 -1571 1572 -1573 1579 0
-1571 1572 -1573 -1574 1576 -1577 0
-1570 1571 1572 -1573 -1576 -1577 0
-1574 1575 -1576 -1577 -1579 0
-1570 -1571 1573 -1574 -1579 0
-1570 1571 1572 1577 -1579 0
1572 1573 -1576 -1577 -1579 0
-1570 1572 1573 1574 1575 1577 0
-1574 -1575 -1576 -1577 1579 0
1570 1575 1576 1577 -1579 0
1571 1574 -1577 1578 0
-1571 -1580 0
1570 1571 1572 1575 1577 1580 0
1571 1572 1573 1575 1576 1580 0
-1571 -1574 -1575 1576 1577 0
-1572 -1573 -1574 -1576 1577 0
-1570 -1572 -1574 1576 -1577 0
1570 1572 1573 -1578 0
1574 1576 1577 -1578 0
1571 -1572 1575 1576 1577 0
1571 1572 -1573 1576 1578 0
-1574 -1580 0
1570 1571 1573 1574 1580 0
1574 -1576 1577 1578 0
1574 1576 -1577 1578 0
-1575 -1580 0
-1578 -1580 0
-1578 -1579 0
1578 1579 1580 0
1581 1583 1585 1586 1587 -1589 0
1581 -1583 -1584 -1586 -1587 1588 0
1582 -1583 1584 1585 -1586 1588 0
1581 1582 -1584 -1585 -1587 1588 1590 0
1582 -1583 1584 1585 -1586 1587 0
1582 1583 1584 -1585 1587 -1588 1590 0
1581 1584 -1587 -1588 1590 0
1581 1584 1587 1588 1590 1591 0
1581 -1582 1584 1587 1588 0
-1581 -1582 1584 1585 -1586 -1588 0
1583 1584 -1585 -1587 1588 1590 0
1581 1582 -1584 -1586 1587 -1590 0
-1583 1584 1587 -1588 -1590 0
-1582 -1584 -1587 1588 -1590 0
1581 -1582 -1584 1585 -1586 -1587 0
1581 1582 1583 1584 1591 0
1581 -1583 -1587 1588 -1590 0
-1581 1582 1584 -1585 -1587 1588 1590 0
1581 1582 -1584 -1585 1587 -1588 1590 0
-1581 -1582 1584 1585 1586 1588 0
-1581 -1583 1585 -1588 -1590 0
-1581 -1584 1585 1587 -1590 0
1581 -1584 -1586 -1588 -1590 0
1581 -1582 -1583 -1585 -1590 0
-1581 1582 -1583 1584 -1586 -1590 0
1581 1582 -1583 -1584 -1586 1587 -1588 0
-1581 -1584 -1587 -1588 1590 0
-1582 1585 -1587 -1588 1590 0
1581 -1582 1584 -1585 1590 0
-1581 -1584 1587 1588 1590 0
1581 -1582 -1584 1585 1586 -1588 0
-1581 -1582 1583 -1584 1590 0
-1582 1583 -1584 -1585 1587 -1588 0
-1581 1582 1583 -1584 -1587 -1588 0
-1585 1586 -1587 -1588 -1590 0
-1581 -1582 1584 -1585 -1590 0
-1581 1582 1583 1588 -1590 0
1583 1584 -1587 -1588 -1590 0
-1581 1583 1584 1585 1586 1588 0
-1585 -1586 -1587 -1588 1590 0
1581 1586 1587 1588 -1590 0
1582 1585 -1588 1589 0
-1582 -1591 0
1581 1582 1583 1586 1588 1591 0
1582 1583 1584 1586 1587 1591 0
-1582 -1585 -1586 1587 1588 0
-1583 -1584 -1585 -1587 1588 0
-1581 -1583 -1585 1587 -1588 0
1581 1583 1584 -1589 0
1585 1587 1588 -1589 0
1582 -1583 1586 1587 1588 0
1582 1583 -1584 1587 1589 0
-1585 -1591 0
1581 1582 1584 1585 1591 0
1585 -1587 1588 1589 0
1585 1587 -1588 1589 0
-1586 -1591 0
-1589 -1591 0
-1589 -1590 0
1589 1590 1591 0
1592 1594 1596 1597 1598 -1600 0
1592 -1594 -1595 -1597 -1598 1599 0
1593 -1594 1595 1596 -1597 1599 0
1592 1593 -1595 -1596 -1598 1599 1601 0
1593 -1594 1595 1596 -1597 1598 0
1593 1594 1595 -1596 1598 -1599 1601 0
1592 1595 -1598 -1599 1601 0
1592 1595 1598 1599 1601 1602 0
1592 -1593 1595 1598 1599 0
-1592 -1593 1595 1596 -1597 -1599 0
1594 1595 -1596 -1598 1599 1601 0
1592 1593 -1595 -1597 1598 -1601 0
-1594 1595 1598 -1599 -1601 0
-1593 -1595 -1598 1599 -1601 0
1592 -1593 -1595 1596 -1597 -1598 0
1592 1593 1594 1595 1602 0
1592 -1594 -1598 1599 -1601 0
-1592 1593 1595 -1596 -1598 1599 1601 0
1592 1593 -1595 -1596 1598 -1599 1601 0
-1592 -1593 1595 1596 1597 1599 0
-1592 -1594 1596 -1599 -1601 0
-1592 -1595 1596 1598 -1601 0
1592 -1595 -1597 -1599 -1601 0
1592 -1593 -1594 -1596 -1601 0
-1592 1593 -1594 1595 -1597 -1601 0
1592 1593 -1594 -1595 -1597 1598 -1599 0
-1592 -1595 -1598 -1599 1601 0
-1593 1596 -1598 -1599 1601 0
1592 -1593 1595 -1596 1601 0
-1592 -1595 1598 1599 1601 0
1592 -1593 -1595 1596 1597 -1599 0
-1592 -1593 1594 -1595 1601 0
-1593 1594 -1595 -1596 1598 -1599 0
-1592 1593 1594 -1595 -1598 -1599 0
-1596 1597 -1598 -1599 -1601 0
-1592 -1593 1595 -1596 -1601 0
-1592 1593 1594 1599 -1601 0
1594 1595 -1598 -1599 -1601 0
-1592 1594 1595 1596 1597 1599 0
-1596 -1597 -1598 -1599 1601 0
1592 1597 1598 1599 -1601 0
1593 1596 -1599 1600 0
-1593 -1602 0
1592 1593 1594 1597 1599 1602 0
1593 1594 1595 1597 1598 1602 0
-1593 -1596 -1597 1598 1599 0
-1594 -1595 -1596 -1598 1599 0
-1592 -1594 -1596 1598 -1599 0
1592 1594 1595 -1600 0
1596 1598 1599 -1600 0
1593 -1594 1597 1598 1599 0
1593 1594 -1595 1598 1600 0
-1596 -1602 0
1592 1593 1595 1596 1602 0
1596 -1598 1599 1600 0
1596 1598 -1599 1600 0
-1597 -1602 0
-1600 -1602 0
-1600 -1601 0
1600 1601 1602 0
1603 1605 1607 1608 1609 -1611 0
1603 -1605 -1606 -1608 -1609 1610 0
1604 -1605 1606 1607 -1608 1610 0
1603 1604 -1606 -1607 -1609 1610 1612 0
1604 -1605 1606 1607 -1608 1609 0
1604 1605 1606 -1607 1609 -1610 1612 0
1603 1606 -1609 -1610 1612 0
1603 1606 1609 1610 1612 1613 0
1603 -1604 1606 1609 1610 0
-1603 -1604 1606 1607 -1608 -1610 0
1605 1606 -1607 -1609 1610 1612 0
1603 1604 -1606 -1608 1609 -1612 0
-1605 1606 1609 -1610 -1612 0
-1604 -1606 -1609 1610 -1612 0
1603 -1604 -1606 1607 -1608 -1609 0
1603 1604 1605 1606 1613 0
1603 -1605 -1609 1610 -1612 0
-1603 1604 1606 -1607 -1609 1610 1612 0
1603 1604 -1606 -1607 1609 -1610 1612 0
-1603 -1604 1606 1607 1608 1610 0
-1603 -1605 1607 -1610 -1612 0
-1603 -1606 1607 1609 -1612 0
1603 -1606 -1608 -1610 -1612 0
1603 -1604 -1605 -1607 -1612 0
-1603 1604 -1605 1606 -1608 -1612 0
1603 1604 -1605 -1606 -1608 1609 -1610 0
-1603 -1606 -1609 -1610 1612 0
-1604 1607 -1609 -1610 1612 0
1603 -1604 1606 -1607 1612 0
-1603 -1606 1609 1610 1612 0
1603 -1604 -1606 1607 1608 -1610 0
-1603 -1604 1605 -1606 1612 0
-1604 1605 -1606 -1607 1609 -1610 0
-1603 1604 1605 -1606 -1609 -1610 0
-1607 1608 -1609 -1610 -1612 0
-1603 -1604 1606 -1607 -1612 0
-1603 1604 1605 1610 -1612 0
1605 1606 -1609 -1610 -1612 0
-1603 1605 1606 1607 1608 1610 0
-1607 -1608 -1609 -1610 1612 0
1603 1608 1609 1610 -1612 0
1604 1607 -1610 1611 0
-1604 -1613 0
1603 1604 1605 1608 1610 1613 0
1604 1605 1606 1608 1609 1613 0
-1604 -1607 -1608 1609 1610 0
-1605 -1606 -1607 -1609 1610 0
-1603 -1605 -1607 1609 -1610 0
1603 1605 1606 -1611 0
1607 1609 1610 -1611 0
1604 -1605 1608 1609 1610 0
1604 1605 -1606 1609 1611 0
-1607 -1613 0
1603 1604 1606 1607 1613 0
1607 -1609 1610 1611 0
1607 1609 -1610 1611 0
-1608 -1613 0
-1611 -1613 0
-1611 -1612 0
1611 1612 1613 0
1614 1616 1618 1619 1620 -1622 0
1614 -1616 -1617 -1619 -1620 1621 0
1615 -1616 1617 1618 -1619 1621 0
1614 1615 -1617 -1618 -1620 1621 1623 0
1615 -1616 1617 1618 -1619 1620 0
1615 1616 1617 -1618 1620 -1621 1623 0
1614 1617 -1620 -1621 1623 0
1614 1617 1620 1621 1623 1624 0
1614 -1615 1617 1620 1621 0
-1614 -1615 1617 1618 -1619 -1621 0
1616 1617 -1618 -1620 1621 1623 0
1614 1615 -1617 -1619 1620 -1623 0
-1616 1617 1620 -1621 -1623 0
-1615 -1617 -1620 1621 -1623 0
1614 -1615 -1617 1618 -1619 -1620 0
1614 1615 1616 1617 1624 0
1614 -1616 -1620 1621 -1623 0
-1614 1615 1617 -1618 -1620 1621 1623 0
1614 1615 -1617 -1618 1620 -1621 1623 0
-1614 -1615 1617 1618 1619 1621 0
-1614 -1616 1618 -1621 -1623 0
-1614 -1617 1618 1620 -1623 0
1614 -1617 -1619 -1621 -1623 0
1614 -1615 -1616 -1618 -1623 0
-1614 1615 -1616 1617 -1619 -1623 0
1614 1615 -1616 -1617 -1619 1620 -1621 0
-1614 -1617 -1620 -1621 1623 0
-1615 1618 -1620 -1621 1623 0
1614 -1615 1617 -1618 1623 0
-1614 -1617 1620 1621 1623 0
1614 -1615 -1617 1618 1619 -1621 0
-1614 -1615 1616 -1617 1623 0
-1615 1616 -1617 -1618 1620 -1621 0
-1614 1615 1616 -1617 -1620 -1621 0
-1618 1619 -1620 -1621 -1623 0
-1614 -1615 1617 -1618 -1623 0
-1614 1615 1616 1621 -1623 0
1616 1617 -1620 -1621 -1623 0
-1614 1616 1617 1618 1619 1621 0
-1618 -1619 -1620 -1621 1623 0
1614 1619 1620 1621 -1623 0
1615 1618 -1621 1622 0
-1615 -1624 0
1614 1615 1616 1619 1621 1624 0
1615 1616 1617 1619 1620 1624 0
-1615 -1618 -1619 1620 1621 0
-1616 -1617 -1618 -1620 1621 0
-1614 -1616 -1618 1620 -1621 0
1614 1616 1617 -1622 0
1618 1620 1621 -1622 0
1615 -1616 1619 1620 1621 0
1615 1616 -1617 1620 1622 0
-1618 -1624 0
1614 1615 1617 1618 1624 0
1618 -1620 1621 1622 0
1618 1620 -1621 1622 0
-1619 -1624 0
-1622 -1624 0
-1622 -1623 0
1622 1623 1624 0
1625 1627 1629 1630 1631 -1633 0
1625 -1627 -1628 -1630 -1631 1632 0
1626 -1627 1628 1629 -1630 1632 0
1625 1626 -1628 -1629 -1631 1632 1634 0
1626 -1627 1628 1629 -1630 1631 0
1626 1627 1628 -1629 1631 -1632 1634 0
1625 1628 -1631 -1632 1634 0
1625 1628 1631 1632 1634 1635 0
1625 -1626 1628 1631 1632 0
-1625 -1626 1628 1629 -1630 -1632 0
1627 1628 -1629 -1631 1632 1634 0
1625 1626 -1628 -1630 1631 -1634 0
-1627 1628 1631 -1632 -1634 0
-1626 -1628 -1631 1632 -1634 0
1625 -1626 -1628 1629 -1630 -1631 0
1625 1626 1627 1628 1635 0
1625 -1627 -1631 1632 -1634 0
-1625 1626 1628 -1629 -1631 1632 1634 0
1625 1626 -1628 -1629 1631 -1632 1634 0
-1625 -1626 1628 1629 1630 1632 0
-1625 -1627 1629 -1632 -1634 0
-1625 -1628 1629 1631 -1634 0
1625 -1628 -1630 -1632 -1634 0
1625 -1626 -1627 -1629 -1634 0
-1625 1626 -1627 1628 -1630 -1634 0
1625 1626 -1627 -1628 -1630 1631 -1632 0
-1625 -1628 -1631 -1632 1634 0
-1626 1629 -1631 -1632 1634 0
1625 -1626 1628 -1629 1634 0
-1625 -1628 1631 1632 1634 0
1625 -1626 -1628 1629 1630 -1632 0
-1625 -1626 1627 -1628 1634 0
-1626 1627 -1628 -1629 1631 -1632 0
-1625 1626 1627 -1628 -1631 -1632 0
-1629 1630 -1631 -1632 -1634 0
-1625 -1626 1628 -1629 -1634 0
-1625 1626 1627 1632 -1634 0
1627 1628 -1631 -1632 -1634 0
-1625 1627 1628 1629 1630 1632 0
-1629 -1630 -1631 -1632 1634 0
1625 1630 1631 1632 -1634 0
1626 1629 -1632 1633 0
-1626 -1635 0
1625 1626 1627 1630 1632 1635 0
1626 1627 1628 1630 1631 1635 0
-1626 -1629 -1630 1631 1632 0
-1627 -1628 -1629 -1631 1632 0
-1625 -1627 -1629 1631 -1632 0
1625 1627 1628 -1633 0
1629 1631 1632 -1633 0
1626 -1627 1630 1631 1632 0
1626 1627 -1628 1631 1633 0
-1629 -1635 0
1625 1626 1628 1629 1635 0
1629 -1631 1632 1633 0
1629 1631 -1632 1633 0
-1630 -1635 0
-1633 -1635 0
-1633 -1634 0
1633 1634 1635 0
1636 1638 1640 1641 1642 -1644 0
1636 -1638 -1639 -1641 -1642 1643 0
1637 -1638 1639 1640 -1641 1643 0
1636 1637 -1639 -1640 -1642 1643 1645 0
1637 -1638 1639 1640 -1641 1642 0
1637 1638 1639 -1640 1642 -1643 1645 0
1636 1639 -1642 -1643 1645 0
1636 1639 1642 1643 1645 1646 0
1636 -1637 1639 1642 1643 0
-1636 -1637 1639 1640 -1641 -1643 0
1638 1639 -1640 -1642 1643 1645 0
1636 1637 -1639 -1641 1642 -1645 0
-1638 1639 1642 -1643 -1645 0
-1637 -1639 -1642 1643 -1645 0
1636 -1637 -1639 1640 -1641 -1642 0
1636 1637 1638 1639 1646 0
1636 -1638 -1642 1643 -1645 0
-1636 1637 1639 -1640 -1642 1643 1645 0
1636 1637 -1639 -1640 1642 -1643 1645 0
-1636 -1637 1639 1640 1641 1643 0
-1636 -1638 1640 -1643 -1645 0
-1636 -1639 1640 1642 -1645 0
1636 -1639 -1641 -1643 -1645 0
1636 -1637 -1638 -1640 -1645 0
-1636 1637 -1638 1639 -1641 -1645 0
1636 1637 -1638 -1639 -1641 1642 -1643 0
-1636 -1639 -1642 -1643 1645 0
-1637 1640 -1642 -1643 1645 0
1636 -1637 1639 -1640 1645 0
-1636 -1639 1642 1643 1645 0
1636 -1637 -1639 1640 1641 -1643 0
-1636 -1637 1638 -1639 1645 0
-1637 1638 -1639 -1640 1642 -1643 0
-1636 1637 1638 -1639 -1642 -1643 0
-1640 1641 -1642 -1643 -1645 0
-1636 -1637 1639 -1640 -1645 0
-1636 1637 1638 1643 -1645 0
1638 1639 -1642 -1643 -1645 0
-1636 1638 1639 1640 1641 1643 0
-1640 -1641 -1642 -1643 1645 0
1636 1641 1642 1643 -1645 0
1637 1640 -1643 1644 0
-1637 -1646 0
1636 1637 1638 1641 1643 1646 0
1637 1638 1639 1641 1642 1646 0
-1637 -1640 -1641 1642 1643 0
-1638 -1639 -1640 -1642 1643 0
-1636 -1638 -1640 1642 -1643 0
1636 1638 1639 -1644 0
1640 1642 1643 -1644 0
1637 -1638 1641 1642 1643 0
1637 1638 -1639 1642 1644 0
-1640 -1646 0
1636 1637 1639 1640 1646 0
1640 -1642 1643 1644 0
1640 1642 -1643 1644 0
-1641 -1646 0
-1644 -1646 0
-1644 -1645 0
1644 1645 1646 0
1647 1649 1651 1652 1653 -1655 0
1647 -1649 -1650 -1652 -1653 1654 0
1648 -1649 1650 1651 -1652 1654 0
1647 1648 -1650 -1651 -1653 1654 1656 0
1648 -1649 1650 1651 -1652 1653 0
1648 1649 1650 -1651 1653 -1654 1656 0
1647 1650 -1653 -1654 1656 0
1647 1650 1653 1654 1656 1657 0
1647 -1648 1650 1653 1654 0
-1647 -1648 1650 1651 -1652 -1654 0
1649 1650 -1651 -1653 1654 1656 0
1647 1648 -1650 -1652 1653 -1656 0
-1649 1650 1653 -1654 -1656 0
-1648 -1650 -1653 1654 -1656 0
1647 -1648 -1650 1651 -1652 -1653 0
1647 1648 1649 1650 1657 0
1647 -1649 -1653 1654 -1656 0
-1647 1648 1650 -1651 -1653 1654 1656 0
1647 1648 -1650 -1651 1653 -1654 1656 0
-1647 -1648 1650 1651 1652 1654 0
-1647 -1649 1651 -1654 -1656 0
-1647 -1650 1651 1653 -1656 0
1647 -1650 -1652 -1654 -1656 0
1647 -1648 -1649 -1651 -1656 0
-1647 1648 -1649 1650 -1652 -1656 0
1647 1648 -1649 -1650 -1652 1653 -1654 0
-1647 -1650 -1653 -1654 1656 0
-1648 1651 -1653 -1654 1656 0
1647 -1648 1650 -1651 1656 0
-1647 -1650 1653 1654 1656 0
1647 -1648 -1650 1651 1652 -1654 0
-1647 -1648 1649 -1650 1656 0
-1648 1649 -1650 -1651 1653 -1654 0
-1647 1648 1649 -1650 -1653 -1654 0
-1651 1652 -1653 -1654 -1656 0
-1647 -1648 1650 -1651 -1656 0
-1647 1648 1649 1654 -1656 0
1649 1650 -1653 -1654 -1656 0
-1647 1649 1650 1651 1652 1654 0
-1651 -1652 -1653 -1654 1656 0
1647 1652 1653 1654 -1656 0
1648 1651 -1654 1655 0
-1648 -1657 0
1647 1648 1649 1652 1654 1657 0
1648 1649 1650 1652 1653 1657 0
-1648 -1651 -1652 1653 1654 0
-1649 -1650 -1651 -1653 1654 0
-1647 -1649 -1651 1653 -1654 0
1647 1649 1650 -1655 0
1651 1653 1654 -1655 0
1648 -1649 1652 1653 1654 0
1648 1649 -1650 1653 1655 0
-1651 -1657 0
1647 1648 1650 1651 1657 0
1651 -1653 1654 1655 0
1651 1653 -1654 1655 0
-1652 -1657 0
-1655 -1657 0
-1655 -1656 0
1655 1656 1657 0
1658 1660 1662 1663 1664 -1666 0
1658 -1660 -1661 -1663 -1664 1665 0
1659 -1660 1661 1662 -1663 1665 0
1658 1659 -1661 -1662 -1664 1665 1667 0
1659 -1660 1661 1662 -1663 1664 0
1659 1660 1661 -1662 1664 -1665 1667 0
1658 1661 -1664 -1665 1667 0
1658 1661 1664 1665 1667 1668 0
1658 -1659 1661 1664 1665 0
-1658 -1659 1661 1662 -1663 -1665 0
1660 1661 -1662 -1664 1665 1667 0
1658 1659 -1661 -1663 1664 -1667 0
-1660 1661 1664 -1665 -1667 0
-1659 -1661 -1664 1665 -1667 0
1658 -1659 -1661 1662 -1663 -1664 0
1658 1659 1660 1661 1668 0
1658 -1660 -1664 1665 -1667 0
-1658 1659 1661 -1662 -1664 1665 1667 0
1658 1659 -1661 -1662 1664 -1665 1667 0
-1658 -1659 1661 1662 1663 1665 0
-1658 -1660 1662 -1665 -1667 0
-1658 -1661 1662 1664 -1667 0
1658 -1661 -1663 -1665 -1667 0
1658 -1659 -1660 -1662 -1667 0
-1658 1659 -1660 1661 -1663 -1667 0
1658 1659 -1660 -1661 -1663 1664 -1665 0
-1658 -1661 -1664 -1665 1667 0
-1659 1662 -1664 -1665 1667 0
1658 -1659 1661 -1662 1667 0
-1658 -1661 1664 1665 1667 0
1658 -1659 -1661 1662 1663 -1665 0
-1658 -1659 1660 -1661 1667 0
-1659 1660 -1661 -1662 1664 -1665 0
-1658 1659 1660 -1661 -1664 -1665 0
-1662 1663 -1664 -1665 -1667 0
-1658 -1659 1661 -1662 -1667 0
-1658 1659 1660 1665 -1667 0
1660 1661 -1664 -1665 -1667 0
-1658 1660 1661 1662 1663 1665 0
-1662 -1663 -1664 -1665 1667 0
1658 1663 1664 1665 -1667 0
1659 1662 -1665 1666 0
-1659 -1668 0
1658 1659 1660 1663 1665 1668 0
1659 1660 1661 1663 1664 1668 0
-1659 -1662 -1663 1664 1665 0
-1660 -1661 -1662 -1664 1665 0
-1658 -1660 -1662 1664 -1665 0
1658 1660 1661 -1666 0
1662 1664 1665 -1666 0
1659 -1660 1663 1664 1665 0
1659 1660 -1661 1664 1666 0
-1662 -1668 0
1658 1659 1661 1662 1668 0
1662 -1664 1665 1666 0
1662 1664 -1665 1666 0
-1663 -1668 0
-1666 -1668 0
-1666 -1667 0
1666 1667 1668 0
1669 1671 1673 1674 1675 -1677 0
1669 -1671 -1672 -1674 -1675 1676 0
1670 -1671 1672 1673 -1674 1676 0
1669 1670 -1672 -1673 -1675 1676 1678 0
1670 -1671 1672 1673 -1674 1675 0
1670 1671 1672 -1673 1675 -1676 1678 0
1669 1672 -1675 -1676 1678 0
1669 1672 1675 1676 1678 1679 0
1669 -1670 1672 1675 1676 0
-1669 -1670 1672 1673 -1674 -1676 0
1671 1672 -1673 -1675 1676 1678 0
1669 1670 -1672 -1674 1675 -1678 0
-1671 1672 1675 -1676 -1678 0
-1670 -1672 -1675 1676 -1678 0
1669 -1670 -1672 1673 -1674 -1675 0
1669 1670 1671 1672 1679 0
1669 -1671 -1675 1676 -1678 0
-1669 1670 1672 -1673 -1675 1676 1678 0
1669 1670 -1672 -1673 1675 -1676 1678 0
-1669 -1670 1672 1673 1674 1676 0
-1669 -1671 1673 -1676 -1678 0
-1669 -1672 1673 1675 -1678 0
1669 -1672 -1674 -1676 -1678 0
1669 -1670 -1671 -1673 -1678 0
-1669 1670 -1671 1672 -1674 -1678 0
1669 1670 -1671 -1672 -1674 1675 -1676 0
-1669 -1672 -1675 -1676 1678 0
-1670 1673 -1675 -1676 1678 0
1669 -1670 1672 -1673 1678 0
-1669 -1672 1675 1676 1678 0
1669 -1670 -1672 1673 1674 -1676 0
-1669 -1670 1671 -1672 1678 0
-1670 1671 -1672 -1673 1675 -1676 0
-1669 1670 1671 -1672 -1675 -1676 0
-1673 1674 -1675 -1676 -1678 0
-1669 -1670 1672 -1673 -1678 0
-1669 1670 1671 1676 -1678 0
1671 1672 -1675 -1676 -1678 0
-1669 1671 1672 1673 1674 1676 0
-1673 -1674 -1675 -1676 1678 0
1669 1674 1675 1676 -1678 0
1670 1673 -1676 1677 0
-1670 -1679 0
1669 1670 1671 1674 1676 1679 0
1670 1671 1672 1674 1675 1679 0
-1670 -1673 -1674 1675 1676 0
-1671 -1672 -1673 -1675 1676 0
-1669 -1671 -1673 1675 -1676 0
1669 1671 1672 -1677 0
1673 1675 1676 -1677 0
1670 -1671 1674 1675 1676 0
1670 1671 -1672 1675 1677 0
-1673 -1679 0
1669 1670 1672 1673 1679 0
1673 -1675 1676 1677 0
1673 1675 -1676 1677 0
-1674 -1679 0
-1677 -1679 0
-1677 -1678 0
1677 1678 1679 0
1680 1682 1684 1685 1686 -1688 0
1680 -1682 -1683 -1685 -1686 1687 0
1681 -1682 1683 1684 -1685 1687 0
1680 1681 -1683 -1684 -1686 1687 1689 0
1681 -1682 1683 1684 -1685 1686 0
1681 1682 1683 -1684 1686 -1687 1689 0
1680 1683 -1686 -1687 1689 0
1680 1683 1686 1687 1689 1690 0
1680 -1681 1683 1686 1687 0
-1680 -1681 1683 1684 -1685 -1687 0
1682 1683 -1684 -1686 1687 1689 0
1680 1681 -1683 -1685 1686 -1689 0
-1682 1683 1686 -1687 -1689 0
-1681 -1683 -1686 1687 -1689 0
1680 -1681 -1683 1684 -1685 -1686 0
1680 1681 1682 1683 1690 0
1680 -1682 -1686 1687 -1689 0
-1680 1681 1683 -1684 -1686 1687 1689 0
1680 1681 -1683 -1684 1686 -1687 1689 0
-1680 -1681 1683 1684 1685 1687 0
-1680 -1682 1684 -1687 -1689 0
-1680 -1683 1684 1686 -1689 0
1680 -1683 -1685 -1687 -1689 0
1680 -1681 -1682 -1684 -1689 0
-1680 1681 -1682 1683 -1685 -1689 0
1680 1681 -1682 -1683 -1685 1686 -1687 0
-1680 -1683 -1686 -1687 1689 0
-1681 1684 -1686 -1687 1689 0
1680 -1681 1683 -1684 1689 0
-1680 -1683 1686 1687 1689 0
1680 -1681 -1683 1684 1685 -1687 0
-1680 -1681 1682 -1683 1689 0
-1681 1682 -1683 -1684 1686 -1687 0
-1680 1681 1682 -1683 -1686 -1687 0
-1684 1685 -1686 -1687 -1689 0
-1680 -1681 1683 -1684 -1689 0
-1680 1681 1682 1687 -1689 0
1682 1683 -1686 -1687 -1689 0
-1680 1682 1683 1684 1685 1687 0
-1684 -1685 -1686 -1687 1689 0
1680 1685 1686 1687 -1689 0
1681 1684 -1687 1688 0
-1681 -1690 0
1680 1681 1682 1685 1687 1690 0
1681 1682 1683 1685 1686 1690 0
-1681 -1684 -1685 1686 1687 0
-1682 -1683 -1684 -1686 1687 0
-1680 -1682 -1684 1686 -1687 0
1680 1682 1683 -1688 0
1684 1686 1687 -1688 0
1681 -1682 1685 1686 1687 0
1681 1682 -1683 1686 1688 0
-1684 -1690 0
1680 1681 1683 1684 1690 0
1684 -1686 1687 1688 0
1684 1686 -1687 1688 0
-1685 -1690 0
-1688 -1690 0
-1688 -1689 0
1688 1689 1690 0
1691 1693 1695 1696 1697 -1699 0
1691 -1693 -1694 -1696 -1697 1698 0
1692 -1693 1694 1695 -1696 1698 0
1691 1692 -1694 -1695 -1697 1698 1700 0
1692 -1693 1694 1695 -1696 1697 0
1692 1693 1694 -1695 1697 -1698 1700 0
1691 1694 -1697 -1698 1700 0
1691 1694 1697 1698 1700 1701 0
1691 -1692 1694 1697 1698 0
-1691 -1692 1694 1695 -1696 -1698 0
1693 1694 -1695 -1697 1698 1700 0
1691 1692 -1694 -1696 1697 -1700 0
-1693 1694 1697 -1698 -1700 0
-1692 -1694 -1697 1698 -1700 0
1691 -1692 -1694 1695 -1696 -1697 0
1691 1692 1693 1694 1701 0
1691 -1693 -1697 1698 -1700 0
-1691 1692 1694 -1695 -1697 1698 1700 0
1691 1692 -1694 -1695 1697 -1698 1700 0
-1691 -1692 1694 1695 1696 1698 0
-1691 -1693 1695 -1698 -1700 0
-1691 -1694 1695 1697 -1700 0
1691 -1694 -1696 -1698 -1700 0
1691 -1692 -1693 -1695 -1700 0
-1691 1692 -1693 1694 -1696 -1700 0
1691 1692 -1693 -1694 -1696 1697 -1698 0
-1691 -1694 -1697 -1698 1700 0
-1692 1695 -1697 -1698 1700 0
1691 -1692 1694 -1695 1700 0
-1691 -1694 1697 1698 1700 0
1691 -1692 -1694 1695 1696 -1698 0
-1691 -1692 1693 -1694 1700 0
-1692 1693 -1694 -1695 1697 -1698 0
-1691 1692 1693 -1694 -1697 -1698 0
-1695 1696 -1697 -1698 -1700 0
-1691 -1692 1694 -1695 -1700 0
-1691 1692 1693 1698 -1700 0
1693 1694 -1697 -1698 -1700 0
-1691 1693 1694 1695 1696 1698 0
-1695 -1696 -1697 -1698 1700 0
1691 1696 1697 1698 -1700 0
1692 1695 -1698 1699 0
-1692 -1701 0
1691 1692 1693 1696 1698 1701 0
1692 1693 1694 1696 1697 1701 0
-1692 -1695 -1696 1697 1698 0
-1693 -1694 -1695 -1697 1698 0
-1691 -1693 -1695 1697 -1698 0
1691 1693 1694 -1699 0
1695 1697 1698 -1699 0
1692 -1693 1696 1697 1698 0
1692 1693 -1694 1697 1699 0
-1695 -1701 0
1691 1692 1694 1695 1701 0
1695 -1697 1698 1699 0
1695 1697 -1698 1699 0
-1696 -1701 0
-1699 -1701 0
-1699 -1700 0
1699 1700 1701 0
1702 1704 1706 1707 1708 -1710 0
1702 -1704 -1705 -1707 -1708 1709 0
1703 -1704 1705 1706 -1707 1709 0
1702 1703 -1705 -1706 -1708 1709 1711 0
1703 -1704 1705 1706 -1707 1708 0
1703 1704 1705 -1706 1708 -1709 1711 0
1702 1705 -1708 -1709 1711 0
1702 1705 1708 1709 1711 1712 0
1702 -1703 1705 1708 1709 0
-1702 -1703 1705 1706 -1707 -1709 0
1704 1705 -1706 -1708 1709 1711 0
1702 1703 -1705 -1707 1708 -1711 0
-1704 1705 1708 -1709 -1711 0
-1703 -1705 -1708 1709 -1711 0
1702 -1703 -1705 1706 -1707 -1708 0
1702 1703 1704 1705 1712 0
1702 -1704 -1708 1709 -1711 0
-1702 1703 1705 -1706 -1708 1709 1711 0
1702 1703 -1705 -1706 1708 -1709 1711 0
-1702 -1703 1705 1706 1707 1709 0
-1702 -1704 1706 -1709 -1711 0
-1702 -1705 1706 1708 -1711 0
1702 -1705 -1707 -1709 -1711 0
1702 -1703 -1704 -1706 -1711 0
-1702 1703 -1704 1705 -1707 -1711 0
1702 1703 -1704 -1705 -1707 1708 -1709 0
-1702 -1705 -1708 -1709 1711 0
-1703 1706 -1708 -1709 1711 0
1702 -1703 1705 -1706 1711 0
-1702 -1705 1708 1709 1711 0
1702 -1703 -1705 1706 1707 -1709 0
-1702 -1703 1704 -1705 1711 0
-1703 1704 -1705 -1706 1708 -1709 0
-1702 1703 1704 -1705 -1708 -1709 0
-1706 1707 -1708 -1709 -1711 0
-1702 -1703 1705 -1706 -1711 0
-1702 1703 1704 1709 -1711 0
1704 1705 -1708 -1709 -1711 0
-1702 1704 1705 1706 1707 1709 0
-1706 -1707 -1708 -1709 1711 0
1702 1707 1708 1709 -1711 0
1703 1706 -1709 1710 0
-1703 -1712 0
1702 1703 1704 1707 1709 1712 0
1703 1704 1705 1707 1708 1712 0
-1703 -1706 -1707 1708 1709 0
-1704 -1705 -1706 -1708 1709 0
-1702 -1704 -1706 1708 -1709 0
1702 1704 1705 -1710 0
1706 1708 1709 -1710 0
1703 -1704 1707 1708 1709 0
1703 1704 -1705 1708 1710 0
-1706 -1712 0
1702 1703 1705 1706 1712 0
1706 -1708 1709 1710 0
1706 1708 -1709 1710 0
-1707 -1712 0
-1710 -1712 0
-1710 -1711 0
1710 1711 1712 0
1713 1715 1717 1718 1719 -1721 0
1713 -1715 -1716 -1718 -1719 1720 0
1714 -1715 1716 1717 -1718 1720 0
1713 1714 -1716 -1717 -1719 1720 1722 0
1714 -1715 1716 1717 -1718 1719 0
1714 1715 1716 -1717 1719 -1720 1722 0
1713 1716 -1719 -1720 1722 0
1713 1716 1719 1720 1722 1723 0
1713 -1714 1716 1719 1720 0
-1713 -1714 1716 1717 -1718 -1720 0
1715 1716 -1717 -1719 1720 1722 0
1713 1714 -1716 -1718 1719 -1722 0
-1715 1716 1719 -1720 -1722 0
-1714 -1716 -1719 1720 -1722 0
1713 -1714 -1716 1717 -1718 -1719 0
1713 1714 1715 1716 1723 0
1713 -1715 -1719 1720 -1722 0
-1713 1714 1716 -1717 -1719 1720 1722 0
1713 1714 -1716 -1717 1719 -1720 1722 0
-1713 -1714 1716 1717 1718 1720 0
-1713 -1715 1717 -1720 -1722 0
-1713 -1716 1717 1719 -1722 0
1713 -1716 -1718 -1720 -1722 0
1713 -1714 -1715 -1717 -1722 0
-1713 1714 -1715 1716 -1718 -1722 0
1713 1714 -1715 -1716 -1718 1719 -1720 0
-1713 -1716 -1719 -1720 1722 0
-1714 1717 -1719 -1720 1722 0
1713 -1714 1716 -1717 1722 0
-1713 -1716 1719 1720 1722 0
1713 -1714 -1716 1717 1718 -1720 0
-1713 -1714 1715 -1716 1722 0
-1714 1715 -1716 -1717 1719 -1720 0
-1713 1714 1715 -1716 -1719 -1720 0
-1717 1718 -1719 -1720 -1722 0
-1713 -1714 1716 -1717 -1722 0
-1713 1714 1715 1720 -1722 0
1715 1716 -1719 -1720 -1722 0
-1713 1715 1716 1717 1718 1720 0
-1717 -1718 -1719 -1720 1722 0
1713 1718 1719 1720 -1722 0
1714 1717 -1720 1721 0
-1714 -1723 0
1713 1714 1715 1718 1720 1723 0
1714 1715 1716 1718 1719 1723 0
-1714 -1717 -1718 1719 1720 0
-1715 -1716 -1717 -1719 1720 0
-1713 -1715 -1717 1719 -1720 0
1713 1715 1716 -1721 0
1717 1719 1720 -1721 0
1714 -1715 1718 1719 1720 0
1714 1715 -1716 1719 1721 0
-1717 -1723 0
1713 1714 1716 1717 1723 0
1717 -1719 1720 1721 0
1717 1719 -1720 1721 0
-1718 -1723 0
-1721 -1723 0
-1721 -1722 0
1721 1722 1723 0
1724 1726 1728 1729 1730 -1732 0
1724 -1726 -1727 -1729 -1730 1731 0
1725 -1726 1727 1728 -1729 1731 0
1724 1725 -1727 -1728 -1730 1731 1733 0
1725 -1726 1727 1728 -1729 1730 0
1725 1726 1727 -1728 1730 -1731 1733 0
1724 1727 -1730 -1731 1733 0
1724 1727 1730 1731 1733 1734 0
1724 -1725 1727 1730 1731 0
-1724 -1725 1727 1728 -1729 -1731 0
1726 1727 -1728 -1730 1731 1733 0
1724 1725 -1727 -1729 1730 -1733 0
-1726 1727 1730 -1731 -1733 0
-1725 -1727 -1730 1731 -1733 0
1724 -1725 -1727 1728 -1729 -1730 0
1724 1725 1726 1727 1734 0
1724 -1726 -1730 1731 -1733 0
-1724 1725 1727 -1728 -1730 1731 1733 0
1724 1725 -1727 -1728 1730 -1731 1733 0
-1724 -1725 1727 1728 1729 1731 0
-1724 -1726 1728 -1731 -1733 0
-1724 -1727 1728 1730 -1733 0
1724 -1727 -1729 -1731 -1733 0
1724 -1725 -1726 -1728 -1733 0
-1724 1725 -1726 1727 -1729 -1733 0
1724 1725 -1726 -1727 -1729 1730 -1731 0
-1724 -1727 -1730 -1731 1733 0
-1725 1728 -1730 -1731 1733 0
1724 -1725 1727 -1728 1733 0
-1724 -1727 1730 1731 1733 0
1724 -1725 -1727 1728 1729 -1731 0
-1724 -1725 1726 -1727 1733 0
-1725 1726 -1727 -1728 1730 -1731 0
-1724 1725 1726 -1727 -1730 -1731 0
-1728 1729 -1730 -1731 -1733 0
-1724 -1725 1727 -1728 -1733 0
-1724 1725 1726 1731 -1733 0
1726 1727 -1730 -1731 -1733 0
-1724 1726 1727 1728 1729 1731 0
-1728 -1729 -1730 -1731 1733 0
1724 1729 1730 1731 -1733 0
1725 1728 -1731 1732 0
-1725 -1734 0
1724 1725 1726 1729 1731 1734 0
1725 1726 1727 1729 1730 1734 0
-1725 -1728 -1729 1730 1731 0
-1726 -1727 -1728 -1730 1731 0
-1724 -1726 -1728 1730 -1731 0
1724 1726 1727 -1732 0
1728 1730 1731 -1732 0
1725 -1726 1729 1730 1731 0
1725 1726 -1727 1730 1732 0
-1728 -1734 0
1724 1725 1727 1728 1734 0
1728 -1730 1731 1732 0
1728 1730 -1731 1732 0
-1729 -1734 0
-1732 -1734 0
-1732 -1733 0
1732 1733 1734 0
1735 1737 1739 1740 1741 -1743 0
1735 -1737 -1738 -1740 -1741 1742 0
1736 -1737 1738 1739 -1740 1742 0
1735 1736 -1738 -1739 -1741 1742 1744 0
1736 -1737 1738 1739 -1740 1741 0
1736 1737 1738 -1739 1741 -1742 1744 0
1735 1738 -1741 -1742 1744 0
1735 1738 1741 1742 1744 1745 0
1735 -1736 1738 1741 1742 0
-1735 -1736 1738 1739 -1740 -1742 0
1737 1738 -1739 -1741 1742 1744 0
1735 1736 -1738 -1740 1741 -1744 0
-1737 1738 1741 -1742 -1744 0
-1736 -1738 -1741 1742 -1744 0
1735 -1736 -1738 1739 -1740 -1741 0
1735 1736 1737 1738 1745 0
1735 -1737 -1741 1742 -1744 0
-1735 1736 1738 -1739 -1741 1742 1744 0
1735 1736 -1738 -1739 1741 -1742 1744 0
-1735 -1736 1738 1739 1740 1742 0
-1735 -1737 1739 -1742 -1744 0
-1735 -1738 1739 1741 -1744 0
1735 -1738 -1740 -1742 -1744 0
1735 -1736 -1737 -1739 -1744 0
-1735 1736 -1737 1738 -1740 -1744 0
1735 1736 -1737 -1738 -1740 1741 -1742 0
-1735 -1738 -1741 -1742 1744 0
-1736 1739 -1741 -1742 1744 0
1735 -1736 1738 -1739 1744 0
-1735 -1738 1741 1742 1744 0
1735 -1736 -1738 1739 1740 -1742 0
-1735 -1736 1737 -1738 1744 0
-1736 1737 -1738 -1739 1741 -1742 0
-1735 1736 1737 -1738 -1741 -1742 0
-1739 1740 -1741 -1742 -1744 0
-1735 -1736 1738 -1739 -1744 0
-1735 1736 1737 1742 -1744 0
1737 1738 -1741 -1742 -1744 0
-1735 1737 1738 1739 1740 1742 0
-1739 -1740 -1741 -1742 1744 0
1735 1740 1741 1742 -1744 0
1736 1739 -1742 1743 0
-1736 -1745 0
1735 1736 1737 1740 1742 1745 0
1736 1737 1738 1740 1741 1745 0
-1736 -1739 -1740 1741 1742 0
-1737 -1738 -1739 -1741 1742 0
-1735 -1737 -1739 1741 -1742 0
1735 1737 1738 -1743 0
1739 1741 1742 -1743 0
1736 -1737 1740 1741 1742 0
1736 1737 -1738 1741 1743 0
-1739 -1745 0
1735 1736 1738 1739 1745 0
1739 -1741 1742 1743 0
1739 1741 -1742 1743 0
-1740 -1745 0
-1743 -1745 0
-1743 -1744 0
1743 1744 1745 0
1746 1748 1750 1751 1752 -1754 0
1746 -1748 -1749 -1751 -1752 1753 0
1747 -1748 1749 1750 -1751 1753 0
1746 1747 -1749 -1750 -1752 1753 1755 0
1747 -1748 1749 1750 -1751 1752 0
1747 1748 1749 -1750 1752 -1753 1755 0
1746 1749 -1752 -1753 1755 0
1746 1749 1752 1753 1755 1756 0
1746 -1747 1749 1752 1753 0
-1746 -1747 1749 1750 -1751 -1753 0
1748 1749 -1750 -1752 1753 1755 0
1746 1747 -1749 -1751 1752 -1755 0
-1748 1749 1752 -1753 -1755 0
-1747 -1749 -1752 1753 -1755 0
1746 -1747 -1749 1750 -1751 -1752 0
1746 1747 1748 1749 1756 0
1746 -1748 -1752 1753 -1755 0
-1746 1747 1749 -1750 -1752 1753 1755 0
1746 1747 -1749 -1750 1752 -1753 1755 0
-1746 -1747 1749 1750 1751 1753 0
-1746 -1748 1750 -1753 -1755 0
-1746 -1749 1750 1752 -1755 0
1746 -1749 -1751 -1753 -1755 0
1746 -1747 -1748 -1750 -1755 0
-1746 1747 -1748 1749 -1751 -1755 0
1746 1747 -1748 -1749 -1751 1752 -1753 0
-1746 -1749 -1752 -1753 1755 0
-1747 1750 -1752 -1753 1755 0
1746 -1747 1749 -1750 1755 0
-1746 -1749 1752 1753 1755 0
1746 -1747 -1749 1750 1751 -1753 0
-1746 -1747 1748 -1749 1755 0
-1747 1748 -1749 -1750 1752 -1753 0
-1746 1747 1748 -1749 -1752 -1753 0
-1750 1751 -1752 -1753 -1755 0
-1746 -1747 1749 -1750 -1755 0
-1746 1747 1748 1753 -1755 0
1748 1749 -1752 -1753 -1755 0
-1746 1748 1749 1750 1751 1753 0
-1750 -1751 -1752 -1753 1755 0
1746 1751 1752 1753 -1755 0
1747 1750 -1753 1754 0
-1747 -1756 0
1746 1747 1748 1751 1753 1756 0
1747 1748 1749 1751 1752 1756 0
-1747 -1750 -1751 1752 1753 0
-1748 -1749 -1750 -1752 1753 0
-1746 -1748 -1750 1752 -1753 0
1746 1748 1749 -1754 0
1750 1752 1753 -1754 0
1747 -1748 1751 1752 1753 0
1747 1748 -1749 1752 1754 0
-1750 -1756 0
1746 1747 1749 1750 1756 0
1750 -1752 1753 1754 0
1750 1752 -1753 1754 0
-1751 -1756 0
-1754 -1756 0
-1754 -1755 0
1754 1755 1756 0
1757 1759 1761 1762 1763 -1765 0
1757 -1759 -1760 -1762 -1763 1764 0
1758 -1759 1760 1761 -1762 1764 0
1757 1758 -1760 -1761 -1763 1764 1766 0
1758 -1759 1760 1761 -1762 1763 0
1758 1759 1760 -1761 1763 -1764 1766 0
1757 1760 -1763 -1764 1766 0
1757 1760 1763 1764 1766 1767 0
1757 -1758 1760 1763 1764 0
-1757 -1758 1760 1761 -1762 -1764 0
1759 1760 -1761 -1763 1764 1766 0
1757 1758 -1760 -1762 1763 -1766 0
-1759 1760 1763 -1764 -1766 0
-1758 -1760 -1763 1764 -1766 0
1757 -1758 -1760 1761 -1762 -1763 0
1757 1758 1759 1760 1767 0
1757 -1759 -1763 1764 -1766 0
-1757 1758 1760 -1761 -1763 1764 1766 0
1757 1758 -1760 -1761 1763 -1764 1766 0
-1757 -1758 1760 1761 1762 1764 0
-1757 -1759 1761 -1764 -1766 0
-1757 -1760 1761 1763 -1766 0
1757 -1760 -1762 -1764 -1766 0
1757 -1758 -1759 -1761 -1766 0
-1757 1758 -1759 1760 -1762 -1766 0
1757 1758 -1759 -1760 -1762 1763 -1764 0
-1757 -1760 -1763 -1764 1766 0
-1758 1761 -1763 -1764 1766 0
1757 -1758 1760 -1761 1766 0
-1757 -1760 1763 1764 1766 0
1757 -1758 -1760 1761 1762 -1764 0
-1757 -1758 1759 -1760 1766 0
-1758 1759 -1760 -1761 1763 -1764 0
-1757 1758 1759 -1760 -1763 -1764 0
-1761 1762 -1763 -1764 -1766 0
-1757 -1758 1760 -1761 -1766 0
-1757 1758 1759 1764 -1766 0
1759 1760 -1763 -1764 -1766 0
-1757 1759 1760 1761 1762 1764 0
-1761 -1762 -1763 -1764 1766 0
1757 1762 1763 1764 -1766 0
1758 1761 -1764 1765 0
-1758 -1767 0
1757 1758 1759 1762 1764 1767 0
1758 1759 1760 1762 1763 1767 0
-1758 -1761 -1762 1763 1764 0
-1759 -1760 -1761 -1763 1764 0
-1757 -1759 -1761 1763 -1764 0
1757 1759 1760 -1765 0
1761 1763 1764 -1765 0
1758 -1759 1762 1763 1764 0
1758 1759 -1760 1763 1765 0
-1761 -1767 0
1757 1758 1760 1761 1767 0
1761 -1763 1764 1765 0
1761 1763 -1764 1765 0
-1762 -1767 0
-1765 -1767 0
-1765 -1766 0
1765 1766 1767 0
1768 1770 1772 1773 1774 -1776 0
1768 -1770 -1771 -1773 -1774 1775 0
1769 -1770 1771 1772 -1773 1775 0
1768 1769 -1771 -1772 -1774 1775 1777 0
1769 -1770 1771 1772 -1773 1774 0
1769 1770 1771 -1772 1774 -1775 1777 0
1768 1771 -1774 -1775 1777 0
1768 1771 1774 1775 1777 1778 0
1768 -1769 1771 1774 1775 0
-1768 -1769 1771 1772 -1773 -1775 0
1770 1771 -1772 -1774 1775 1777 0
1768 1769 -1771 -1773 1774 -1777 0
-1770 1771 1774 -1775 -1777 0
-1769 -1771 -1774 1775 -1777 0
1768 -1769 -1771 1772 -1773 -1774 0
1768 1769 1770 1771 1778 0
1768 -1770 -1774 1775 -1777 0
-1768 1769 1771 -1772 -1774 1775 1777 0
1768 1769 -1771 -1772 1774 -1775 1777 0
-1768 -1769 1771 1772 1773 1775 0
-1768 -1770 1772 -1775 -1777 0
-1768 -1771 1772 1774 -1777 0
1768 -1771 -1773 -1775 -1777 0
1768 -1769 -1770 -1772 -1777 0
-1768 1769 -1770 1771 -1773 -1777 0
1768 1769 -1770 -1771 -1773 1774 -1775 0
-1768 -1771 -1774 -1775 1777 0
-1769 1772 -1774 -1775 1777 0
1768 -1769 1771 -1772 1777 0
-1768 -1771 1774 1775 1777 0
1768 -1769 -1771 1772 1773 -1775 0
-1768 -1769 1770 -1771 1777 0
-1769 1770 -1771 -1772 1774 -1775 0
-1768 1769 1770 -1771 -1774 -1775 0
-1772 1773 -1774 -1775 -1777 0
-1768 -1769 1771 -1772 -1777 0
-1768 1769 1770 1775 -1777 0
1770 1771 -1774 -1775 -1777 0
-1768 1770 1771 1772 1773 1775 0
-1772 -1773 -1774 -1775 1777 0
1768 1773 1774 1775 -1777 0
1769 1772 -1775 1776 0
-1769 -1778 0
1768 1769 1770 1773 1775 1778 0
1769 1770 1771 1773 1774 1778 0
-1769 -1772 -1773 1774 1775 0
-1770 -1771 -1772 -1774 1775 0
-1768 -1770 -1772 1774 -1775 0
1768 1770 1771 -1776 0
1772 1774 1775 -1776 0
1769 -1770 1773 1774 1775 0
1769 1770 -1771 1774 1776 0
-1772 -1778 0
1768 1769 1771 1772 1778 0
1772 -1774 1775 1776 0
1772 1774 -1775 1776 0
-1773 -1778 0
-1776 -1778 0
-1776 -1777 0
1776 1777 1778 0
1779 1781 1783 1784 1785 -1787 0
1779 -1781 -1782 -1784 -1785 1786 0
1780 -1781 1782 1783 -1784 1786 0
1779 1780 -1782 -1783 -1785 1786 1788 0
1780 -1781 1782 1783 -1784 1785 0
1780 1781 1782 -1783 1785 -1786 1788 0
1779 1782 -1785 -1786 1788 0
1779 1782 1785 1786 1788 1789 0
1779 -1780 1782 1785 1786 0
-1779 -1780 1782 1783 -1784 -1786 0
1781 1782 -1783 -1785 1786 1788 0
1779 1780 -1782 -1784 1785 -1788 0
-1781 1782 1785 -1786 -1788 0
-1780 -1782 -1785 1786 -1788 0
1779 -1780 -1782 1783 -1784 -1785 0
1779 1780 1781 1782 1789 0
1779 -1781 -1785 1786 -1788 0
-1779 1780 1782 -1783 -1785 1786 1788 0
1779 1780 -1782 -1783 1785 -1786 1788 0
-1779 -1780 1782 1783 1784 1786 0
-1779 -1781 1783 -1786 -1788 0
-1779 -1782 1783 1785 -1788 0
1779 -1782 -1784 -1786 -1788 0
1779 -1780 -1781 -1783 -1788 0
-1779 1780 -1781 1782 -1784 -1788 0
1779 1780 -1781 -1782 -1784 1785 -1786 0
-1779 -1782 -1785 -1786 1788 0
-1780 1783 -1785 -1786 1788 0
1779 -1780 1782 -1783 1788 0
-1779 -1782 1785 1786 1788 0
1779 -1780 -1782 1783 1784 -1786 0
-1779 -1780 1781 -1782 1788 0
-1780 1781 -1782 -1783 1785 -1786 0
-1779 1780 1781 -1782 -1785 -1786 0
-1783 1784 -1785 -1786 -1788 0
-1779 -1780 1782 -1783 -1788 0
-1779 1780 1781 1786 -1788 0
1781 1782 -1785 -1786 -1788 0
-1779 1781 1782 1783 1784 1786 0
-1783 -1784 -1785 -1786 1788 0
1779 1784 1785 1786 -1788 0
1780 1783 -1786 1787 0
-1780 -1789 0
1779 1780 1781 1784 1786 1789 0
1780 1781 1782 1784 1785 1789 0
-1780 -1783 -1784 1785 1786 0
-1781 -1782 -1783 -1785 1786 0
-1779 -1781 -1783 1785 -1786 0
1779 1781 1782 -1787 0
1783 1785 1786 -1787 0
1780 -1781 1784 1785 1786 0
1780 1781 -1782 1785 1787 0
-1783 -1789 0
1779 1780 1782 1783 1789 0
1783 -1785 1786 1787 0
1783 1785 -1786 1787 0
-1784 -1789 0
-1787 -1789 0
-1787 -1788 0
1787 1788 1789 0
1790 1792 1794 1795 1796 -1798 0
1790 -1792 -1793 -1795 -1796 1797 0
1791 -1792 1793 1794 -1795 1797 0
1790 1791 -1793 -1794 -1796 1797 1799 0
1791 -1792 1793 1794 -1795 1796 0
1791 1792 1793 -1794 1796 -1797 1799 0
1790 1793 -1796 -1797 1799 0
1790 1793 1796 1797 1799 1800 0
1790 -1791 1793 1796 1797 0
-1790 -1791 1793 1794 -1795 -1797 0
1792 1793 -1794 -1796 1797 1799 0
1790 1791 -1793 -1795 1796 -1799 0
-1792 1793 1796 -1797 -1799 0
-1791 -1793 -1796 1797 -1799 0
1790 -1791 -1793 1794 -1795 -1796 0
1790 1791 1792 1793 1800 0
1790 -1792 -1796 1797 -1799 0
-1790 1791 1793 -1794 -1796 1797 1799 0
1790 1791 -1793 -1794 1796 -1797 1799 0
-1790 -1791 1793 1794 1795 1797 0
-1790 -1792 1794 -1797 -1799 0
-1790 -1793 1794 1796 -1799 0
1790 -1793 -1795 -1797 -1799 0
1790 -1791 -1792 -1794 -1799 0
-1790 1791 -1792 1793 -1795 -1799 0
1790 1791 -1792 -1793 -1795 1796 -1797 0
-1790 -1793 -1796 -1797 1799 0
-1791 1794 -1796 -1797 1799 0
1790 -1791 1793 -1794 1799 0
-1790 -1793 1796 1797 1799 0
1790 -1791 -1793 1794 1795 -1797 0
-1790 -1791 1792 -1793 1799 0
-1791 1792 -1793 -1794 1796 -1797 0
-1790 1791 1792 -1793 -1796 -1797 0
-1794 1795 -1796 -1797 -1799 0
-1790 -1791 1793 -1794 -1799 0
-1790 1791 1792 1797 -1799 0
1792 1793 -1796 -1797 -1799 0
-1790 1792 1793 1794 1795 1797 0
-1794 -1795 -1796 -1797 1799 0
1790 1795 1796 1797 -1799 0
1791 1794 -1797 1798 0
-1791 -1800 0
1790 1791 1792 1795 1797 1800 0
1791 1792 1793 1795 1796 1800 0
-1791 -1794 -1795 1796 1797 0
-1792 -1793 -1794 -1796 1797 0
-1790 -1792 -1794 1796 -1797 0
1790 1792 1793 -1798 0
1794 1796 1797 -1798 0
1791 -1792 1795 1796 1797 0
1791 1792 -1793 1796 1798 0
-1794 -1800 0
1790 1791 1793 1794 1800 0
1794 -1796 1797 1798 0
1794 1796 -1797 1798 0
-1795 -1800 0
-1798 -1800 0
-1798 -1799 0
1798 1799 1800 0
1801 1803 1805 1806 1807 -1809 0
1801 -1803 -1804 -1806 -1807 1808 0
1802 -1803 1804 1805 -1806 1808 0
1801 1802 -1804 -1805 -1807 1808 1810 0
1802 -1803 1804 1805 -1806 1807 0
1802 1803 1804 -1805 1807 -1808 1810 0
1801 1804 -1807 -1808 1810 0
1801 1804 1807 1808 1810 1811 0
1801 -1802 1804 1807 1808 0
-1801 -1802 1804 1805 -1806 -1808 0
1803 1804 -1805 -1807 1808 1810 0
1801 1802 -1804 -1806 1807 -1810 0
-1803 1804 1807 -1808 -1810 0
-1802 -1804 -1807 1808 -1810 0
1801 -1802 -1804 1805 -1806 -1807 0
1801 1802 1803 1804 1811 0
1801 -1803 -1807 1808 -1810 0
-1801 1802 1804 -1805 -1807 1808 1810 0
1801 1802 -1804 -1805 1807 -1808 1810 0
-1801 -1802 1804 1805 1806 1808 0
-1801 -1803 1805 -1808 -1810 0
-1801 -1804 1805 1807 -1810 0
1801 -1804 -1806 -1808 -1810 0
1801 -1802 -1803 -1805 -1810 0
-1801 1802 -1803 1804 -1806 -1810 0
1801 1802 -1803 -1804 -1806 1807 -1808 0
-1801 -1804 -1807 -1808 1810 0
-1802 1805 -1807 -1808 1810 0
1801 -1802 1804 -1805 1810 0
-1801 -1804 1807 1808 1810 0
1801 -1802 -1804 1805 1806 -1808 0
-1801 -1802 1803 -1804 1810 0
-1802 1803 -1804 -1805 1807 -1808 0
-1801 1802 1803 -1804 -1807 -1808 0
-1805 1806 -1807 -1808 -1810 0
-1801 -1802 1804 -1805 -1810 0
-1801 1802 1803 1808 -1810 0
1803 1804 -1807 -1808 -1810 0
-1801 1803 1804 1805 1806 1808 0
-1805 -1806 -1807 -1808 1810 0
1801 1806 1807 1808 -1810 0
1802 1805 -1808 1809 0
-1802 -1811 0
1801 1802 1803 1806 1808 1811 0
1802 1803 1804 1806 1807 1811 0
-1802 -1805 -1806 1807 1808 0
-1803 -1804 -1805 -1807 1808 0
-1801 -1803 -1805 1807 -1808 0
1801 1803 1804 -1809 0
1805 1807 1808 -1809 0
1802 -1803 1806 1807 1808 0
1802 1803 -1804 1807 1809 0
-1805 -1811 0
1801 1802 1804 1805 1811 0
1805 -1807 1808 1809 0
1805 1807 -1808 1809 0
-1806 -1811 0
-1809 -1811 0
-1809 -1810 0
1809 1810 1811 0
1812 1814 1816 1817 1818 -1820 0
1812 -1814 -1815 -1817 -1818 1819 0
1813 -1814 1815 1816 -1817 1819 0
1812 1813 -1815 -1816 -1818 1819 1821 0
1813 -1814 1815 1816 -1817 1818 0
1813 1814 1815 -1816 1818 -1819 1821 0
1812 1815 -1818 -1819 1821 0
1812 1815 1818 1819 1821 1822 0
1812 -1813 1815 1818 1819 0
-1812 -1813 1815 1816 -1817 -1819 0
1814 1815 -1816 -1818 1819 1821 0
1812 1813 -1815 -1817 1818 -1821 0
-1814 1815 1818 -1819 -1821 0
-1813 -1815 -1818 1819 -1821 0
1812 -1813 -1815 1816 -1817 -1818 0
1812 1813 1814 1815 1822 0
1812 -1814 -1818 1819 -1821 0
-1812 1813 1815 -1816 -1818 1819 1821 0
1812 1813 -1815 -1816 1818 -1819 1821 0
-1812 -1813 1815 1816 1817 1819 0
-1812 -1814 1816 -1819 -1821 0
-1812 -1815 1816 1818 -1821 0
1812 -1815 -1817 -1819 -1821 0
1812 -1813 -1814 -1816 -1821 0
-1812 1813 -1814 1815 -1817 -1821 0
1812 1813 -1814 -1815 -1817 1818 -1819 0
-1812 -1815 -1818 -1819 1821 0
-1813 1816 -1818 -1819 1821 0
1812 -1813 1815 -1816 1821 0
-1812 -1815 1818 1819 1821 0
1812 -1813 -1815 1816 1817 -1819 0
-1812 -1813 1814 -1815 1821 0
-1813 1814 -1815 -1816 1818 -1819 0
-1812 1813 1814 -1815 -1818 -1819 0
-1816 1817 -1818 -1819 -1821 0
-1812 -1813 1815 -1816 -1821 0
-1812 1813 1814 1819 -1821 0
1814 1815 -1818 -1819 -1821 0
-1812 1814 1815 1816 1817 1819 0
-1816 -1817 -1818 -1819 1821 0
1812 1817 1818 1819 -1821 0
1813 1816 -1819 1820 0
-1813 -1822 0
1812 1813 1814 1817 1819 1822 0
1813 1814 1815 1817 1818 1822 0
-1813 -1816 -1817 1818 1819 0
-1814 -1815 -1816 -1818 1819 0
-1812 -1814 -1816 1818 -1819 0
1812 1814 1815 -1820 0
1816 1818 1819 -1820 0
1813 -1814 1817 1818 1819 0
1813 1814 -1815 1818 1820 0
-1816 -1822 0
1812 1813 1815 1816 1822 0
1816 -1818 1819 1820 0
1816 1818 -1819 1820 0
-1817 -1822 0
-1820 -1822 0
-1820 -1821 0
1820 1821 1822 0
1823 1825 1827 1828 1829 -1831 0
1823 -1825 -1826 -1828 -1829 1830 0
1824 -1825 1826 1827 -1828 1830 0
1823 1824 -1826 -1827 -1829 1830 1832 0
1824 -1825 1826 1827 -1828 1829 0
1824 1825 1826 -1827 1829 -1830 1832 0
1823 1826 -1829 -1830 1832 0
1823 1826 1829 1830 1832 1833 0
1823 -1824 1826 1829 1830 0
-1823 -1824 1826 1827 -1828 -1830 0
1825 1826 -1827 -1829 1830 1832 0
1823 1824 -1826 -1828 1829 -1832 0
-1825 1826 1829 -1830 -1832 0
-1824 -1826 -1829 1830 -1832 0
1823 -1824 -1826 1827 -1828 -1829 0
1823 1824 1825 1826 1833 0
1823 -1825 -1829 1830 -1832 0
-1823 1824 1826 -1827 -1829 1830 1832 0
1823 1824 -1826 -1827 1829 -1830 1832 0
-1823 -1824 1826 1827 1828 1830 0
-1823 -1825 1827 -1830 -1832 0
-1823 -1826 1827 1829 -1832 0
1823 -1826 -1828 -1830 -1832 0
1823 -1824 -1825 -1827 -1832 0
-1823 1824 -1825 1826 -1828 -1832 0
1823 1824 -1825 -1826 -1828 1829 -1830 0
-1823 -1826 -1829 -1830 1832 0
-1824 1827 -1829 -1830 1832 0
1823 -1824 1826 -1827 1832 0
-1823 -1826 1829 1830 1832 0
1823 -1824 -1826 1827 1828 -1830 0
-1823 -1824 1825 -1826 1832 0
-1824 1825 -1826 -1827 1829 -1830 0
-1823 1824 1825 -1826 -1829 -1830 0
-1827 1828 -1829 -1830 -1832 0
-1823 -1824 1826 -1827 -1832 0
-1823 1824 1825 1830 -1832 0
1825 1826 -1829 -1830 -1832 0
-1823 1825 1826 1827 1828 1830 0
-1827 -1828 -1829 -1830 1832 0
1823 1828 1829 1830 -1832 0
1824 1827 -1830 1831 0
-1824 -1833 0
1823 1824 1825 1828 1830 1833 0
1824 1825 1826 1828 1829 1833 0
-1824 -1827 -1828 1829 1830 0
-1825 -1826 -1827 -1829 1830 0
-1823 -1825 -1827 1829 -1830 0
1823 1825 1826 -1831 0
1827 1829 1830 -1831 0
1824 -1825 1828 1829 1830 0
1824 1825 -1826 1829 1831 0
-1827 -1833 0
1823 1824 1826 1827 1833 0
1827 -1829 1830 1831 0
1827 1829 -1830 1831 0
-1828 -1833 0
-1831 -1833 0
-1831 -1832 0
1831 1832 1833 0
1834 1836 1838 1839 1840 -1842 0
1834 -1836 -1837 -1839 -1840 1841 0
1835 -1836 1837 1838 -1839 1841 0
1834 1835 -1837 -1838 -1840 1841 1843 0
1835 -1836 1837 1838 -1839 1840 0
1835 1836 1837 -1838 1840 -1841 1843 0
1834 1837 -1840 -1841 1843 0
1834 1837 1840 1841 1843 1844 0
1834 -1835 1837 1840 1841 0
-1834 -1835 1837 1838 -1839 -1841 0
1836 1837 -1838 -1840 1841 1843 0
1834 1835 -1837 -1839 1840 -1843 0
-1836 1837 1840 -1841 -1843 0
-1835 -1837 -1840 1841 -1843 0
1834 -1835 -1837 1838 -1839 -1840 0
1834 1835 1836 1837 1844 0
1834 -1836 -1840 1841 -1843 0
-1834 1835 1837 -1838 -1840 1841 1843 0
1834 1835 -1837 -1838 1840 -1841 1843 0
-1834 -1835 1837 1838 1839 1841 0
-1834 -1836 1838 -1841 -1843 0
-1834 -1837 1838 1840 -1843 0
1834 -1837 -1839 -1841 -1843 0
1834 -1835 -1836 -1838 -1843 0
-1834 1835 -1836 1837 -1839 -1843 0
1834 1835 -1836 -1837 -1839 1840 -1841 0
-1834 -1837 -1840 -1841 1843 0
-1835 1838 -1840 -1841 1843 0
1834 -1835 1837 -1838 1843 0
-1834 -1837 1840 1841 1843 0
1834 -1835 -1837 1838 1839 -1841 0
-1834 -1835 1836 -1837 1843 0
-1835 1836 -1837 -1838 1840 -1841 0
-1834 1835 1836 -1837 -1840 -1841 0
-1838 1839 -1840 -1841 -1843 0
-1834 -1835 1837 -1838 -1843 0
-1834 1835 1836 1841 -1843 0
1836 1837 -1840 -1841 -1843 0
-1834 1836 1837 1838 1839 1841 0
-1838 -1839 -1840 -1841 1843 0
1834 1839 1840 1841 -1843 0
1835 1838 -1841 1842 0
-1835 -1844 0
1834 1835 1836 1839 1841 1844 0
1835 1836 1837 1839 1840 1844 0
-1835 -1838 -1839 1840 1841 0
-1836 -1837 -1838 -1840 1841 0
-1834 -1836 -1838 1840 -1841 0
1834 1836 1837 -1842 0
1838 1840 1841 -1842 0
1835 -1836 1839 1840 1841 0
1835 1836 -1837 1840 1842 0
-1838 -1844 0
1834 1835 1837 1838 1844 0
1838 -1840 1841 1842 0
1838 1840 -1841 1842 0
-1839 -1844 0
-1842 -1844 0
-1842 -1843 0
1842 1843 1844 0
1845 1847 1849 1850 1851 -1853 0
1845 -1847 -1848 -1850 -1851 1852 0
1846 -1847 1848 1849 -1850 1852 0
1845 1846 -1848 -1849 -1851 1852 1854 0
1846 -1847 1848 1849 -1850 1851 0
1846 1847 1848 -1849 1851 -1852 1854 0
1845 1848 -1851 -1852 1854 0
1845 1848 1851 1852 1854 1855 0
1845 -1846 1848 1851 1852 0
-1845 -1846 1848 1849 -1850 -1852 0
1847 1848 -1849 -1851 1852 1854 0
1845 1846 -1848 -1850 1851 -1854 0
-1847 1848 1851 -1852 -1854 0
-1846 -1848 -1851 1852 -1854 0
1845 -1846 -1848 1849 -1850 -1851 0
1845 1846 1847 1848 1855 0
1845 -1847 -1851 1852 -1854 0
-1845 1846 1848 -1849 -1851 1852 1854 0
1845 1846 -1848 -1849 1851 -1852 1854 0
-1845 -1846 1848 1849 1850 1852 0
-1845 -1847 1849 -1852 -1854 0
-1845 -1848 1849 1851 -1854 0
1845 -1848 -1850 -1852 -1854 0
1845 -1846 -1847 -1849 -1854 0
-1845 1846 -1847 1848 -1850 -1854 0
1845 1846 -1847 -1848 -1850 1851 -1852 0
-1845 -1848 -1851 -1852 1854 0
-1846 1849 -1851 -1852 1854 0
1845 -1846 1848 -1849 1854 0
-1845 -1848 1851 1852 1854 0
1845 -1846 -1848 1849 1850 -1852 0
-1845 -1846 1847 -1848 1854 0
-1846 1847 -1848 -1849 1851 -1852 0
-1845 1846 1847 -1848 -1851 -1852 0
-1849 1850 -1851 -1852 -1854 0
-1845 -1846 1848 -1849 -1854 0
-1845 1846 1847 1852 -1854 0
1847 1848 -1851 -1852 -1854 0
-1845 1847 1848 1849 1850 1852 0
-1849 -1850 -1851 -1852 1854 0
1845 1850 1851 1852 -1854 0
1846 1849 -1852 1853 0
-1846 -1855 0
1845 1846 1847 1850 1852 1855 0
1846 1847 1848 1850 1851 1855 0
-1846 -1849 -1850 1851 1852 0
-1847 -1848 -1849 -1851 1852 0
-1845 -1847 -1849 1851 -1852 0
1845 1847 1848 -1853 0
1849 1851 1852 -1853 0
1846 -1847 1850 1851 1852 0
1846 1847 -1848 1851 1853 0
-1849 -1855 0
1845 1846 1848 1849 1855 0
1849 -1851 1852 1853 0
1849 1851 -1852 1853 0
-1850 -1855 0
-1853 -1855 0
-1853 -1854 0
1853 1854 1855 0
1856 1858 1860 1861 1862 -1864 0
1856 -1858 -1859 -1861 -1862 1863 0
1857 -1858 1859 1860 -1861 1863 0
1856 1857 -1859 -1860 -1862 1863 1865 0
1857 -1858 1859 1860 -1861 1862 0
1857 1858 1859 -1860 1862 -1863 1865 0
1856 1859 -1862 -1863 1865 0
1856 1859 1862 1863 1865 1866 0
1856 -1857 1859 1862 1863 0
-1856 -1857 1859 1860 -1861 -1863 0
1858 1859 -1860 -1862 1863 1865 0
1856 1857 -1859 -1861 1862 -1865 0
-1858 1859 1862 -1863 -1865 0
-1857 -1859 -1862 1863 -1865 0
1856 -1857 -1859 1860 -1861 -1862 0
1856 1857 1858 1859 1866 0
1856 -1858 -1862 1863 -1865 0
-1856 1857 1859 -1860 -1862 1863 1865 0
1856 1857 -1859 -1860 1862 -1863 1865 0
-1856 -1857 1859 1860 1861 1863 0
-1856 -1858 1860 -1863 -1865 0
-1856 -1859 1860 1862 -1865 0
1856 -1859 -1861 -1863 -1865 0
1856 -1857 -1858 -1860 -1865 0
-1856 1857 -1858 1859 -1861 -1865 0
1856 1857 -1858 -1859 -1861 1862 -1863 0
-1856 -1859 -1862 -1863 1865 0
-1857 1860 -1862 -1863 1865 0
1856 -1857 1859 -1860 1865 0
-1856 -1859 1862 1863 1865 0
1856 -1857 -1859 1860 1861 -1863 0
-1856 -1857 1858 -1859 1865 0
-1857 1858 -1859 -1860 1862 -1863 0
-1856 1857 1858 -1859 -1862 -1863 0
-1860 1861 -1862 -1863 -1865 0
-1856 -1857 1859 -1860 -1865 0
-1856 1857 1858 1863 -1865 0
1858 1859 -1862 -1863 -1865 0
-1856 1858 1859 1860 1861 1863 0
-1860 -1861 -1862 -1863 1865 0
1856 1861 1862 1863 -1865 0
1857 1860 -1863 1864 0
-1857 -1866 0
1856 1857 1858 1861 1863 1866 0
1857 1858 1859 1861 1862 1866 0
-1857 -1860 -1861 1862 1863 0
-1858 -1859 -1860 -1862 1863 0
-1856 -1858 -1860 1862 -1863 0
1856 1858 1859 -1864 0
1860 1862 1863 -1864 0
1857 -1858 1861 1862 1863 0
1857 1858 -1859 1862 1864 0
-1860 -1866 0
1856 1857 1859 1860 1866 0
1860 -1862 1863 1864 0
1860 1862 -1863 1864 0
-1861 -1866 0
-1864 -1866 0
-1864 -1865 0
1864 1865 1866 0
1867 1869 1871 1872 1873 -1875 0
1867 -1869 -1870 -1872 -1873 1874 0
1868 -1869 1870 1871 -1872 1874 0
1867 1868 -1870 -1871 -1873 1874 1876 0
1868 -1869 1870 1871 -1872 1873 0
1868 1869 1870 -1871 1873 -1874 1876 0
1867 1870 -1873 -1874 1876 0
1867 1870 1873 1874 1876 1877 0
1867 -1868 1870 1873 1874 0
-1867 -1868 1870 1871 -1872 -1874 0
1869 1870 -1871 -1873 1874 1876 0
1867 1868 -1870 -1872 1873 -1876 0
-1869 1870 1873 -1874 -1876 0
-1868 -1870 -1873 1874 -1876 0
1867 -1868 -1870 1871 -1872 -1873 0
1867 1868 1869 1870 1877 0
1867 -1869 -1873 1874 -1876 0
-1867 1868 1870 -1871 -1873 1874 1876 0
1867 1868 -1870 -1871 1873 -1874 1876 0
-1867 -1868 1870 1871 1872 1874 0
-1867 -1869 1871 -1874 -1876 0
-1867 -1870 1871 1873 -1876 0
1867 -1870 -1872 -1874 -1876 0
1867 -1868 -1869 -1871 -1876 0
-1867 1868 -1869 1870 -1872 -1876 0
1867 1868 -1869 -1870 -1872 1873 -1874 0
-1867 -1870 -1873 -1874 1876 0
-1868 1871 -1873 -1874 1876 0
1867 -1868 1870 -1871 1876 0
-1867 -1870 1873 1874 1876 0
1867 -1868 -1870 1871 1872 -1874 0
-1867 -1868 1869 -1870 1876 0
-1868 1869 -1870 -1871 1873 -1874 0
-1867 1868 1869 -1870 -1873 -1874 0
-1871 1872 -1873 -1874 -1876 0
-1867 -1868 1870 -1871 -1876 0
-1867 1868 1869 1874 -1876 0
1869 1870 -1873 -1874 -1876 0
-1867 1869 1870 1871 1872 1874 0
-1871 -1872 -1873 -1874 1876 0
1867 1872 1873 1874 -1876 0
1868 1871 -1874 1875 0
-1868 -1877 0
1867 1868 1869 1872 1874 1877 0
1868 1869 1870 1872 1873 1877 0
-1868 -1871 -1872 1873 1874 0
-1869 -1870 -1871 -1873 1874 0
-1867 -1869 -1871 1873 -1874 0
1867 1869 1870 -1875 0
1871 1873 1874 -1875 0
1868 -1869 1872 1873 1874 0
1868 1869 -1870 1873 1875 0
-1871 -1877 0
1867 1868 1870 1871 1877 0
1871 -1873 1874 1875 0
1871 1873 -1874 1875 0
-1872 -1877 0
-1875 -1877 0
-1875 -1876 0
1875 1876 1877 0
1878 1880 1882 1883 1884 -1886 0
1878 -1880 -1881 -1883 -1884 1885 0
1879 -1880 1881 1882 -1883 1885 0
1878 1879 -1881 -1882 -1884 1885 1887 0
1879 -1880 1881 1882 -1883 1884 0
1879 1880 1881 -1882 1884 -1885 1887 0
1878 1881 -1884 -1885 1887 0
1878 1881 1884 1885 1887 1888 0
1878 -1879 1881 1884 1885 0
-1878 -1879 1881 1882 -1883 -1885 0
1880 1881 -1882 -1884 1885 1887 0
1878 1879 -1881 -1883 1884 -1887 0
-1880 1881 1884 -1885 -1887 0
-1879 -1881 -1884 1885 -1887 0
1878 -1879 -1881 1882 -1883 -1884 0
1878 1879 1880 1881 1888 0
1878 -1880 -1884 1885 -1887 0
-1878 1879 1881 -1882 -1884 1885 1887 0
1878 1879 -1881 -1882 1884 -1885 1887 0
-1878 -1879 1881 1882 1883 1885 0
-1878 -1880 1882 -1885 -1887 0
-1878 -1881 1882 1884 -1887 0
1878 -1881 -1883 -1885 -1887 0
1878 -1879 -1880 -1882 -1887 0
-1878 1879 -1880 1881 -1883 -1887 0
1878 1879 -1880 -1881 -1883 1884 -1885 0
-1878 -1881 -1884 -1885 1887 0
-1879 1882 -1884 -1885 1887 0
1878 -1879 1881 -1882 1887 0
-1878 -1881 1884 1885 1887 0
1878 -1879 -1881 1882 1883 -1885 0
-1878 -1879 1880 -1881 1887 0
-1879 1880 -1881 -1882 1884 -1885 0
-1878 1879 1880 -1881 -1884 -1885 0
-1882 1883 -1884 -1885 -1887 0
-1878 -1879 1881 -1882 -1887 0
-1878 1879 1880 1885 -1887 0
1880 1881 -1884 -1885 -1887 0
-1878 1880 1881 1882 1883 1885 0
-1882 -1883 -1884 -1885 1887 0
1878 1883 1884 1885 -1887 0
1879 1882 -1885 1886 0
-1879 -1888 0
1878 1879 1880 1883 1885 1888 0
1879 1880 1881 1883 1884 1888 0
-1879 -1882 -1883 1884 1885 0
-1880 -1881 -1882 -1884 1885 0
-1878 -1880 -1882 1884 -1885 0
1878 1880 1881 -1886 0
1882 1884 1885 -1886 0
1879 -1880 1883 1884 1885 0
1879 1880 -1881 1884 1886 0
-1882 -1888 0
1878 1879 1881 1882 1888 0
1882 -1884 1885 1886 0
1882 1884 -1885 1886 0
-1883 -1888 0
-1886 -1888 0
-1886 -1887 0
1886 1887 1888 0
-2017 1889 0
2017 -1889 0
-2018 1890 0
2018 -1890 0
-2019 1891 0
2019 -1891 0
-2020 1892 0
2020 -1892 0
-2021 1893 0
2021 -1893 0
-2022 1894 0
2022 -1894 0
-2023 1895 0
2023 -1895 0
-2024 1896 0
2024 -1896 0
-2025 1897 0
2025 -1897 0
-2026 1898 0
2026 -1898 0
-2027 1899 0
2027 -1899 0
-2028 1900 0
2028 -1900 0
-2029 1901 0
2029 -1901 0
-2030 1902 0
2030 -1902 0
-2031 1903 0
2031 -1903 0
-2032 1904 0
2032 -1904 0
-2033 1905 0
2033 -1905 0
-2034 1906 0
2034 -1906 0
-2035 1907 0
2035 -1907 0
-2036 1908 0
2036 -1908 0
-2037 1909 0
2037 -1909 0
-2038 1910 0
2038 -1910 0
-2039 1911 0
2039 -1911 0
-2040 1912 0
2040 -1912 0
-2041 1913 0
2041 -1913 0
-2042 1914 0
2042 -1914 0
-2043 1915 0
2043 -1915 0
-2044 1916 0
2044 -1916 0
-2045 1917 0
2045 -1917 0
-2046 1918 0
2046 -1918 0
-2047 1919 0
2047 -1919 0
-2048 1920 0
2048 -1920 0
-2049 1921 0
2049 -1921 0
-2050 1922 0
2050 -1922 0
-2051 1923 0
2051 -1923 0
-2052 1924 0
2052 -1924 0
-2053 1925 0
2053 -1925 0
-2054 1926 0
2054 -1926 0
-2055 1927 0
2055 -1927 0
-2056 1928 0
2056 -1928 0
-2057 1929 0
2057 -1929 0
-2058 1930 0
2058 -1930 0
-2059 1931 0
2059 -1931 0
-2060 1932 0
2060 -1932 0
-2061 1933 0
2061 -1933 0
-2062 1934 0
2062 -1934 0
-2063 1935 0
2063 -1935 0
-2064 1936 0
2064 -1936 0
-2065 1937 0
2065 -1937 0
-2066 1938 0
2066 -1938 0
-2067 1939 0
2067 -1939 0
-2068 1940 0
2068 -1940 0
-2069 1941 0
2069 -1941 0
-2070 1942 0
2070 -1942 0
-2071 1943 0
2071 -1943 0
-2072 1944 0
2072 -1944 0
-2073 1945 0
2073 -1945 0
-2074 1946 0
2074 -1946 0
-2075 1947 0
2075 -1947 0
-2076 1948 0
2076 -1948 0
-2077 1949 0
2077 -1949 0
-2078 1950 0
2078 -1950 0
-2079 1951 0
2079 -1951 0
-2080 1952 0
2080 -1952 0
-2081 1953 0
2081 -1953 0
-2082 1954 0
2082 -1954 0
-2083 1955 0
2083 -1955 0
-2084 1956 0
2084 -1956 0
-2085 1957 0
2085 -1957 0
-2086 1958 0
2086 -1958 0
-2087 1959 0
2087 -1959 0
-2088 1960 0
2088 -1960 0
-2089 1961 0
2089 -1961 0
-2090 1962 0
2090 -1962 0
-2091 1963 0
2091 -1963 0
-2092 1964 0
2092 -1964 0
-2093 1965 0
2093 -1965 0
-2094 1966 0
2094 -1966 0
-2095 1967 0
2095 -1967 0
-2096 1968 0
2096 -1968 0
-2097 1969 0
2097 -1969 0
-2098 1970 0
2098 -1970 0
-2099 1971 0
2099 -1971 0
-2100 1972 0
2100 -1972 0
-2101 1973 0
2101 -1973 0
-2102 1974 0
2102 -1974 0
-2103 1975 0
2103 -1975 0
-2104 1976 0
2104 -1976 0
-2105 1977 0
2105 -1977 0
-2106 1978 0
2106 -1978 0
-2107 1979 0
2107 -1979 0
-2108 1980 0
2108 -1980 0
-2109 1981 0
2109 -1981 0
-2110 1982 0
2110 -1982 0
-2111 1983 0
2111 -1983 0
-2112 1984 0
2112 -1984 0
-2113 1985 0
2113 -1985 0
-2114 1986 0
2114 -1986 0
-2115 1987 0
2115 -1987 0
-2116 1988 0
2116 -1988 0
-2117 1989 0
2117 -1989 0
-2118 1990 0
2118 -1990 0
-2119 1991 0
2119 -1991 0
-2120 1992 0
2120 -1992 0
-2121 1993 0
2121 -1993 0
-2122 1994 0
2122 -1994 0
-2123 1995 0
2123 -1995 0
-2124 1996 0
2124 -1996 0
-2125 1997 0
2125 -1997 0
-2126 1998 0
2126 -1998 0
-2127 1999 0
2127 -1999 0
-2128 2000 0
2128 -2000 0
-2129 2001 0
2129 -2001 0
-2130 2002 0
2130 -2002 0
-2131 2003 0
2131 -2003 0
-2132 2004 0
2132 -2004 0
-2133 2005 0
2133 -2005 0
-2134 2006 0
2134 -2006 0
-2135 2007 0
2135 -2007 0
-2136 2008 0
2136 -2008 0
-2137 2009 0
2137 -2009 0
-2138 2010 0
2138 -2010 0
-2139 2011 0
2139 -2011 0
-2140 2012 0
2140 -2012 0
-2141 2013 0
2141 -2013 0
-2142 2014 0
2142 -2014 0
-2143 2015 0
2143 -2015 0
-2144 2016 0
2144 -2016 0
1025 -1281 0
-1025 1281 0
1026 -1282 0
-1026 1282 0
1027 -1283 0
-1027 1283 0
1028 -1284 0
-1028 1284 0
1029 -1285 0
-1029 1285 0
1030 -1286 0
-1030 1286 0
1031 -1287 0
-1031 1287 0
1032 -1288 0
-1032 1288 0
1033 -1289 0
-1033 1289 0
1034 -1290 0
-1034 1290 0
1035 -1291 0
-1035 1291 0
1036 -1292 0
-1036 1292 0
1037 -1293 0
-1037 1293 0
1038 -1294 0
-1038 1294 0
1039 -1295 0
-1039 1295 0
1040 -1296 0
-1040 1296 0
1041 -1297 0
-1041 1297 0
1042 -1298 0
-1042 1298 0
1043 -1299 0
-1043 1299 0
1044 -1300 0
-1044 1300 0
1045 -1301 0
-1045 1301 0
1046 -1302 0
-1046 1302 0
1047 -1303 0
-1047 1303 0
1048 -1304 0
-1048 1304 0
1049 -1305 0
-1049 1305 0
1050 -1306 0
-1050 1306 0
1051 -1307 0
-1051 1307 0
1052 -1308 0
-1052 1308 0
1053 -1309 0
-1053 1309 0
1054 -1310 0
-1054 1310 0
1055 -1311 0
-1055 1311 0
1056 -1312 0
-1056 1312 0
1057 -1313 0
-1057 1313 0
1058 -1314 0
-1058 1314 0
1059 -1315 0
-1059 1315 0
1060 -1316 0
-1060 1316 0
1061 -1317 0
-1061 1317 0
1062 -1318 0
-1062 1318 0
1063 -1319 0
-1063 1319 0
1064 -1320 0
-1064 1320 0
1065 -1321 0
-1065 1321 0
1066 -1322 0
-1066 1322 0
1067 -1323 0
-1067 1323 0
1068 -1324 0
-1068 1324 0
1069 -1325 0
-1069 1325 0
1070 -1326 0
-1070 1326 0
1071 -1327 0
-1071 1327 0
1072 -1328 0
-1072 1328 0
1073 -1329 0
-1073 1329 0
1074 -1330 0
-1074 1330 0
1075 -1331 0
-1075 1331 0
1076 -1332 0
-1076 1332 0
1077 -1333 0
-1077 1333 0
1078 -1334 0
-1078 1334 0
1079 -1335 0
-1079 1335 0
1080 -1336 0
-1080 1336 0
1081 -1337 0
-1081 1337 0
1082 -1338 0
-1082 1338 0
1083 -1339 0
-1083 1339 0
1084 -1340 0
-1084 1340 0
1085 -1341 0
-1085 1341 0
1086 -1342 0
-1086 1342 0
1087 -1343 0
-1087 1343 0
1088 -1344 0
-1088 1344 0
1089 -1345 0
-1089 1345 0
1090 -1346 0
-1090 1346 0
1091 -1347 0
-1091 1347 0
1092 -1348 0
-1092 1348 0
1093 -1349 0
-1093 1349 0
1094 -1350 0
-1094 1350 0
1095 -1351 0
-1095 1351 0
1096 -1352 0
-1096 1352 0
1097 -1353 0
-1097 1353 0
1098 -1354 0
-1098 1354 0
1099 -1355 0
-1099 1355 0
1100 -1356 0
-1100 1356 0
1101 -1357 0
-1101 1357 0
1102 -1358 0
-1102 1358 0
1103 -1359 0
-1103 1359 0
1104 -1360 0
-1104 1360 0
1105 -1361 0
-1105 1361 0
1106 -1362 0
-1106 1362 0
1107 -1363 0
-1107 1363 0
1108 -1364 0
-1108 1364 0
1109 -1365 0
-1109 1365 0
1110 -1366 0
-1110 1366 0
1111 -1367 0
-1111 1367 0
1112 -1368 0
-1112 1368 0
1113 -1369 0
-1113 1369 0
1114 -1370 0
-1114 1370 0
1115 -1371 0
-1115 1371 0
1116 -1372 0
-1116 1372 0
1117 -1373 0
-1117 1373 0
1118 -1374 0
-1118 1374 0
1119 -1375 0
-1119 1375 0
1120 -1376 0
-1120 1376 0
1121 -1377 0
-1121 1377 0
1122 -1378 0
-1122 1378 0
1123 -1379 0
-1123 1379 0
1124 -1380 0
-1124 1380 0
1125 -1381 0
-1125 1381 0
1126 -1382 0
-1126 1382 0
1127 -1383 0
-1127 1383 0
1128 -1384 0
-1128 1384 0
1129 -1385 0
-1129 1385 0
1130 -1386 0
-1130 1386 0
1131 -1387 0
-1131 1387 0
1132 -1388 0
-1132 1388 0
1133 -1389 0
-1133 1389 0
1134 -1390 0
-1134 1390 0
1135 -1391 0
-1135 1391 0
1136 -1392 0
-1136 1392 0
1137 -1393 0
-1137 1393 0
1138 -1394 0
-1138 1394 0
1139 -1395 0
-1139 1395 0
1140 -1396 0
-1140 1396 0
1141 -1397 0
-1141 1397 0
1142 -1398 0
-1142 1398 0
1143 -1399 0
-1143 1399 0
1144 -1400 0
-1144 1400 0
1145 -1401 0
-1145 1401 0
1146 -1402 0
-1146 1402 0
1147 -1403 0
-1147 1403 0
1148 -1404 0
-1148 1404 0
1149 -1405 0
-1149 1405 0
1150 -1406 0
-1150 1406 0
1151 -1407 0
-1151 1407 0
1152 -1408 0
-1152 1408 0
2017 -1153 0
-2017 1153 0
2018 -1154 0
-2018 1154 0
2019 -1155 0
-2019 1155 0
2020 -1156 0
-2020 1156 0
2021 -1157 0
-2021 1157 0
2022 -1158 0
-2022 1158 0
2023 -1159 0
-2023 1159 0
2024 -1160 0
-2024 1160 0
2025 -1161 0
-2025 1161 0
2026 -1162 0
-2026 1162 0
2027 -1163 0
-2027 1163 0
2028 -1164 0
-2028 1164 0
2029 -1165 0
-2029 1165 0
2030 -1166 0
-2030 1166 0
2031 -1167 0
-2031 1167 0
2032 -1168 0
-2032 1168 0
2033 -1169 0
-2033 1169 0
2034 -1170 0
-2034 1170 0
2035 -1171 0
-2035 1171 0
2036 -1172 0
-2036 1172 0
2037 -1173 0
-2037 1173 0
2038 -1174 0
-2038 1174 0
2039 -1175 0
-2039 1175 0
2040 -1176 0
-2040 1176 0
2041 -1177 0
-2041 1177 0
2042 -1178 0
-2042 1178 0
2043 -1179 0
-2043 1179 0
2044 -1180 0
-2044 1180 0
2045 -1181 0
-2045 1181 0
2046 -1182 0
-2046 1182 0
2047 -1183 0
-2047 1183 0
2048 -1184 0
-2048 1184 0
2049 -1185 0
-2049 1185 0
2050 -1186 0
-2050 1186 0
2051 -1187 0
-2051 1187 0
2052 -1188 0
-2052 1188 0
2053 -1189 0
-2053 1189 0
2054 -1190 0
-2054 1190 0
2055 -1191 0
-2055 1191 0
2056 -1192 0
-2056 1192 0
2057 -1193 0
-2057 1193 0
2058 -1194 0
-2058 1194 0
2059 -1195 0
-2059 1195 0
2060 -1196 0
-2060 1196 0
2061 -1197 0
-2061 1197 0
2062 -1198 0
-2062 1198 0
2063 -1199 0
-2063 1199 0
2064 -1200 0
-2064 1200 0
2065 -1201 0
-2065 1201 0
2066 -1202 0
-2066 1202 0
2067 -1203 0
-2067 1203 0
2068 -1204 0
-2068 1204 0
2069 -1205 0
-2069 1205 0
2070 -1206 0
-2070 1206 0
2071 -1207 0
-2071 1207 0
2072 -1208 0
-2072 1208 0
2073 -1209 0
-2073 1209 0
2074 -1210 0
-2074 1210 0
2075 -1211 0
-2075 1211 0
2076 -1212 0
-2076 1212 0
2077 -1213 0
-2077 1213 0
2078 -1214 0
-2078 1214 0
2079 -1215 0
-2079 1215 0
2080 -1216 0
-2080 1216 0
2081 -1217 0
-2081 1217 0
2082 -1218 0
-2082 1218 0
2083 -1219 0
-2083 1219 0
2084 -1220 0
-2084 1220 0
2085 -1221 0
-2085 1221 0
2086 -1222 0
-2086 1222 0
2087 -1223 0
-2087 1223 0
2088 -1224 0
-2088 1224 0
2089 -1225 0
-2089 1225 0
2090 -1226 0
-2090 1226 0
2091 -1227 0
-2091 1227 0
2092 -1228 0
-2092 1228 0
2093 -1229 0
-2093 1229 0
2094 -1230 0
-2094 1230 0
2095 -1231 0
-2095 1231 0
2096 -1232 0
-2096 1232 0
2097 -1233 0
-2097 1233 0
2098 -1234 0
-2098 1234 0
2099 -1235 0
-2099 1235 0
2100 -1236 0
-2100 1236 0
2101 -1237 0
-2101 1237 0
2102 -1238 0
-2102 1238 0
2103 -1239 0
-2103 1239 0
2104 -1240 0
-2104 1240 0
2105 -1241 0
-2105 1241 0
2106 -1242 0
-2106 1242 0
2107 -1243 0
-2107 1243 0
2108 -1244 0
-2108 1244 0
2109 -1245 0
-2109 1245 0
2110 -1246 0
-2110 1246 0
2111 -1247 0
-2111 1247 0
2112 -1248 0
-2112 1248 0
2113 -1249 0
-2113 1249 0
2114 -1250 0
-2114 1250 0
2115 -1251 0
-2115 1251 0
2116 -1252 0
-2116 1252 0
2117 -1253 0
-2117 1253 0
2118 -1254 0
-2118 1254 0
2119 -1255 0
-2119 1255 0
2120 -1256 0
-2120 1256 0
2121 -1257 0
-2121 1257 0
2122 -1258 0
-2122 1258 0
2123 -1259 0
-2123 1259 0
2124 -1260 0
-2124 1260 0
2125 -1261 0
-2125 1261 0
2126 -1262 0
-2126 1262 0
2127 -1263 0
-2127 1263 0
2128 -1264 0
-2128 1264 0
2129 -1265 0
-2129 1265 0
2130 -1266 0
-2130 1266 0
2131 -1267 0
-2131 1267 0
2132 -1268 0
-2132 1268 0
2133 -1269 0
-2133 1269 0
2134 -1270 0
-2134 1270 0
2135 -1271 0
-2135 1271 0
2136 -1272 0
-2136 1272 0
2137 -1273 0
-2137 1273 0
2138 -1274 0
-2138 1274 0
2139 -1275 0
-2139 1275 0
2140 -1276 0
-2140 1276 0
2141 -1277 0
-2141 1277 0
2142 -1278 0
-2142 1278 0
2143 -1279 0
-2143 1279 0
2144 -1280 0
-2144 1280 0
-1533 1537 0
1533 -1537 0
-1534 1538 0
1534 -1538 0
-1535 1539 0
1535 -1539 0
-1536 1540 0
1536 -1540 0
-1529 1548 0
1529 -1548 0
-1530 1549 0
1530 -1549 0
-1531 1550 0
1531 -1550 0
-1532 1551 0
1532 -1551 0
-1525 1559 0
1525 -1559 0
-1526 1560 0
1526 -1560 0
-1527 1561 0
1527 -1561 0
-1528 1562 0
1528 -1562 0
-1521 1570 0
1521 -1570 0
-1522 1571 0
1522 -1571 0
-1523 1572 0
1523 -1572 0
-1524 1573 0
1524 -1573 0
-1517 1581 0
1517 -1581 0
-1518 1582 0
1518 -1582 0
-1519 1583 0
1519 -1583 0
-1520 1584 0
1520 -1584 0
-1513 1592 0
1513 -1592 0
-1514 1593 0
1514 -1593 0
-1515 1594 0
1515 -1594 0
-1516 1595 0
1516 -1595 0
-1509 1603 0
1509 -1603 0
-1510 1604 0
1510 -1604 0
-1511 1605 0
1511 -1605 0
-1512 1606 0
1512 -1606 0
-1505 1614 0
1505 -1614 0
-1506 1615 0
1506 -1615 0
-1507 1616 0
1507 -1616 0
-1508 1617 0
1508 -1617 0
-1501 1625 0
1501 -1625 0
-1502 1626 0
1502 -1626 0
-1503 1627 0
1503 -1627 0
-1504 1628 0
1504 -1628 0
-1497 1636 0
1497 -1636 0
-1498 1637 0
1498 -1637 0
-1499 1638 0
1499 -1638 0
-1500 1639 0
1500 -1639 0
-1493 1647 0
1493 -1647 0
-1494 1648 0
1494 -1648 0
-1495 1649 0
1495 -1649 0
-1496 1650 0
1496 -1650 0
-1489 1658 0
1489 -1658 0
-1490 1659 0
1490 -1659 0
-1491 1660 0
1491 -1660 0
-1492 1661 0
1492 -1661 0
-1485 1669 0
1485 -1669 0
-1486 1670 0
1486 -1670 0
-1487 1671 0
1487 -1671 0
-1488 1672 0
1488 -1672 0
-1481 1680 0
1481 -1680 0
-1482 1681 0
1482 -1681 0
-1483 1682 0
1483 -1682 0
-1484 1683 0
1484 -1683 0
-1477 1691 0
1477 -1691 0
-1478 1692 0
1478 -1692 0
-1479 1693 0
1479 -1693 0
-1480 1694 0
1480 -1694 0
-1473 1702 0
1473 -1702 0
-1474 1703 0
1474 -1703 0
-1475 1704 0
1475 -1704 0
-1476 1705 0
1476 -1705 0
-1469 1713 0
1469 -1713 0
-1470 1714 0
1470 -1714 0
-1471 1715 0
1471 -1715 0
-1472 1716 0
1472 -1716 0
-1465 1724 0
1465 -1724 0
-1466 1725 0
1466 -1725 0
-1467 1726 0
1467 -1726 0
-1468 1727 0
1468 -1727 0
-1461 1735 0
1461 -1735 0
-1462 1736 0
1462 -1736 0
-1463 1737 0
1463 -1737 0
-1464 1738 0
1464 -1738 0
-1457 1746 0
1457 -1746 0
-1458 1747 0
1458 -1747 0
-1459 1748 0
1459 -1748 0
-1460 1749 0
1460 -1749 0
-1453 1757 0
1453 -1757 0
-1454 1758 0
1454 -1758 0
-1455 1759 0
1455 -1759 0
-1456 1760 0
1456 -1760 0
-1449 1768 0
1449 -1768 0
-1450 1769 0
1450 -1769 0
-1451 1770 0
1451 -1770 0
-1452 1771 0
1452 -1771 0
-1445 1779 0
1445 -1779 0
-1446 1780 0
1446 -1780 0
-1447 1781 0
1447 -1781 0
-1448 1782 0
1448 -1782 0
-1441 1790 0
1441 -1790 0
-1442 1791 0
1442 -1791 0
-1443 1792 0
1443 -1792 0
-1444 1793 0
1444 -1793 0
-1437 1801 0
1437 -1801 0
-1438 1802 0
1438 -1802 0
-1439 1803 0
1439 -1803 0
-1440 1804 0
1440 -1804 0
-1433 1812 0
1433 -1812 0
-1434 1813 0
1434 -1813 0
-1435 1814 0
1435 -1814 0
-1436 1815 0
1436 -1815 0
-1429 1823 0
1429 -1823 0
-1430 1824 0
1430 -1824 0
-1431 1825 0
1431 -1825 0
-1432 1826 0
1432 -1826 0
-1425 1834 0
1425 -1834 0
-1426 1835 0
1426 -1835 0
-1427 1836 0
1427 -1836 0
-1428 1837 0
1428 -1837 0
-1421 1845 0
1421 -1845 0
-1422 1846 0
1422 -1846 0
-1423 1847 0
1423 -1847 0
-1424 1848 0
1424 -1848 0
-1417 1856 0
1417 -1856 0
-1418 1857 0
1418 -1857 0
-1419 1858 0
1419 -1858 0
-1420 1859 0
1420 -1859 0
-1413 1867 0
1413 -1867 0
-1414 1868 0
1414 -1868 0
-1415 1869 0
1415 -1869 0
-1416 1870 0
1416 -1870 0
-1409 1878 0
1409 -1878 0
-1410 1879 0
1410 -1879 0
-1411 1880 0
1411 -1880 0
-1412 1881 0
1412 -1881 0
-1882 1889 0
1882 -1889 0
-1883 1890 0
1883 -1890 0
-1884 1891 0
1884 -1891 0
-1885 1892 0
1885 -1892 0
-1871 1893 0
1871 -1893 0
-1872 1894 0
1872 -1894 0
-1873 1895 0
1873 -1895 0
-1874 1896 0
1874 -1896 0
-1860 1897 0
1860 -1897 0
-1861 1898 0
1861 -1898 0
-1862 1899 0
1862 -1899 0
-1863 1900 0
1863 -1900 0
-1849 1901 0
1849 -1901 0
-1850 1902 0
1850 -1902 0
-1851 1903 0
1851 -1903 0
-1852 1904 0
1852 -1904 0
-1838 1905 0
1838 -1905 0
-1839 1906 0
1839 -1906 0
-1840 1907 0
1840 -1907 0
-1841 1908 0
1841 -1908 0
-1827 1909 0
1827 -1909 0
-1828 1910 0
1828 -1910 0
-1829 1911 0
1829 -1911 0
-1830 1912 0
1830 -1912 0
-1816 1913 0
1816 -1913 0
-1817 1914 0
1817 -1914 0
-1818 1915 0
1818 -1915 0
-1819 1916 0
1819 -1916 0
-1805 1917 0
1805 -1917 0
-1806 1918 0
1806 -1918 0
-1807 1919 0
1807 -1919 0
-1808 1920 0
1808 -1920 0
-1794 1921 0
1794 -1921 0
-1795 1922 0
1795 -1922 0
-1796 1923 0
1796 -1923 0
-1797 1924 0
1797 -1924 0
-1783 1925 0
1783 -1925 0
-1784 1926 0
1784 -1926 0
-1785 1927 0
1785 -1927 0
-1786 1928 0
1786 -1928 0
-1772 1929 0
1772 -1929 0
-1773 1930 0
1773 -1930 0
-1774 1931 0
1774 -1931 0
-1775 1932 0
1775 -1932 0
-1761 1933 0
1761 -1933 0
-1762 1934 0
1762 -1934 0
-1763 1935 0
1763 -1935 0
-1764 1936 0
1764 -1936 0
-1750 1937 0
1750 -1937 0
-1751 1938 0
1751 -1938 0
-1752 1939 0
1752 -1939 0
-1753 1940 0
1753 -1940 0
-1739 1941 0
1739 -1941 0
-1740 1942 0
1740 -1942 0
-1741 1943 0
1741 -1943 0
-1742 1944 0
1742 -1944 0
-1728 1945 0
1728 -1945 0
-1729 1946 0
1729 -1946 0
-1730 1947 0
1730 -1947 0
-1731 1948 0
1731 -1948 0
-1717 1949 0
1717 -1949 0
-1718 1950 0
1718 -1950 0
-1719 1951 0
1719 -1951 0
-1720 1952 0
1720 -1952 0
-1706 1953 0
1706 -1953 0
-1707 1954 0
1707 -1954 0
-1708 1955 0
1708 -1955 0
-1709 1956 0
1709 -1956 0
-1695 1957 0
1695 -1957 0
-1696 1958 0
1696 -1958 0
-1697 1959 0
1697 -1959 0
-1698 1960 0
1698 -1960 0
-1684 1961 0
1684 -1961 0
-1685 1962 0
1685 -1962 0
-1686 1963 0
1686 -1963 0
-1687 1964 0
1687 -1964 0
-1673 1965 0
1673 -1965 0
-1674 1966 0
1674 -1966 0
-1675 1967 0
1675 -1967 0
-1676 1968 0
1676 -1968 0
-1662 1969 0
1662 -1969 0
-1663 1970 0
1663 -1970 0
-1664 1971 0
1664 -1971 0
-1665 1972 0
1665 -1972 0
-1651 1973 0
1651 -1973 0
-1652 1974 0
1652 -1974 0
-1653 1975 0
1653 -1975 0
-1654 1976 0
1654 -1976 0
-1640 1977 0
1640 -1977 0
-1641 1978 0
1641 -1978 0
-1642 1979 0
1642 -1979 0
-1643 1980 0
1643 -1980 0
-1629 1981 0
1629 -1981 0
-1630 1982 0
1630 -1982 0
-1631 1983 0
1631 -1983 0
-1632 1984 0
1632 -1984 0
-1618 1985 0
1618 -1985 0
-1619 1986 0
1619 -1986 0
-1620 1987 0
1620 -1987 0
-1621 1988 0
1621 -1988 0
-1607 1989 0
1607 -1989 0
-1608 1990 0
1608 -1990 0
-1609 1991 0
1609 -1991 0
-1610 1992 0
1610 -1992 0
-1596 1993 0
1596 -1993 0
-1597 1994 0
1597 -1994 0
-1598 1995 0
1598 -1995 0
-1599 1996 0
1599 -1996 0
-1585 1997 0
1585 -1997 0
-1586 1998 0
1586 -1998 0
-1587 1999 0
1587 -1999 0
-1588 2000 0
1588 -2000 0
-1574 2001 0
1574 -2001 0
-1575 2002 0
1575 -2002 0
-1576 2003 0
1576 -2003 0
-1577 2004 0
1577 -2004 0
-1563 2005 0
1563 -2005 0
-1564 2006 0
1564 -2006 0
-1565 2007 0
1565 -2007 0
-1566 2008 0
1566 -2008 0
-1552 2009 0
1552 -2009 0
-1553 2010 0
1553 -2010 0
-1554 2011 0
1554 -2011 0
-1555 2012 0
1555 -2012 0
-1541 2013 0
1541 -2013 0
-1542 2014 0
1542 -2014 0
-1543 2015 0
1543 -2015 0
-1544 2016 0
1544 -2016 0
2173 2186 -2401 0
2173 -2186 2401 0
-2173 2186 2401 0
-2173 -2186 -2401 0
2401 2240 -2273 0
2401 -2240 2273 0
-2401 2240 2273 0
-2401 -2240 -2273 0
2146 2150 -2402 0
2146 -2150 2402 0
-2146 2150 2402 0
-2146 -2150 -2402 0
2402 2192 -2403 0
2402 -2192 2403 0
-2402 2192 2403 0
-2402 -2192 -2403 0
2403 2246 -2404 0
2403 -2246 2404 0
-2403 2246 2404 0
-2403 -2246 -2404 0
2404 2261 -2405 0
2404 -2261 2405 0
-2404 2261 2405 0
-2404 -2261 -2405 0
2405 2267 -2274 0
2405 -2267 2274 0
-2405 2267 2274 0
-2405 -2267 -2274 0
2151 2162 -2406 0
2151 -2162 2406 0
-2151 2162 2406 0
-2151 -2162 -2406 0
2406 2204 -2275 0
2406 -2204 2275 0
-2406 2204 2275 0
-2406 -2204 -2275 0
2171 2182 -2407 0
2171 -2182 2407 0
-2171 2182 2407 0
-2171 -2182 -2407 0
2407 2193 -2408 0
2407 -2193 2408 0
-2407 2193 2408 0
-2407 -2193 -2408 0
2408 2206 -2409 0
2408 -2206 2409 0
-2408 2206 2409 0
-2408 -2206 -2409 0
2409 2220 -2410 0
2409 -2220 2410 0
-2409 2220 2410 0
-2409 -2220 -2410 0
2410 2224 -2411 0
2410 -2224 2411 0
-2410 2224 2411 0
-2410 -2224 -2411 0
2411 2260 -2276 0
2411 -2260 2276 0
-2411 2260 2276 0
-2411 -2260 -2276 0
2177 2190 -2412 0
2177 -2190 2412 0
-2177 2190 2412 0
-2177 -2190 -2412 0
2412 2244 -2277 0
2412 -2244 2277 0
-2412 2244 2277 0
-2412 -2244 -2277 0
2150 2154 -2413 0
2150 -2154 2413 0
-2150 2154 2413 0
-2150 -2154 -2413 0
2413 2196 -2414 0
2413 -2196 2414 0
-2413 2196 2414 0
-2413 -2196 -2414 0
2414 2250 -2415 0
2414 -2250 2415 0
-2414 2250 2415 0
-2414 -2250 -2415 0
2415 2265 -2416 0
2415 -2265 2416 0
-2415 2265 2416 0
-2415 -2265 -2416 0
2416 2271 -2278 0
2416 -2271 2278 0
-2416 2271 2278 0
-2416 -2271 -2278 0
2155 2166 -2417 0
2155 -2166 2417 0
-2155 2166 2417 0
-2155 -2166 -2417 0
2417 2208 -2279 0
2417 -2208 2279 0
-2417 2208 2279 0
-2417 -2208 -2279 0
2175 2186 -2418 0
2175 -2186 2418 0
-2175 2186 2418 0
-2175 -2186 -2418 0
2418 2197 -2419 0
2418 -2197 2419 0
-2418 2197 2419 0
-2418 -2197 -2419 0
2419 2210 -2420 0
2419 -2210 2420 0
-2419 2210 2420 0
-2419 -2210 -2420 0
2420 2224 -2421 0
2420 -2224 2421 0
-2420 2224 2421 0
-2420 -2224 -2421 0
2421 2228 -2422 0
2421 -2228 2422 0
-2421 2228 2422 0
-2421 -2228 -2422 0
2422 2264 -2280 0
2422 -2264 2280 0
-2422 2264 2280 0
-2422 -2264 -2280 0
2181 2194 -2423 0
2181 -2194 2423 0
-2181 2194 2423 0
-2181 -2194 -2423 0
2423 2248 -2281 0
2423 -2248 2281 0
-2423 2248 2281 0
-2423 -2248 -2281 0
2147 2154 -2424 0
2147 -2154 2424 0
-2147 2154 2424 0
-2147 -2154 -2424 0
2424 2158 -2425 0
2424 -2158 2425 0
-2424 2158 2425 0
-2424 -2158 -2425 0
2425 2200 -2426 0
2425 -2200 2426 0
-2425 2200 2426 0
-2425 -2200 -2426 0
2426 2254 -2427 0
2426 -2254 2427 0
-2426 2254 2427 0
-2426 -2254 -2427 0
2427 2269 -2282 0
2427 -2269 2282 0
-2427 2269 2282 0
-2427 -2269 -2282 0
2159 2170 -2428 0
2159 -2170 2428 0
-2159 2170 2428 0
-2159 -2170 -2428 0
2428 2212 -2283 0
2428 -2212 2283 0
-2428 2212 2283 0
-2428 -2212 -2283 0
2179 2190 -2429 0
2179 -2190 2429 0
-2179 2190 2429 0
-2179 -2190 -2429 0
2429 2201 -2430 0
2429 -2201 2430 0
-2429 2201 2430 0
-2429 -2201 -2430 0
2430 2214 -2431 0
2430 -2214 2431 0
-2430 2214 2431 0
-2430 -2214 -2431 0
2431 2228 -2432 0
2431 -2228 2432 0
-2431 2228 2432 0
-2431 -2228 -2432 0
2432 2232 -2433 0
2432 -2232 2433 0
-2432 2232 2433 0
-2432 -2232 -2433 0
2433 2268 -2284 0
2433 -2268 2284 0
-2433 2268 2284 0
-2433 -2268 -2284 0
2185 2198 -2434 0
2185 -2198 2434 0
-2185 2198 2434 0
-2185 -2198 -2434 0
2434 2252 -2285 0
2434 -2252 2285 0
-2434 2252 2285 0
-2434 -2252 -2285 0
2145 2158 -2435 0
2145 -2158 2435 0
-2145 2158 2435 0
-2145 -2158 -2435 0
2435 2212 -2436 0
2435 -2212 2436 0
-2435 2212 2436 0
-2435 -2212 -2436 0
2436 2258 -2286 0
2436 -2258 2286 0
-2436 2258 2286 0
-2436 -2258 -2286 0
2163 2174 -2437 0
2163 -2174 2437 0
-2163 2174 2437 0
-2163 -2174 -2437 0
2437 2216 -2287 0
2437 -2216 2287 0
-2437 2216 2287 0
-2437 -2216 -2287 0
2183 2194 -2438 0
2183 -2194 2438 0
-2183 2194 2438 0
-2183 -2194 -2438 0
2438 2205 -2439 0
2438 -2205 2439 0
-2438 2205 2439 0
-2438 -2205 -2439 0
2439 2218 -2440 0
2439 -2218 2440 0
-2439 2218 2440 0
-2439 -2218 -2440 0
2440 2232 -2441 0
2440 -2232 2441 0
-2440 2232 2441 0
-2440 -2232 -2441 0
2441 2236 -2442 0
2441 -2236 2442 0
-2441 2236 2442 0
-2441 -2236 -2442 0
2442 2272 -2288 0
2442 -2272 2288 0
-2442 2272 2288 0
-2442 -2272 -2288 0
2189 2202 -2443 0
2189 -2202 2443 0
-2189 2202 2443 0
-2189 -2202 -2443 0
2443 2256 -2289 0
2443 -2256 2289 0
-2443 2256 2289 0
-2443 -2256 -2289 0
2149 2162 -2444 0
2149 -2162 2444 0
-2149 2162 2444 0
-2149 -2162 -2444 0
2444 2216 -2445 0
2444 -2216 2445 0
-2444 2216 2445 0
-2444 -2216 -2445 0
2445 2262 -2290 0
2445 -2262 2290 0
-2445 2262 2290 0
-2445 -2262 -2290 0
2167 2178 -2446 0
2167 -2178 2446 0
-2167 2178 2446 0
-2167 -2178 -2446 0
2446 2220 -2291 0
2446 -2220 2291 0
-2446 2220 2291 0
-2446 -2220 -2291 0
2148 2187 -2447 0
2148 -2187 2447 0
-2148 2187 2447 0
-2148 -2187 -2447 0
2447 2198 -2448 0
2447 -2198 2448 0
-2447 2198 2448 0
-2447 -2198 -2448 0
2448 2209 -2449 0
2448 -2209 2449 0
-2448 2209 2449 0
-2448 -2209 -2449 0
2449 2222 -2450 0
2449 -2222 2450 0
-2449 2222 2450 0
-2449 -2222 -2450 0
2450 2236 -2451 0
2450 -2236 2451 0
-2450 2236 2451 0
-2450 -2236 -2451 0
2451 2240 -2292 0
2451 -2240 2292 0
-2451 2240 2292 0
-2451 -2240 -2292 0
2193 2206 -2452 0
2193 -2206 2452 0
-2193 2206 2452 0
-2193 -2206 -2452 0
2452 2260 -2293 0
2452 -2260 2293 0
-2452 2260 2293 0
-2452 -2260 -2293 0
2153 2166 -2453 0
2153 -2166 2453 0
-2153 2166 2453 0
-2153 -2166 -2453 0
2453 2220 -2454 0
2453 -2220 2454 0
-2453 2220 2454 0
-2453 -2220 -2454 0
2454 2266 -2294 0
2454 -2266 2294 0
-2454 2266 2294 0
-2454 -2266 -2294 0
2171 2182 -2455 0
2171 -2182 2455 0
-2171 2182 2455 0
-2171 -2182 -2455 0
2455 2224 -2295 0
2455 -2224 2295 0
-2455 2224 2295 0
-2455 -2224 -2295 0
2152 2191 -2456 0
2152 -2191 2456 0
-2152 2191 2456 0
-2152 -2191 -2456 0
2456 2202 -2457 0
2456 -2202 2457 0
-2456 2202 2457 0
-2456 -2202 -2457 0
2457 2213 -2458 0
2457 -2213 2458 0
-2457 2213 2458 0
-2457 -2213 -2458 0
2458 2226 -2459 0
2458 -2226 2459 0
-2458 2226 2459 0
-2458 -2226 -2459 0
2459 2240 -2460 0
2459 -2240 2460 0
-2459 2240 2460 0
-2459 -2240 -2460 0
2460 2244 -2296 0
2460 -2244 2296 0
-2460 2244 2296 0
-2460 -2244 -2296 0
2197 2210 -2461 0
2197 -2210 2461 0
-2197 2210 2461 0
-2197 -2210 -2461 0
2461 2264 -2297 0
2461 -2264 2297 0
-2461 2264 2297 0
-2461 -2264 -2297 0
2157 2170 -2462 0
2157 -2170 2462 0
-2157 2170 2462 0
-2157 -2170 -2462 0
2462 2224 -2463 0
2462 -2224 2463 0
-2462 2224 2463 0
-2462 -2224 -2463 0
2463 2270 -2298 0
2463 -2270 2298 0
-2463 2270 2298 0
-2463 -2270 -2298 0
2175 2186 -2464 0
2175 -2186 2464 0
-2175 2186 2464 0
-2175 -2186 -2464 0
2464 2228 -2299 0
2464 -2228 2299 0
-2464 2228 2299 0
-2464 -2228 -2299 0
2156 2195 -2465 0
2156 -2195 2465 0
-2156 2195 2465 0
-2156 -2195 -2465 0
2465 2206 -2466 0
2465 -2206 2466 0
-2465 2206 2466 0
-2465 -2206 -2466 0
2466 2217 -2467 0
2466 -2217 2467 0
-2466 2217 2467 0
-2466 -2217 -2467 0
2467 2230 -2468 0
2467 -2230 2468 0
-2467 2230 2468 0
-2467 -2230 -2468 0
2468 2244 -2469 0
2468 -2244 2469 0
-2468 2244 2469 0
-2468 -2244 -2469 0
2469 2248 -2300 0
2469 -2248 2300 0
-2469 2248 2300 0
-2469 -2248 -2300 0
2201 2214 -2470 0
2201 -2214 2470 0
-2201 2214 2470 0
-2201 -2214 -2470 0
2470 2268 -2301 0
2470 -2268 2301 0
-2470 2268 2301 0
-2470 -2268 -2301 0
2146 2161 -2471 0
2146 -2161 2471 0
-2146 2161 2471 0
-2146 -2161 -2471 0
2471 2174 -2472 0
2471 -2174 2472 0
-2471 2174 2472 0
-2471 -2174 -2472 0
2472 2228 -2302 0
2472 -2228 2302 0
-2472 2228 2302 0
-2472 -2228 -2302 0
2179 2190 -2473 0
2179 -2190 2473 0
-2179 2190 2473 0
-2179 -2190 -2473 0
2473 2232 -2303 0
2473 -2232 2303 0
-2473 2232 2303 0
-2473 -2232 -2303 0
2160 2199 -2474 0
2160 -2199 2474 0
-2160 2199 2474 0
-2160 -2199 -2474 0
2474 2210 -2475 0
2474 -2210 2475 0
-2474 2210 2475 0
-2474 -2210 -2475 0
2475 2221 -2476 0
2475 -2221 2476 0
-2475 2221 2476 0
-2475 -2221 -2476 0
2476 2234 -2477 0
2476 -2234 2477 0
-2476 2234 2477 0
-2476 -2234 -2477 0
2477 2248 -2478 0
2477 -2248 2478 0
-2477 2248 2478 0
-2477 -2248 -2478 0
2478 2252 -2304 0
2478 -2252 2304 0
-2478 2252 2304 0
-2478 -2252 -2304 0
2205 2218 -2479 0
2205 -2218 2479 0
-2205 2218 2479 0
-2205 -2218 -2479 0
2479 2272 -2305 0
2479 -2272 2305 0
-2479 2272 2305 0
-2479 -2272 -2305 0
2150 2165 -2480 0
2150 -2165 2480 0
-2150 2165 2480 0
-2150 -2165 -2480 0
2480 2178 -2481 0
2480 -2178 2481 0
-2480 2178 2481 0
-2480 -2178 -2481 0
2481 2232 -2306 0
2481 -2232 2306 0
-2481 2232 2306 0
-2481 -2232 -2306 0
2183 2194 -2482 0
2183 -2194 2482 0
-2183 2194 2482 0
-2183 -2194 -2482 0
2482 2236 -2307 0
2482 -2236 2307 0
-2482 2236 2307 0
-2482 -2236 -2307 0
2164 2203 -2483 0
2164 -2203 2483 0
-2164 2203 2483 0
-2164 -2203 -2483 0
2483 2214 -2484 0
2483 -2214 2484 0
-2483 2214 2484 0
-2483 -2214 -2484 0
2484 2225 -2485 0
2484 -2225 2485 0
-2484 2225 2485 0
-2484 -2225 -2485 0
2485 2238 -2486 0
2485 -2238 2486 0
-2485 2238 2486 0
-2485 -2238 -2486 0
2486 2252 -2487 0
2486 -2252 2487 0
-2486 2252 2487 0
-2486 -2252 -2487 0
2487 2256 -2308 0
2487 -2256 2308 0
-2487 2256 2308 0
-2487 -2256 -2308 0
2148 2209 -2488 0
2148 -2209 2488 0
-2148 2209 2488 0
-2148 -2209 -2488 0
2488 2222 -2309 0
2488 -2222 2309 0
-2488 2222 2309 0
-2488 -2222 -2309 0
2154 2169 -2489 0
2154 -2169 2489 0
-2154 2169 2489 0
-2154 -2169 -2489 0
2489 2182 -2490 0
2489 -2182 2490 0
-2489 2182 2490 0
-2489 -2182 -2490 0
2490 2236 -2310 0
2490 -2236 2310 0
-2490 2236 2310 0
-2490 -2236 -2310 0
2187 2198 -2491 0
2187 -2198 2491 0
-2187 2198 2491 0
-2187 -2198 -2491 0
2491 2240 -2311 0
2491 -2240 2311 0
-2491 2240 2311 0
-2491 -2240 -2311 0
2168 2207 -2492 0
2168 -2207 2492 0
-2168 2207 2492 0
-2168 -2207 -2492 0
2492 2218 -2493 0
2492 -2218 2493 0
-2492 2218 2493 0
-2492 -2218 -2493 0
2493 2229 -2494 0
2493 -2229 2494 0
-2493 2229 2494 0
-2493 -2229 -2494 0
2494 2242 -2495 0
2494 -2242 2495 0
-2494 2242 2495 0
-2494 -2242 -2495 0
2495 2256 -2496 0
2495 -2256 2496 0
-2495 2256 2496 0
-2495 -2256 -2496 0
2496 2260 -2312 0
2496 -2260 2312 0
-2496 2260 2312 0
-2496 -2260 -2312 0
2152 2213 -2497 0
2152 -2213 2497 0
-2152 2213 2497 0
-2152 -2213 -2497 0
2497 2226 -2313 0
2497 -2226 2313 0
-2497 2226 2313 0
-2497 -2226 -2313 0
2158 2173 -2498 0
2158 -2173 2498 0
-2158 2173 2498 0
-2158 -2173 -2498 0
2498 2179 -2499 0
2498 -2179 2499 0
-2498 2179 2499 0
-2498 -2179 -2499 0
2499 2186 -2500 0
2499 -2186 2500 0
-2499 2186 2500 0
-2499 -2186 -2500 0
2500 2190 -2501 0
2500 -2190 2501 0
-2500 2190 2501 0
-2500 -2190 -2501 0
2501 2232 -2502 0
2501 -2232 2502 0
-2501 2232 2502 0
-2501 -2232 -2502 0
2502 2240 -2314 0
2502 -2240 2314 0
-2502 2240 2314 0
-2502 -2240 -2314 0
2191 2202 -2503 0
2191 -2202 2503 0
-2191 2202 2503 0
-2191 -2202 -2503 0
2503 2244 -2315 0
2503 -2244 2315 0
-2503 2244 2315 0
-2503 -2244 -2315 0
2172 2211 -2504 0
2172 -2211 2504 0
-2172 2211 2504 0
-2172 -2211 -2504 0
2504 2222 -2505 0
2504 -2222 2505 0
-2504 2222 2505 0
-2504 -2222 -2505 0
2505 2233 -2506 0
2505 -2233 2506 0
-2505 2233 2506 0
-2505 -2233 -2506 0
2506 2246 -2507 0
2506 -2246 2507 0
-2506 2246 2507 0
-2506 -2246 -2507 0
2507 2260 -2508 0
2507 -2260 2508 0
-2507 2260 2508 0
-2507 -2260 -2508 0
2508 2264 -2316 0
2508 -2264 2316 0
-2508 2264 2316 0
-2508 -2264 -2316 0
2156 2217 -2509 0
2156 -2217 2509 0
-2156 2217 2509 0
-2156 -2217 -2509 0
2509 2230 -2317 0
2509 -2230 2317 0
-2509 2230 2317 0
-2509 -2230 -2317 0
2162 2177 -2510 0
2162 -2177 2510 0
-2162 2177 2510 0
-2162 -2177 -2510 0
2510 2183 -2511 0
2510 -2183 2511 0
-2510 2183 2511 0
-2510 -2183 -2511 0
2511 2190 -2512 0
2511 -2190 2512 0
-2511 2190 2512 0
-2511 -2190 -2512 0
2512 2194 -2513 0
2512 -2194 2513 0
-2512 2194 2513 0
-2512 -2194 -2513 0
2513 2236 -2514 0
2513 -2236 2514 0
-2513 2236 2514 0
-2513 -2236 -2514 0
2514 2244 -2318 0
2514 -2244 2318 0
-2514 2244 2318 0
-2514 -2244 -2318 0
2195 2206 -2515 0
2195 -2206 2515 0
-2195 2206 2515 0
-2195 -2206 -2515 0
2515 2248 -2319 0
2515 -2248 2319 0
-2515 2248 2319 0
-2515 -2248 -2319 0
2176 2215 -2516 0
2176 -2215 2516 0
-2176 2215 2516 0
-2176 -2215 -2516 0
2516 2226 -2517 0
2516 -2226 2517 0
-2516 2226 2517 0
-2516 -2226 -2517 0
2517 2237 -2518 0
2517 -2237 2518 0
-2517 2237 2518 0
-2517 -2237 -2518 0
2518 2250 -2519 0
2518 -2250 2519 0
-2518 2250 2519 0
-2518 -2250 -2519 0
2519 2264 -2520 0
2519 -2264 2520 0
-2519 2264 2520 0
-2519 -2264 -2520 0
2520 2268 -2320 0
2520 -2268 2320 0
-2520 2268 2320 0
-2520 -2268 -2320 0
2160 2221 -2521 0
2160 -2221 2521 0
-2160 2221 2521 0
-2160 -2221 -2521 0
2521 2234 -2321 0
2521 -2234 2321 0
-2521 2234 2321 0
-2521 -2234 -2321 0
2166 2181 -2522 0
2166 -2181 2522 0
-2166 2181 2522 0
-2166 -2181 -2522 0
2522 2187 -2523 0
2522 -2187 2523 0
-2522 2187 2523 0
-2522 -2187 -2523 0
2523 2194 -2524 0
2523 -2194 2524 0
-2523 2194 2524 0
-2523 -2194 -2524 0
2524 2198 -2525 0
2524 -2198 2525 0
-2524 2198 2525 0
-2524 -2198 -2525 0
2525 2240 -2526 0
2525 -2240 2526 0
-2525 2240 2526 0
-2525 -2240 -2526 0
2526 2248 -2322 0
2526 -2248 2322 0
-2526 2248 2322 0
-2526 -2248 -2322 0
2199 2210 -2527 0
2199 -2210 2527 0
-2199 2210 2527 0
-2199 -2210 -2527 0
2527 2252 -2323 0
2527 -2252 2323 0
-2527 2252 2323 0
-2527 -2252 -2323 0
2180 2219 -2528 0
2180 -2219 2528 0
-2180 2219 2528 0
-2180 -2219 -2528 0
2528 2230 -2529 0
2528 -2230 2529 0
-2528 2230 2529 0
-2528 -2230 -2529 0
2529 2241 -2530 0
2529 -2241 2530 0
-2529 2241 2530 0
-2529 -2241 -2530 0
2530 2254 -2531 0
2530 -2254 2531 0
-2530 2254 2531 0
-2530 -2254 -2531 0
2531 2268 -2532 0
2531 -2268 2532 0
-2531 2268 2532 0
-2531 -2268 -2532 0
2532 2272 -2324 0
2532 -2272 2324 0
-2532 2272 2324 0
-2532 -2272 -2324 0
2164 2225 -2533 0
2164 -2225 2533 0
-2164 2225 2533 0
-2164 -2225 -2533 0
2533 2238 -2325 0
2533 -2238 2325 0
-2533 2238 2325 0
-2533 -2238 -2325 0
2170 2185 -2534 0
2170 -2185 2534 0
-2170 2185 2534 0
-2170 -2185 -2534 0
2534 2191 -2535 0
2534 -2191 2535 0
-2534 2191 2535 0
-2534 -2191 -2535 0
2535 2198 -2536 0
2535 -2198 2536 0
-2535 2198 2536 0
-2535 -2198 -2536 0
2536 2202 -2537 0
2536 -2202 2537 0
-2536 2202 2537 0
-2536 -2202 -2537 0
2537 2244 -2538 0
2537 -2244 2538 0
-2537 2244 2538 0
-2537 -2244 -2538 0
2538 2252 -2326 0
2538 -2252 2326 0
-2538 2252 2326 0
-2538 -2252 -2326 0
2203 2214 -2539 0
2203 -2214 2539 0
-2203 2214 2539 0
-2203 -2214 -2539 0
2539 2256 -2327 0
2539 -2256 2327 0
-2539 2256 2327 0
-2539 -2256 -2327 0
2148 2184 -2540 0
2148 -2184 2540 0
-2148 2184 2540 0
-2148 -2184 -2540 0
2540 2223 -2541 0
2540 -2223 2541 0
-2540 2223 2541 0
-2540 -2223 -2541 0
2541 2234 -2542 0
2541 -2234 2542 0
-2541 2234 2542 0
-2541 -2234 -2542 0
2542 2245 -2543 0
2542 -2245 2543 0
-2542 2245 2543 0
-2542 -2245 -2543 0
2543 2258 -2544 0
2543 -2258 2544 0
-2543 2258 2544 0
-2543 -2258 -2544 0
2544 2272 -2328 0
2544 -2272 2328 0
-2544 2272 2328 0
-2544 -2272 -2328 0
2168 2229 -2545 0
2168 -2229 2545 0
-2168 2229 2545 0
-2168 -2229 -2545 0
2545 2242 -2329 0
2545 -2242 2329 0
-2545 2242 2329 0
-2545 -2242 -2329 0
2174 2189 -2546 0
2174 -2189 2546 0
-2174 2189 2546 0
-2174 -2189 -2546 0
2546 2195 -2547 0
2546 -2195 2547 0
-2546 2195 2547 0
-2546 -2195 -2547 0
2547 2202 -2548 0
2547 -2202 2548 0
-2547 2202 2548 0
-2547 -2202 -2548 0
2548 2206 -2549 0
2548 -2206 2549 0
-2548 2206 2549 0
-2548 -2206 -2549 0
2549 2248 -2550 0
2549 -2248 2550 0
-2549 2248 2550 0
-2549 -2248 -2550 0
2550 2256 -2330 0
2550 -2256 2330 0
-2550 2256 2330 0
-2550 -2256 -2330 0
2207 2218 -2551 0
2207 -2218 2551 0
-2207 2218 2551 0
-2207 -2218 -2551 0
2551 2260 -2331 0
2551 -2260 2331 0
-2551 2260 2331 0
-2551 -2260 -2331 0
2148 2152 -2552 0
2148 -2152 2552 0
-2148 2152 2552 0
-2148 -2152 -2552 0
2552 2188 -2553 0
2552 -2188 2553 0
-2552 2188 2553 0
-2552 -2188 -2553 0
2553 2227 -2554 0
2553 -2227 2554 0
-2553 2227 2554 0
-2553 -2227 -2554 0
2554 2238 -2555 0
2554 -2238 2555 0
-2554 2238 2555 0
-2554 -2238 -2555 0
2555 2249 -2556 0
2555 -2249 2556 0
-2555 2249 2556 0
-2555 -2249 -2556 0
2556 2262 -2332 0
2556 -2262 2332 0
-2556 2262 2332 0
-2556 -2262 -2332 0
2172 2233 -2557 0
2172 -2233 2557 0
-2172 2233 2557 0
-2172 -2233 -2557 0
2557 2246 -2333 0
2557 -2246 2333 0
-2557 2246 2333 0
-2557 -2246 -2333 0
2178 2193 -2558 0
2178 -2193 2558 0
-2178 2193 2558 0
-2178 -2193 -2558 0
2558 2199 -2559 0
2558 -2199 2559 0
-2558 2199 2559 0
-2558 -2199 -2559 0
2559 2206 -2560 0
2559 -2206 2560 0
-2559 2206 2560 0
-2559 -2206 -2560 0
2560 2210 -2561 0
2560 -2210 2561 0
-2560 2210 2561 0
-2560 -2210 -2561 0
2561 2252 -2562 0
2561 -2252 2562 0
-2561 2252 2562 0
-2561 -2252 -2562 0
2562 2260 -2334 0
2562 -2260 2334 0
-2562 2260 2334 0
-2562 -2260 -2334 0
2211 2222 -2563 0
2211 -2222 2563 0
-2211 2222 2563 0
-2211 -2222 -2563 0
2563 2264 -2335 0
2563 -2264 2335 0
-2563 2264 2335 0
-2563 -2264 -2335 0
2152 2156 -2564 0
2152 -2156 2564 0
-2152 2156 2564 0
-2152 -2156 -2564 0
2564 2192 -2565 0
2564 -2192 2565 0
-2564 2192 2565 0
-2564 -2192 -2565 0
2565 2231 -2566 0
2565 -2231 2566 0
-2565 2231 2566 0
-2565 -2231 -2566 0
2566 2242 -2567 0
2566 -2242 2567 0
-2566 2242 2567 0
-2566 -2242 -2567 0
2567 2253 -2568 0
2567 -2253 2568 0
-2567 2253 2568 0
-2567 -2253 -2568 0
2568 2266 -2336 0
2568 -2266 2336 0
-2568 2266 2336 0
-2568 -2266 -2336 0
2176 2237 -2569 0
2176 -2237 2569 0
-2176 2237 2569 0
-2176 -2237 -2569 0
2569 2250 -2337 0
2569 -2250 2337 0
-2569 2250 2337 0
-2569 -2250 -2337 0
2182 2197 -2570 0
2182 -2197 2570 0
-2182 2197 2570 0
-2182 -2197 -2570 0
2570 2203 -2571 0
2570 -2203 2571 0
-2570 2203 2571 0
-2570 -2203 -2571 0
2571 2210 -2572 0
2571 -2210 2572 0
-2571 2210 2572 0
-2571 -2210 -2572 0
2572 2214 -2573 0
2572 -2214 2573 0
-2572 2214 2573 0
-2572 -2214 -2573 0
2573 2256 -2574 0
2573 -2256 2574 0
-2573 2256 2574 0
-2573 -2256 -2574 0
2574 2264 -2338 0
2574 -2264 2338 0
-2574 2264 2338 0
-2574 -2264 -2338 0
2215 2226 -2575 0
2215 -2226 2575 0
-2215 2226 2575 0
-2215 -2226 -2575 0
2575 2268 -2339 0
2575 -2268 2339 0
-2575 2268 2339 0
-2575 -2268 -2339 0
2156 2160 -2576 0
2156 -2160 2576 0
-2156 2160 2576 0
-2156 -2160 -2576 0
2576 2196 -2577 0
2576 -2196 2577 0
-2576 2196 2577 0
-2576 -2196 -2577 0
2577 2235 -2578 0
2577 -2235 2578 0
-2577 2235 2578 0
-2577 -2235 -2578 0
2578 2246 -2579 0
2578 -2246 2579 0
-2578 2246 2579 0
-2578 -2246 -2579 0
2579 2257 -2580 0
2579 -2257 2580 0
-2579 2257 2580 0
-2579 -2257 -2580 0
2580 2270 -2340 0
2580 -2270 2340 0
-2580 2270 2340 0
-2580 -2270 -2340 0
2180 2241 -2581 0
2180 -2241 2581 0
-2180 2241 2581 0
-2180 -2241 -2581 0
2581 2254 -2341 0
2581 -2254 2341 0
-2581 2254 2341 0
-2581 -2254 -2341 0
2186 2201 -2582 0
2186 -2201 2582 0
-2186 2201 2582 0
-2186 -2201 -2582 0
2582 2207 -2583 0
2582 -2207 2583 0
-2582 2207 2583 0
-2582 -2207 -2583 0
2583 2214 -2584 0
2583 -2214 2584 0
-2583 2214 2584 0
-2583 -2214 -2584 0
2584 2218 -2585 0
2584 -2218 2585 0
-2584 2218 2585 0
-2584 -2218 -2585 0
2585 2260 -2586 0
2585 -2260 2586 0
-2585 2260 2586 0
-2585 -2260 -2586 0
2586 2268 -2342 0
2586 -2268 2342 0
-2586 2268 2342 0
-2586 -2268 -2342 0
2219 2230 -2587 0
2219 -2230 2587 0
-2219 2230 2587 0
-2219 -2230 -2587 0
2587 2272 -2343 0
2587 -2272 2343 0
-2587 2272 2343 0
-2587 -2272 -2343 0
2146 2160 -2588 0
2146 -2160 2588 0
-2146 2160 2588 0
-2146 -2160 -2588 0
2588 2164 -2589 0
2588 -2164 2589 0
-2588 2164 2589 0
-2588 -2164 -2589 0
2589 2239 -2590 0
2589 -2239 2590 0
-2589 2239 2590 0
-2589 -2239 -2590 0
2590 2250 -2591 0
2590 -2250 2591 0
-2590 2250 2591 0
-2590 -2250 -2591 0
2591 2261 -2344 0
2591 -2261 2344 0
-2591 2261 2344 0
-2591 -2261 -2344 0
2184 2245 -2592 0
2184 -2245 2592 0
-2184 2245 2592 0
-2184 -2245 -2592 0
2592 2258 -2345 0
2592 -2258 2345 0
-2592 2258 2345 0
-2592 -2258 -2345 0
2190 2205 -2593 0
2190 -2205 2593 0
-2190 2205 2593 0
-2190 -2205 -2593 0
2593 2211 -2594 0
2593 -2211 2594 0
-2593 2211 2594 0
-2593 -2211 -2594 0
2594 2218 -2595 0
2594 -2218 2595 0
-2594 2218 2595 0
-2594 -2218 -2595 0
2595 2222 -2596 0
2595 -2222 2596 0
-2595 2222 2596 0
-2595 -2222 -2596 0
2596 2264 -2597 0
2596 -2264 2597 0
-2596 2264 2597 0
-2596 -2264 -2597 0
2597 2272 -2346 0
2597 -2272 2346 0
-2597 2272 2346 0
-2597 -2272 -2346 0
2148 2223 -2598 0
2148 -2223 2598 0
-2148 2223 2598 0
-2148 -2223 -2598 0
2598 2234 -2347 0
2598 -2234 2347 0
-2598 2234 2347 0
-2598 -2234 -2347 0
2150 2164 -2599 0
2150 -2164 2599 0
-2150 2164 2599 0
-2150 -2164 -2599 0
2599 2168 -2600 0
2599 -2168 2600 0
-2599 2168 2600 0
-2599 -2168 -2600 0
2600 2243 -2601 0
2600 -2243 2601 0
-2600 2243 2601 0
-2600 -2243 -2601 0
2601 2254 -2602 0
2601 -2254 2602 0
-2601 2254 2602 0
-2601 -2254 -2602 0
2602 2265 -2348 0
2602 -2265 2348 0
-2602 2265 2348 0
-2602 -2265 -2348 0
2188 2249 -2603 0
2188 -2249 2603 0
-2188 2249 2603 0
-2188 -2249 -2603 0
2603 2262 -2349 0
2603 -2262 2349 0
-2603 2262 2349 0
-2603 -2262 -2349 0
2148 2194 -2604 0
2148 -2194 2604 0
-2148 2194 2604 0
-2148 -2194 -2604 0
2604 2209 -2605 0
2604 -2209 2605 0
-2604 2209 2605 0
-2604 -2209 -2605 0
2605 2215 -2606 0
2605 -2215 2606 0
-2605 2215 2606 0
-2605 -2215 -2606 0
2606 2222 -2607 0
2606 -2222 2607 0
-2606 2222 2607 0
-2606 -2222 -2607 0
2607 2226 -2608 0
2607 -2226 2608 0
-2607 2226 2608 0
-2607 -2226 -2608 0
2608 2268 -2350 0
2608 -2268 2350 0
-2608 2268 2350 0
-2608 -2268 -2350 0
2152 2227 -2609 0
2152 -2227 2609 0
-2152 2227 2609 0
-2152 -2227 -2609 0
2609 2238 -2351 0
2609 -2238 2351 0
-2609 2238 2351 0
-2609 -2238 -2351 0
2154 2168 -2610 0
2154 -2168 2610 0
-2154 2168 2610 0
-2154 -2168 -2610 0
2610 2172 -2611 0
2610 -2172 2611 0
-2610 2172 2611 0
-2610 -2172 -2611 0
2611 2247 -2612 0
2611 -2247 2612 0
-2611 2247 2612 0
-2611 -2247 -2612 0
2612 2258 -2613 0
2612 -2258 2613 0
-2612 2258 2613 0
-2612 -2258 -2613 0
2613 2269 -2352 0
2613 -2269 2352 0
-2613 2269 2352 0
-2613 -2269 -2352 0
2192 2253 -2614 0
2192 -2253 2614 0
-2192 2253 2614 0
-2192 -2253 -2614 0
2614 2266 -2353 0
2614 -2266 2353 0
-2614 2266 2353 0
-2614 -2266 -2353 0
2152 2198 -2615 0
2152 -2198 2615 0
-2152 2198 2615 0
-2152 -2198 -2615 0
2615 2213 -2616 0
2615 -2213 2616 0
-2615 2213 2616 0
-2615 -2213 -2616 0
2616 2219 -2617 0
2616 -2219 2617 0
-2616 2219 2617 0
-2616 -2219 -2617 0
2617 2226 -2618 0
2617 -2226 2618 0
-2617 2226 2618 0
-2617 -2226 -2618 0
2618 2230 -2619 0
2618 -2230 2619 0
-2618 2230 2619 0
-2618 -2230 -2619 0
2619 2272 -2354 0
2619 -2272 2354 0
-2619 2272 2354 0
-2619 -2272 -2354 0
2156 2231 -2620 0
2156 -2231 2620 0
-2156 2231 2620 0
-2156 -2231 -2620 0
2620 2242 -2355 0
2620 -2242 2355 0
-2620 2242 2355 0
-2620 -2242 -2355 0
2145 2158 -2621 0
2145 -2158 2621 0
-2145 2158 2621 0
-2145 -2158 -2621 0
2621 2172 -2622 0
2621 -2172 2622 0
-2621 2172 2622 0
-2621 -2172 -2622 0
2622 2176 -2623 0
2622 -2176 2623 0
-2622 2176 2623 0
-2622 -2176 -2623 0
2623 2212 -2624 0
2623 -2212 2624 0
-2623 2212 2624 0
-2623 -2212 -2624 0
2624 2251 -2625 0
2624 -2251 2625 0
-2624 2251 2625 0
-2624 -2251 -2625 0
2625 2262 -2356 0
2625 -2262 2356 0
-2625 2262 2356 0
-2625 -2262 -2356 0
2196 2257 -2626 0
2196 -2257 2626 0
-2196 2257 2626 0
-2196 -2257 -2626 0
2626 2270 -2357 0
2626 -2270 2357 0
-2626 2270 2357 0
-2626 -2270 -2357 0
2148 2156 -2627 0
2148 -2156 2627 0
-2148 2156 2627 0
-2148 -2156 -2627 0
2627 2202 -2628 0
2627 -2202 2628 0
-2627 2202 2628 0
-2627 -2202 -2628 0
2628 2217 -2629 0
2628 -2217 2629 0
-2628 2217 2629 0
-2628 -2217 -2629 0
2629 2223 -2630 0
2629 -2223 2630 0
-2629 2223 2630 0
-2629 -2223 -2630 0
2630 2230 -2631 0
2630 -2230 2631 0
-2630 2230 2631 0
-2630 -2230 -2631 0
2631 2234 -2358 0
2631 -2234 2358 0
-2631 2234 2358 0
-2631 -2234 -2358 0
2160 2235 -2632 0
2160 -2235 2632 0
-2160 2235 2632 0
-2160 -2235 -2632 0
2632 2246 -2359 0
2632 -2246 2359 0
-2632 2246 2359 0
-2632 -2246 -2359 0
2149 2162 -2633 0
2149 -2162 2633 0
-2149 2162 2633 0
-2149 -2162 -2633 0
2633 2176 -2634 0
2633 -2176 2634 0
-2633 2176 2634 0
-2633 -2176 -2634 0
2634 2180 -2635 0
2634 -2180 2635 0
-2634 2180 2635 0
-2634 -2180 -2635 0
2635 2216 -2636 0
2635 -2216 2636 0
-2635 2216 2636 0
-2635 -2216 -2636 0
2636 2255 -2637 0
2636 -2255 2637 0
-2636 2255 2637 0
-2636 -2255 -2637 0
2637 2266 -2360 0
2637 -2266 2360 0
-2637 2266 2360 0
-2637 -2266 -2360 0
2146 2261 -2361 0
2146 -2261 2361 0
-2146 2261 2361 0
-2146 -2261 -2361 0
2152 2160 -2638 0
2152 -2160 2638 0
-2152 2160 2638 0
-2152 -2160 -2638 0
2638 2206 -2639 0
2638 -2206 2639 0
-2638 2206 2639 0
-2638 -2206 -2639 0
2639 2221 -2640 0
2639 -2221 2640 0
-2639 2221 2640 0
-2639 -2221 -2640 0
2640 2227 -2641 0
2640 -2227 2641 0
-2640 2227 2641 0
-2640 -2227 -2641 0
2641 2234 -2642 0
2641 -2234 2642 0
-2641 2234 2642 0
-2641 -2234 -2642 0
2642 2238 -2362 0
2642 -2238 2362 0
-2642 2238 2362 0
-2642 -2238 -2362 0
2164 2239 -2643 0
2164 -2239 2643 0
-2164 2239 2643 0
-2164 -2239 -2643 0
2643 2250 -2363 0
2643 -2250 2363 0
-2643 2250 2363 0
-2643 -2250 -2363 0
2153 2166 -2644 0
2153 -2166 2644 0
-2153 2166 2644 0
-2153 -2166 -2644 0
2644 2180 -2645 0
2644 -2180 2645 0
-2644 2180 2645 0
-2644 -2180 -2645 0
2645 2184 -2646 0
2645 -2184 2646 0
-2645 2184 2646 0
-2645 -2184 -2646 0
2646 2220 -2647 0
2646 -2220 2647 0
-2646 2220 2647 0
-2646 -2220 -2647 0
2647 2259 -2648 0
2647 -2259 2648 0
-2647 2259 2648 0
-2647 -2259 -2648 0
2648 2270 -2364 0
2648 -2270 2364 0
-2648 2270 2364 0
-2648 -2270 -2364 0
2150 2265 -2365 0
2150 -2265 2365 0
-2150 2265 2365 0
-2150 -2265 -2365 0
2156 2164 -2649 0
2156 -2164 2649 0
-2156 2164 2649 0
-2156 -2164 -2649 0
2649 2210 -2650 0
2649 -2210 2650 0
-2649 2210 2650 0
-2649 -2210 -2650 0
2650 2225 -2651 0
2650 -2225 2651 0
-2650 2225 2651 0
-2650 -2225 -2651 0
2651 2231 -2652 0
2651 -2231 2652 0
-2651 2231 2652 0
-2651 -2231 -2652 0
2652 2238 -2653 0
2652 -2238 2653 0
-2652 2238 2653 0
-2652 -2238 -2653 0
2653 2242 -2366 0
2653 -2242 2366 0
-2653 2242 2366 0
-2653 -2242 -2366 0
2168 2243 -2654 0
2168 -2243 2654 0
-2168 2243 2654 0
-2168 -2243 -2654 0
2654 2254 -2367 0
2654 -2254 2367 0
-2654 2254 2367 0
-2654 -2254 -2367 0
2146 2157 -2655 0
2146 -2157 2655 0
-2146 2157 2655 0
-2146 -2157 -2655 0
2655 2170 -2656 0
2655 -2170 2656 0
-2655 2170 2656 0
-2655 -2170 -2656 0
2656 2184 -2657 0
2656 -2184 2657 0
-2656 2184 2657 0
-2656 -2184 -2657 0
2657 2188 -2658 0
2657 -2188 2658 0
-2657 2188 2658 0
-2657 -2188 -2658 0
2658 2224 -2659 0
2658 -2224 2659 0
-2658 2224 2659 0
-2658 -2224 -2659 0
2659 2263 -2368 0
2659 -2263 2368 0
-2659 2263 2368 0
-2659 -2263 -2368 0
2154 2269 -2369 0
2154 -2269 2369 0
-2154 2269 2369 0
-2154 -2269 -2369 0
2160 2168 -2660 0
2160 -2168 2660 0
-2160 2168 2660 0
-2160 -2168 -2660 0
2660 2214 -2661 0
2660 -2214 2661 0
-2660 2214 2661 0
-2660 -2214 -2661 0
2661 2229 -2662 0
2661 -2229 2662 0
-2661 2229 2662 0
-2661 -2229 -2662 0
2662 2235 -2663 0
2662 -2235 2663 0
-2662 2235 2663 0
-2662 -2235 -2663 0
2663 2242 -2664 0
2663 -2242 2664 0
-2663 2242 2664 0
-2663 -2242 -2664 0
2664 2246 -2370 0
2664 -2246 2370 0
-2664 2246 2370 0
-2664 -2246 -2370 0
2172 2247 -2665 0
2172 -2247 2665 0
-2172 2247 2665 0
-2172 -2247 -2665 0
2665 2258 -2371 0
2665 -2258 2371 0
-2665 2258 2371 0
-2665 -2258 -2371 0
2150 2161 -2666 0
2150 -2161 2666 0
-2150 2161 2666 0
-2150 -2161 -2666 0
2666 2174 -2667 0
2666 -2174 2667 0
-2666 2174 2667 0
-2666 -2174 -2667 0
2667 2188 -2668 0
2667 -2188 2668 0
-2667 2188 2668 0
-2667 -2188 -2668 0
2668 2192 -2669 0
2668 -2192 2669 0
-2668 2192 2669 0
-2668 -2192 -2669 0
2669 2228 -2670 0
2669 -2228 2670 0
-2669 2228 2670 0
-2669 -2228 -2670 0
2670 2267 -2372 0
2670 -2267 2372 0
-2670 2267 2372 0
-2670 -2267 -2372 0
2145 2158 -2671 0
2145 -2158 2671 0
-2145 2158 2671 0
-2145 -2158 -2671 0
2671 2212 -2373 0
2671 -2212 2373 0
-2671 2212 2373 0
-2671 -2212 -2373 0
2164 2172 -2672 0
2164 -2172 2672 0
-2164 2172 2672 0
-2164 -2172 -2672 0
2672 2218 -2673 0
2672 -2218 2673 0
-2672 2218 2673 0
-2672 -2218 -2673 0
2673 2233 -2674 0
2673 -2233 2674 0
-2673 2233 2674 0
-2673 -2233 -2674 0
2674 2239 -2675 0
2674 -2239 2675 0
-2674 2239 2675 0
-2674 -2239 -2675 0
2675 2246 -2676 0
2675 -2246 2676 0
-2675 2246 2676 0
-2675 -2246 -2676 0
2676 2250 -2374 0
2676 -2250 2374 0
-2676 2250 2374 0
-2676 -2250 -2374 0
2176 2251 -2677 0
2176 -2251 2677 0
-2176 2251 2677 0
-2176 -2251 -2677 0
2677 2262 -2375 0
2677 -2262 2375 0
-2677 2262 2375 0
-2677 -2262 -2375 0
2154 2165 -2678 0
2154 -2165 2678 0
-2154 2165 2678 0
-2154 -2165 -2678 0
2678 2178 -2679 0
2678 -2178 2679 0
-2678 2178 2679 0
-2678 -2178 -2679 0
2679 2192 -2680 0
2679 -2192 2680 0
-2679 2192 2680 0
-2679 -2192 -2680 0
2680 2196 -2681 0
2680 -2196 2681 0
-2680 2196 2681 0
-2680 -2196 -2681 0
2681 2232 -2682 0
2681 -2232 2682 0
-2681 2232 2682 0
-2681 -2232 -2682 0
2682 2271 -2376 0
2682 -2271 2376 0
-2682 2271 2376 0
-2682 -2271 -2376 0
2149 2162 -2683 0
2149 -2162 2683 0
-2149 2162 2683 0
-2149 -2162 -2683 0
2683 2216 -2377 0
2683 -2216 2377 0
-2683 2216 2377 0
-2683 -2216 -2377 0
2168 2176 -2684 0
2168 -2176 2684 0
-2168 2176 2684 0
-2168 -2176 -2684 0
2684 2222 -2685 0
2684 -2222 2685 0
-2684 2222 2685 0
-2684 -2222 -2685 0
2685 2237 -2686 0
2685 -2237 2686 0
-2685 2237 2686 0
-2685 -2237 -2686 0
2686 2243 -2687 0
2686 -2243 2687 0
-2686 2243 2687 0
-2686 -2243 -2687 0
2687 2250 -2688 0
2687 -2250 2688 0
-2687 2250 2688 0
-2687 -2250 -2688 0
2688 2254 -2378 0
2688 -2254 2378 0
-2688 2254 2378 0
-2688 -2254 -2378 0
2180 2255 -2689 0
2180 -2255 2689 0
-2180 2255 2689 0
-2180 -2255 -2689 0
2689 2266 -2379 0
2689 -2266 2379 0
-2689 2266 2379 0
-2689 -2266 -2379 0
2147 2158 -2690 0
2147 -2158 2690 0
-2147 2158 2690 0
-2147 -2158 -2690 0
2690 2169 -2691 0
2690 -2169 2691 0
-2690 2169 2691 0
-2690 -2169 -2691 0
2691 2182 -2692 0
2691 -2182 2692 0
-2691 2182 2692 0
-2691 -2182 -2692 0
2692 2196 -2693 0
2692 -2196 2693 0
-2692 2196 2693 0
-2692 -2196 -2693 0
2693 2200 -2694 0
2693 -2200 2694 0
-2693 2200 2694 0
-2693 -2200 -2694 0
2694 2236 -2380 0
2694 -2236 2380 0
-2694 2236 2380 0
-2694 -2236 -2380 0
2153 2166 -2695 0
2153 -2166 2695 0
-2153 2166 2695 0
-2153 -2166 -2695 0
2695 2220 -2381 0
2695 -2220 2381 0
-2695 2220 2381 0
-2695 -2220 -2381 0
2172 2180 -2696 0
2172 -2180 2696 0
-2172 2180 2696 0
-2172 -2180 -2696 0
2696 2226 -2697 0
2696 -2226 2697 0
-2696 2226 2697 0
-2696 -2226 -2697 0
2697 2241 -2698 0
2697 -2241 2698 0
-2697 2241 2698 0
-2697 -2241 -2698 0
2698 2247 -2699 0
2698 -2247 2699 0
-2698 2247 2699 0
-2698 -2247 -2699 0
2699 2254 -2700 0
2699 -2254 2700 0
-2699 2254 2700 0
-2699 -2254 -2700 0
2700 2258 -2382 0
2700 -2258 2382 0
-2700 2258 2382 0
-2700 -2258 -2382 0
2184 2259 -2701 0
2184 -2259 2701 0
-2184 2259 2701 0
-2184 -2259 -2701 0
2701 2270 -2383 0
2701 -2270 2383 0
-2701 2270 2383 0
-2701 -2270 -2383 0
2151 2162 -2702 0
2151 -2162 2702 0
-2151 2162 2702 0
-2151 -2162 -2702 0
2702 2173 -2703 0
2702 -2173 2703 0
-2702 2173 2703 0
-2702 -2173 -2703 0
2703 2186 -2704 0
2703 -2186 2704 0
-2703 2186 2704 0
-2703 -2186 -2704 0
2704 2200 -2705 0
2704 -2200 2705 0
-2704 2200 2705 0
-2704 -2200 -2705 0
2705 2204 -2706 0
2705 -2204 2706 0
-2705 2204 2706 0
-2705 -2204 -2706 0
2706 2240 -2384 0
2706 -2240 2384 0
-2706 2240 2384 0
-2706 -2240 -2384 0
2157 2170 -2707 0
2157 -2170 2707 0
-2157 2170 2707 0
-2157 -2170 -2707 0
2707 2224 -2385 0
2707 -2224 2385 0
-2707 2224 2385 0
-2707 -2224 -2385 0
2176 2184 -2708 0
2176 -2184 2708 0
-2176 2184 2708 0
-2176 -2184 -2708 0
2708 2230 -2709 0
2708 -2230 2709 0
-2708 2230 2709 0
-2708 -2230 -2709 0
2709 2245 -2710 0
2709 -2245 2710 0
-2709 2245 2710 0
-2709 -2245 -2710 0
2710 2251 -2711 0
2710 -2251 2711 0
-2710 2251 2711 0
-2710 -2251 -2711 0
2711 2258 -2712 0
2711 -2258 2712 0
-2711 2258 2712 0
-2711 -2258 -2712 0
2712 2262 -2386 0
2712 -2262 2386 0
-2712 2262 2386 0
-2712 -2262 -2386 0
2146 2188 -2713 0
2146 -2188 2713 0
-2146 2188 2713 0
-2146 -2188 -2713 0
2713 2263 -2387 0
2713 -2263 2387 0
-2713 2263 2387 0
-2713 -2263 -2387 0
2155 2166 -2714 0
2155 -2166 2714 0
-2155 2166 2714 0
-2155 -2166 -2714 0
2714 2177 -2715 0
2714 -2177 2715 0
-2714 2177 2715 0
-2714 -2177 -2715 0
2715 2190 -2716 0
2715 -2190 2716 0
-2715 2190 2716 0
-2715 -2190 -2716 0
2716 2204 -2717 0
2716 -2204 2717 0
-2716 2204 2717 0
-2716 -2204 -2717 0
2717 2208 -2718 0
2717 -2208 2718 0
-2717 2208 2718 0
-2717 -2208 -2718 0
2718 2244 -2388 0
2718 -2244 2388 0
-2718 2244 2388 0
-2718 -2244 -2388 0
2161 2174 -2719 0
2161 -2174 2719 0
-2161 2174 2719 0
-2161 -2174 -2719 0
2719 2228 -2389 0
2719 -2228 2389 0
-2719 2228 2389 0
-2719 -2228 -2389 0
2180 2188 -2720 0
2180 -2188 2720 0
-2180 2188 2720 0
-2180 -2188 -2720 0
2720 2234 -2721 0
2720 -2234 2721 0
-2720 2234 2721 0
-2720 -2234 -2721 0
2721 2249 -2722 0
2721 -2249 2722 0
-2721 2249 2722 0
-2721 -2249 -2722 0
2722 2255 -2723 0
2722 -2255 2723 0
-2722 2255 2723 0
-2722 -2255 -2723 0
2723 2262 -2724 0
2723 -2262 2724 0
-2723 2262 2724 0
-2723 -2262 -2724 0
2724 2266 -2390 0
2724 -2266 2390 0
-2724 2266 2390 0
-2724 -2266 -2390 0
2150 2192 -2725 0
2150 -2192 2725 0
-2150 2192 2725 0
-2150 -2192 -2725 0
2725 2267 -2391 0
2725 -2267 2391 0
-2725 2267 2391 0
-2725 -2267 -2391 0
2159 2170 -2726 0
2159 -2170 2726 0
-2159 2170 2726 0
-2159 -2170 -2726 0
2726 2181 -2727 0
2726 -2181 2727 0
-2726 2181 2727 0
-2726 -2181 -2727 0
2727 2194 -2728 0
2727 -2194 2728 0
-2727 2194 2728 0
-2727 -2194 -2728 0
2728 2208 -2729 0
2728 -2208 2729 0
-2728 2208 2729 0
-2728 -2208 -2729 0
2729 2212 -2730 0
2729 -2212 2730 0
-2729 2212 2730 0
-2729 -2212 -2730 0
2730 2248 -2392 0
2730 -2248 2392 0
-2730 2248 2392 0
-2730 -2248 -2392 0
2165 2178 -2731 0
2165 -2178 2731 0
-2165 2178 2731 0
-2165 -2178 -2731 0
2731 2232 -2393 0
2731 -2232 2393 0
-2731 2232 2393 0
-2731 -2232 -2393 0
2184 2192 -2732 0
2184 -2192 2732 0
-2184 2192 2732 0
-2184 -2192 -2732 0
2732 2238 -2733 0
2732 -2238 2733 0
-2732 2238 2733 0
-2732 -2238 -2733 0
2733 2253 -2734 0
2733 -2253 2734 0
-2733 2253 2734 0
-2733 -2253 -2734 0
2734 2259 -2735 0
2734 -2259 2735 0
-2734 2259 2735 0
-2734 -2259 -2735 0
2735 2266 -2736 0
2735 -2266 2736 0
-2735 2266 2736 0
-2735 -2266 -2736 0
2736 2270 -2394 0
2736 -2270 2394 0
-2736 2270 2394 0
-2736 -2270 -2394 0
2154 2196 -2737 0
2154 -2196 2737 0
-2154 2196 2737 0
-2154 -2196 -2737 0
2737 2271 -2395 0
2737 -2271 2395 0
-2737 2271 2395 0
-2737 -2271 -2395 0
2163 2174 -2738 0
2163 -2174 2738 0
-2163 2174 2738 0
-2163 -2174 -2738 0
2738 2185 -2739 0
2738 -2185 2739 0
-2738 2185 2739 0
-2738 -2185 -2739 0
2739 2198 -2740 0
2739 -2198 2740 0
-2739 2198 2740 0
-2739 -2198 -2740 0
2740 2212 -2741 0
2740 -2212 2741 0
-2740 2212 2741 0
-2740 -2212 -2741 0
2741 2216 -2742 0
2741 -2216 2742 0
-2741 2216 2742 0
-2741 -2216 -2742 0
2742 2252 -2396 0
2742 -2252 2396 0
-2742 2252 2396 0
-2742 -2252 -2396 0
2169 2182 -2743 0
2169 -2182 2743 0
-2169 2182 2743 0
-2169 -2182 -2743 0
2743 2236 -2397 0
2743 -2236 2397 0
-2743 2236 2397 0
-2743 -2236 -2397 0
2146 2188 -2744 0
2146 -2188 2744 0
-2146 2188 2744 0
-2146 -2188 -2744 0
2744 2196 -2745 0
2744 -2196 2745 0
-2744 2196 2745 0
-2744 -2196 -2745 0
2745 2242 -2746 0
2745 -2242 2746 0
-2745 2242 2746 0
-2745 -2242 -2746 0
2746 2257 -2747 0
2746 -2257 2747 0
-2746 2257 2747 0
-2746 -2257 -2747 0
2747 2263 -2748 0
2747 -2263 2748 0
-2747 2263 2748 0
-2747 -2263 -2748 0
2748 2270 -2398 0
2748 -2270 2398 0
-2748 2270 2398 0
-2748 -2270 -2398 0
2147 2158 -2749 0
2147 -2158 2749 0
-2147 2158 2749 0
-2147 -2158 -2749 0
2749 2200 -2399 0
2749 -2200 2399 0
-2749 2200 2399 0
-2749 -2200 -2399 0
2167 2178 -2750 0
2167 -2178 2750 0
-2167 2178 2750 0
-2167 -2178 -2750 0
2750 2189 -2751 0
2750 -2189 2751 0
-2750 2189 2751 0
-2750 -2189 -2751 0
2751 2202 -2752 0
2751 -2202 2752 0
-2751 2202 2752 0
-2751 -2202 -2752 0
2752 2216 -2753 0
2752 -2216 2753 0
-2752 2216 2753 0
-2752 -2216 -2753 0
2753 2220 -2754 0
2753 -2220 2754 0
-2753 2220 2754 0
-2753 -2220 -2754 0
2754 2256 -2400 0
2754 -2256 2400 0
-2754 2256 2400 0
-2754 -2256 -2400 0
2883 -2755 0
-2883 2755 0
2884 -2756 0
-2884 2756 0
2885 -2757 0
-2885 2757 0
2886 -2758 0
-2886 2758 0
2887 -2759 0
-2887 2759 0
2888 -2760 0
-2888 2760 0
2889 -2761 0
-2889 2761 0
2890 -2762 0
-2890 2762 0
2891 -2763 0
-2891 2763 0
2892 -2764 0
-2892 2764 0
2893 -2765 0
-2893 2765 0
2894 -2766 0
-2894 2766 0
2895 -2767 0
-2895 2767 0
2896 -2768 0
-2896 2768 0
2897 -2769 0
-2897 2769 0
2898 -2770 0
-2898 2770 0
2899 -2771 0
-2899 2771 0
2900 -2772 0
-2900 2772 0
2901 -2773 0
-2901 2773 0
2902 -2774 0
-2902 2774 0
2903 -2775 0
-2903 2775 0
2904 -2776 0
-2904 2776 0
2905 -2777 0
-2905 2777 0
2906 -2778 0
-2906 2778 0
2907 -2779 0
-2907 2779 0
2908 -2780 0
-2908 2780 0
2909 -2781 0
-2909 2781 0
2910 -2782 0
-2910 2782 0
2911 -2783 0
-2911 2783 0
2912 -2784 0
-2912 2784 0
2913 -2785 0
-2913 2785 0
2914 -2786 0
-2914 2786 0
2915 -2787 0
-2915 2787 0
2916 -2788 0
-2916 2788 0
2917 -2789 0
-2917 2789 0
2918 -2790 0
-2918 2790 0
2919 -2791 0
-2919 2791 0
2920 -2792 0
-2920 2792 0
2921 -2793 0
-2921 2793 0
2922 -2794 0
-2922 2794 0
2923 -2795 0
-2923 2795 0
2924 -2796 0
-2924 2796 0
2925 -2797 0
-2925 2797 0
2926 -2798 0
-2926 2798 0
2927 -2799 0
-2927 2799 0
2928 -2800 0
-2928 2800 0
2929 -2801 0
-2929 2801 0
2930 -2802 0
-2930 2802 0
2931 -2803 0
-2931 2803 0
2932 -2804 0
-2932 2804 0
2933 -2805 0
-2933 2805 0
2934 -2806 0
-2934 2806 0
2935 -2807 0
-2935 2807 0
2936 -2808 0
-2936 2808 0
2937 -2809 0
-2937 2809 0
2938 -2810 0
-2938 2810 0
2939 -2811 0
-2939 2811 0
2940 -2812 0
-2940 2812 0
2941 -2813 0
-2941 2813 0
2942 -2814 0
-2942 2814 0
2943 -2815 0
-2943 2815 0
2944 -2816 0
-2944 2816 0
2945 -2817 0
-2945 2817 0
2946 -2818 0
-2946 2818 0
2947 -2819 0
-2947 2819 0
2948 -2820 0
-2948 2820 0
2949 -2821 0
-2949 2821 0
2950 -2822 0
-2950 2822 0
2951 -2823 0
-2951 2823 0
2952 -2824 0
-2952 2824 0
2953 -2825 0
-2953 2825 0
2954 -2826 0
-2954 2826 0
2955 -2827 0
-2955 2827 0
2956 -2828 0
-2956 2828 0
2957 -2829 0
-2957 2829 0
2958 -2830 0
-2958 2830 0
2959 -2831 0
-2959 2831 0
2960 -2832 0
-2960 2832 0
2961 -2833 0
-2961 2833 0
2962 -2834 0
-2962 2834 0
2963 -2835 0
-2963 2835 0
2964 -2836 0
-2964 2836 0
2965 -2837 0
-2965 2837 0
2966 -2838 0
-2966 2838 0
2967 -2839 0
-2967 2839 0
2968 -2840 0
-2968 2840 0
2969 -2841 0
-2969 2841 0
2970 -2842 0
-2970 2842 0
2971 -2843 0
-2971 2843 0
2972 -2844 0
-2972 2844 0
2973 -2845 0
-2973 2845 0
2974 -2846 0
-2974 2846 0
2975 -2847 0
-2975 2847 0
2976 -2848 0
-2976 2848 0
2977 -2849 0
-2977 2849 0
2978 -2850 0
-2978 2850 0
2979 -2851 0
-2979 2851 0
2980 -2852 0
-2980 2852 0
2981 -2853 0
-2981 2853 0
2982 -2854 0
-2982 2854 0
2983 -2855 0
-2983 2855 0
2984 -2856 0
-2984 2856 0
2985 -2857 0
-2985 2857 0
2986 -2858 0
-2986 2858 0
2987 -2859 0
-2987 2859 0
2988 -2860 0
-2988 2860 0
2989 -2861 0
-2989 2861 0
2990 -2862 0
-2990 2862 0
2991 -2863 0
-2991 2863 0
2992 -2864 0
-2992 2864 0
2993 -2865 0
-2993 2865 0
2994 -2866 0
-2994 2866 0
2995 -2867 0
-2995 2867 0
2996 -2868 0
-2996 2868 0
2997 -2869 0
-2997 2869 0
2998 -2870 0
-2998 2870 0
2999 -2871 0
-2999 2871 0
3000 -2872 0
-3000 2872 0
3001 -2873 0
-3001 2873 0
3002 -2874 0
-3002 2874 0
3003 -2875 0
-3003 2875 0
3004 -2876 0
-3004 2876 0
3005 -2877 0
-3005 2877 0
3006 -2878 0
-3006 2878 0
3007 -2879 0
-3007 2879 0
3008 -2880 0
-3008 2880 0
3009 -2881 0
-3009 2881 0
3010 -2882 0
-3010 2882 0
-3395 3267 0
3395 -3267 0
-3396 3268 0
3396 -3268 0
-3397 3269 0
3397 -3269 0
-3398 3270 0
3398 -3270 0
-3399 3271 0
3399 -3271 0
-3400 3272 0
3400 -3272 0
-3401 3273 0
3401 -3273 0
-3402 3274 0
3402 -3274 0
-3403 3275 0
3403 -3275 0
-3404 3276 0
3404 -3276 0
-3405 3277 0
3405 -3277 0
-3406 3278 0
3406 -3278 0
-3407 3279 0
3407 -3279 0
-3408 3280 0
3408 -3280 0
-3409 3281 0
3409 -3281 0
-3410 3282 0
3410 -3282 0
-3411 3283 0
3411 -3283 0
-3412 3284 0
3412 -3284 0
-3413 3285 0
3413 -3285 0
-3414 3286 0
3414 -3286 0
-3415 3287 0
3415 -3287 0
-3416 3288 0
3416 -3288 0
-3417 3289 0
3417 -3289 0
-3418 3290 0
3418 -3290 0
-3419 3291 0
3419 -3291 0
-3420 3292 0
3420 -3292 0
-3421 3293 0
3421 -3293 0
-3422 3294 0
3422 -3294 0
-3423 3295 0
3423 -3295 0
-3424 3296 0
3424 -3296 0
-3425 3297 0
3425 -3297 0
-3426 3298 0
3426 -3298 0
-3427 3299 0
3427 -3299 0
-3428 3300 0
3428 -3300 0
-3429 3301 0
3429 -3301 0
-3430 3302 0
3430 -3302 0
-3431 3303 0
3431 -3303 0
-3432 3304 0
3432 -3304 0
-3433 3305 0
3433 -3305 0
-3434 3306 0
3434 -3306 0
-3435 3307 0
3435 -3307 0
-3436 3308 0
3436 -3308 0
-3437 3309 0
3437 -3309 0
-3438 3310 0
3438 -3310 0
-3439 3311 0
3439 -3311 0
-3440 3312 0
3440 -3312 0
-3441 3313 0
3441 -3313 0
-3442 3314 0
3442 -3314 0
-3443 3315 0
3443 -3315 0
-3444 3316 0
3444 -3316 0
-3445 3317 0
3445 -3317 0
-3446 3318 0
3446 -3318 0
-3447 3319 0
3447 -3319 0
-3448 3320 0
3448 -3320 0
-3449 3321 0
3449 -3321 0
-3450 3322 0
3450 -3322 0
-3451 3323 0
3451 -3323 0
-3452 3324 0
3452 -3324 0
-3453 3325 0
3453 -3325 0
-3454 3326 0
3454 -3326 0
-3455 3327 0
3455 -3327 0
-3456 3328 0
3456 -3328 0
-3457 3329 0
3457 -3329 0
-3458 3330 0
3458 -3330 0
-3459 3331 0
3459 -3331 0
-3460 3332 0
3460 -3332 0
-3461 3333 0
3461 -3333 0
-3462 3334 0
3462 -3334 0
-3463 3335 0
3463 -3335 0
-3464 3336 0
3464 -3336 0
-3465 3337 0
3465 -3337 0
-3466 3338 0
3466 -3338 0
-3467 3339 0
3467 -3339 0
-3468 3340 0
3468 -3340 0
-3469 3341 0
3469 -3341 0
-3470 3342 0
3470 -3342 0
-3471 3343 0
3471 -3343 0
-3472 3344 0
3472 -3344 0
-3473 3345 0
3473 -3345 0
-3474 3346 0
3474 -3346 0
-3475 3347 0
3475 -3347 0
-3476 3348 0
3476 -3348 0
-3477 3349 0
3477 -3349 0
-3478 3350 0
3478 -3350 0
-3479 3351 0
3479 -3351 0
-3480 3352 0
3480 -3352 0
-3481 3353 0
3481 -3353 0
-3482 3354 0
3482 -3354 0
-3483 3355 0
3483 -3355 0
-3484 3356 0
3484 -3356 0
-3485 3357 0
3485 -3357 0
-3486 3358 0
3486 -3358 0
-3487 3359 0
3487 -3359 0
-3488 3360 0
3488 -3360 0
-3489 3361 0
3489 -3361 0
-3490 3362 0
3490 -3362 0
-3491 3363 0
3491 -3363 0
-3492 3364 0
3492 -3364 0
-3493 3365 0
3493 -3365 0
-3494 3366 0
3494 -3366 0
-3495 3367 0
3495 -3367 0
-3496 3368 0
3496 -3368 0
-3497 3369 0
3497 -3369 0
-3498 3370 0
3498 -3370 0
-3499 3371 0
3499 -3371 0
-3500 3372 0
3500 -3372 0
-3501 3373 0
3501 -3373 0
-3502 3374 0
3502 -3374 0
-3503 3375 0
3503 -3375 0
-3504 3376 0
3504 -3376 0
-3505 3377 0
3505 -3377 0
-3506 3378 0
3506 -3378 0
-3507 3379 0
3507 -3379 0
-3508 3380 0
3508 -3380 0
-3509 3381 0
3509 -3381 0
-3510 3382 0
3510 -3382 0
-3511 3383 0
3511 -3383 0
-3512 3384 0
3512 -3384 0
-3513 3385 0
3513 -3385 0
-3514 3386 0
3514 -3386 0
-3515 3387 0
3515 -3387 0
-3516 3388 0
3516 -3388 0
-3517 3389 0
3517 -3389 0
-3518 3390 0
3518 -3390 0
-3519 3391 0
3519 -3391 0
-3520 3392 0
3520 -3392 0
-3521 3393 0
3521 -3393 0
-3522 3394 0
3522 -3394 0
3523 3524 3526 3527 -3528 -3529 0
3523 -3524 3526 3527 3528 -3530 0
3523 -3524 -3526 3527 -3528 3530 0
-3523 3524 3525 -3527 3528 -3530 3532 0
3524 -3525 3526 3527 3530 3532 0
-3524 3525 -3526 3527 -3529 -3530 0
3523 3524 -3526 -3527 -3528 3529 0
-3523 -3525 -3526 3527 -3528 -3532 0
-3523 3525 -3526 3527 3528 3530 3532 0
-3525 -3526 3527 3529 3532 0
3523 -3525 -3527 -3530 -3532 0
3525 3526 3527 3528 -3529 -3532 0
3527 3528 3529 3530 3533 0
3525 -3526 3527 -3530 -3532 0
3525 3526 -3527 3528 3529 -3532 0
-3523 -3525 3526 3528 3529 3530 3532 0
-3523 -3525 3526 3527 3528 -3529 3532 0
-3527 -3528 -3529 3530 3532 0
-3527 3528 -3529 3530 -3532 0
3523 -3524 -3525 -3528 3529 3530 0
-3524 -3525 3526 -3527 3529 -3530 0
-3523 -3524 3525 -3528 -3529 -3532 0
-3525 3526 3529 -3530 -3532 0
-3523 -3527 -3528 3529 -3532 0
3524 3525 -3527 3528 3529 3530 0
3523 3527 3528 3529 3533 0
-3524 3525 3526 -3528 3532 0
3525 3526 -3527 -3529 3532 0
-3523 3525 3526 3527 3529 3532 0
3524 3527 -3528 -3529 -3532 0
3523 3526 -3527 -3529 -3532 0
-3523 -3525 3526 -3528 -3529 3530 0
3524 -3527 -3528 3529 -3532 0
-3523 3524 -3525 -3526 -3532 0
-3523 3525 -3526 -3527 -3528 3530 0
-3524 -3525 3527 -3529 -3532 0
3524 3526 3528 3529 3530 3533 0
3523 -3525 -3526 -3528 3532 0
3523 -3524 3525 3528 3529 -3530 0
-3525 -3526 -3527 -3529 3532 0
-3523 -3524 -3525 -3526 3532 0
-3526 -3533 0
-3523 -3524 -3526 -3527 3528 3529 0
3524 3528 3530 -3532 0
-3523 3527 -3528 3529 3532 0
-3523 -3525 3526 -3527 -3530 0
3523 3528 -3532 0
-3523 3525 -3526 -3529 -3530 0
3523 3525 -3526 -3532 0
3524 3525 3527 3528 3530 3533 0
-3527 -3533 0
3524 3525 3526 3528 -3530 0
3523 3525 3526 -3531 0
3525 3526 3527 -3528 3529 0
-3525 -3533 0
3523 3527 3529 3530 3533 0
-3529 -3533 0
-3524 -3533 0
3531 3532 3533 0
-3531 -3532 0
3534 3535 3537 3538 -3539 -3540 0
3534 -3535 3537 3538 3539 -3541 0
3534 -3535 -3537 3538 -3539 3541 0
-3534 3535 3536 -3538 3539 -3541 3543 0
3535 -3536 3537 3538 3541 3543 0
-3535 3536 -3537 3538 -3540 -3541 0
3534 3535 -3537 -3538 -3539 3540 0
-3534 -3536 -3537 3538 -3539 -3543 0
-3534 3536 -3537 3538 3539 3541 3543 0
-3536 -3537 3538 3540 3543 0
3534 -3536 -3538 -3541 -3543 0
3536 3537 3538 3539 -3540 -3543 0
3538 3539 3540 3541 3544 0
3536 -3537 3538 -3541 -3543 0
3536 3537 -3538 3539 3540 -3543 0
-3534 -3536 3537 3539 3540 3541 3543 0
-3534 -3536 3537 3538 3539 -3540 3543 0
-3538 -3539 -3540 3541 3543 0
-3538 3539 -3540 3541 -3543 0
3534 -3535 -3536 -3539 3540 3541 0
-3535 -3536 3537 -3538 3540 -3541 0
-3534 -3535 3536 -3539 -3540 -3543 0
-3536 3537 3540 -3541 -3543 0
-3534 -3538 -3539 3540 -3543 0
3535 3536 -3538 3539 3540 3541 0
3534 3538 3539 3540 3544 0
-3535 3536 3537 -3539 3543 0
3536 3537 -3538 -3540 3543 0
-3534 3536 3537 3538 3540 3543 0
3535 3538 -3539 -3540 -3543 0
3534 3537 -3538 -3540 -3543 0
-3534 -3536 3537 -3539 -3540 3541 0
3535 -3538 -3539 3540 -3543 0
-3534 3535 -3536 -3537 -3543 0
-3534 3536 -3537 -3538 -3539 3541 0
-3535 -3536 3538 -3540 -3543 0
3535 3537 3539 3540 3541 3544 0
3534 -3536 -3537 -3539 3543 0
3534 -3535 3536 3539 3540 -3541 0
-3536 -3537 -3538 -3540 3543 0
-3534 -3535 -3536 -3537 3543 0
-3537 -3544 0
-3534 -3535 -3537 -3538 3539 3540 0
3535 3539 3541 -3543 0
-3534 3538 -3539 3540 3543 0
-3534 -3536 3537 -3538 -3541 0
3534 3539 -3543 0
-3534 3536 -3537 -3540 -3541 0
3534 3536 -3537 -3543 0
3535 3536 3538 3539 3541 3544 0
-3538 -3544 0
3535 3536 3537 3539 -3541 0
3534 3536 3537 -3542 0
3536 3537 3538 -3539 3540 0
-3536 -3544 0
3534 3538 3540 3541 3544 0
-3540 -3544 0
-3535 -3544 0
3542 3543 3544 0
-3542 -3543 0
3545 3546 3548 3549 -3550 -3551 0
3545 -3546 3548 3549 3550 -3552 0
3545 -3546 -3548 3549 -3550 3552 0
-3545 3546 3547 -3549 3550 -3552 3554 0
3546 -3547 3548 3549 3552 3554 0
-3546 3547 -3548 3549 -3551 -3552 0
3545 3546 -3548 -3549 -3550 3551 0
-3545 -3547 -3548 3549 -3550 -3554 0
-3545 3547 -3548 3549 3550 3552 3554 0
-3547 -3548 3549 3551 3554 0
3545 -3547 -3549 -3552 -3554 0
3547 3548 3549 3550 -3551 -3554 0
3549 3550 3551 3552 3555 0
3547 -3548 3549 -3552 -3554 0
3547 3548 -3549 3550 3551 -3554 0
-3545 -3547 3548 3550 3551 3552 3554 0
-3545 -3547 3548 3549 3550 -3551 3554 0
-3549 -3550 -3551 3552 3554 0
-3549 3550 -3551 3552 -3554 0
3545 -3546 -3547 -3550 3551 3552 0
-3546 -3547 3548 -3549 3551 -3552 0
-3545 -3546 3547 -3550 -3551 -3554 0
-3547 3548 3551 -3552 -3554 0
-3545 -3549 -3550 3551 -3554 0
3546 3547 -3549 3550 3551 3552 0
3545 3549 3550 3551 3555 0
-3546 3547 3548 -3550 3554 0
3547 3548 -3549 -3551 3554 0
-3545 3547 3548 3549 3551 3554 0
3546 3549 -3550 -3551 -3554 0
3545 3548 -3549 -3551 -3554 0
-3545 -3547 3548 -3550 -3551 3552 0
3546 -3549 -3550 3551 -3554 0
-3545 3546 -3547 -3548 -3554 0
-3545 3547 -3548 -3549 -3550 3552 0
-3546 -3547 3549 -3551 -3554 0
3546 3548 3550 3551 3552 3555 0
3545 -3547 -3548 -3550 3554 0
3545 -3546 3547 3550 3551 -3552 0
-3547 -3548 -3549 -3551 3554 0
-3545 -3546 -3547 -3548 3554 0
-3548 -3555 0
-3545 -3546 -3548 -3549 3550 3551 0
3546 3550 3552 -3554 0
-3545 3549 -3550 3551 3554 0
-3545 -3547 3548 -3549 -3552 0
3545 3550 -3554 0
-3545 3547 -3548 -3551 -3552 0
3545 3547 -3548 -3554 0
3546 3547 3549 3550 3552 3555 0
-3549 -3555 0
3546 3547 3548 3550 -3552 0
3545 3547 3548 -3553 0
3547 3548 3549 -3550 3551 0
-3547 -3555 0
3545 3549 3551 3552 3555 0
-3551 -3555 0
-3546 -3555 0
3553 3554 3555 0
-3553 -3554 0
3556 3557 3559 3560 -3561 -3562 0
3556 -3557 3559 3560 3561 -3563 0
3556 -3557 -3559 3560 -3561 3563 0
-3556 3557 3558 -3560 3561 -3563 3565 0
3557 -3558 3559 3560 3563 3565 0
-3557 3558 -3559 3560 -3562 -3563 0
3556 3557 -3559 -3560 -3561 3562 0
-3556 -3558 -3559 3560 -3561 -3565 0
-3556 3558 -3559 3560 3561 3563 3565 0
-3558 -3559 3560 3562 3565 0
3556 -3558 -3560 -3563 -3565 0
3558 3559 3560 3561 -3562 -3565 0
3560 3561 3562 3563 3566 0
3558 -3559 3560 -3563 -3565 0
3558 3559 -3560 3561 3562 -3565 0
-3556 -3558 3559 3561 3562 3563 3565 0
-3556 -3558 3559 3560 3561 -3562 3565 0
-3560 -3561 -3562 3563 3565 0
-3560 3561 -3562 3563 -3565 0
3556 -3557 -3558 -3561 3562 3563 0
-3557 -3558 3559 -3560 3562 -3563 0
-3556 -3557 3558 -3561 -3562 -3565 0
-3558 3559 3562 -3563 -3565 0
-3556 -3560 -3561 3562 -3565 0
3557 3558 -3560 3561 3562 3563 0
3556 3560 3561 3562 3566 0
-3557 3558 3559 -3561 3565 0
3558 3559 -3560 -3562 3565 0
-3556 3558 3559 3560 3562 3565 0
3557 3560 -3561 -3562 -3565 0
3556 3559 -3560 -3562 -3565 0
-3556 -3558 3559 -3561 -3562 3563 0
3557 -3560 -3561 3562 -3565 0
-3556 3557 -3558 -3559 -3565 0
-3556 3558 -3559 -3560 -3561 3563 0
-3557 -3558 3560 -3562 -3565 0
3557 3559 3561 3562 3563 3566 0
3556 -3558 -3559 -3561 3565 0
3556 -3557 3558 3561 3562 -3563 0
-3558 -3559 -3560 -3562 3565 0
-3556 -3557 -3558 -3559 3565 0
-3559 -3566 0
-3556 -3557 -3559 -3560 3561 3562 0
3557 3561 3563 -3565 0
-3556 3560 -3561 3562 3565 0
-3556 -3558 3559 -3560 -3563 0
3556 3561 -3565 0
-3556 3558 -3559 -3562 -3563 0
3556 3558 -3559 -3565 0
3557 3558 3560 3561 3563 3566 0
-3560 -3566 0
3557 3558 3559 3561 -3563 0
3556 3558 3559 -3564 0
3558 3559 3560 -3561 3562 0
-3558 -3566 0
3556 3560 3562 3563 3566 0
-3562 -3566 0
-3557 -3566 0
3564 3565 3566 0
-3564 -3565 0
3567 3568 3570 3571 -3572 -3573 0
3567 -3568 3570 3571 3572 -3574 0
3567 -3568 -3570 3571 -3572 3574 0
-3567 3568 3569 -3571 3572 -3574 3576 0
3568 -3569 3570 3571 3574 3576 0
-3568 3569 -3570 3571 -3573 -3574 0
3567 3568 -3570 -3571 -3572 3573 0
-3567 -3569 -3570 3571 -3572 -3576 0
-3567 3569 -3570 3571 3572 3574 3576 0
-3569 -3570 3571 3573 3576 0
3567 -3569 -3571 -3574 -3576 0
3569 3570 3571 3572 -3573 -3576 0
3571 3572 3573 3574 3577 0
3569 -3570 3571 -3574 -3576 0
3569 3570 -3571 3572 3573 -3576 0
-3567 -3569 3570 3572 3573 3574 3576 0
-3567 -3569 3570 3571 3572 -3573 3576 0
-3571 -3572 -3573 3574 3576 0
-3571 3572 -3573 3574 -3576 0
3567 -3568 -3569 -3572 3573 3574 0
-3568 -3569 3570 -3571 3573 -3574 0
-3567 -3568 3569 -3572 -3573 -3576 0
-3569 3570 3573 -3574 -3576 0
-3567 -3571 -3572 3573 -3576 0
3568 3569 -3571 3572 3573 3574 0
3567 3571 3572 3573 3577 0
-3568 3569 3570 -3572 3576 0
3569 3570 -3571 -3573 3576 0
-3567 3569 3570 3571 3573 3576 0
3568 3571 -3572 -3573 -3576 0
3567 3570 -3571 -3573 -3576 0
-3567 -3569 3570 -3572 -3573 3574 0
3568 -3571 -3572 3573 -3576 0
-3567 3568 -3569 -3570 -3576 0
-3567 3569 -3570 -3571 -3572 3574 0
-3568 -3569 3571 -3573 -3576 0
3568 3570 3572 3573 3574 3577 0
3567 -3569 -3570 -3572 3576 0
3567 -3568 3569 3572 3573 -3574 0
-3569 -3570 -3571 -3573 3576 0
-3567 -3568 -3569 -3570 3576 0
-3570 -3577 0
-3567 -3568 -3570 -3571 3572 3573 0
3568 3572 3574 -3576 0
-3567 3571 -3572 3573 3576 0
-3567 -3569 3570 -3571 -3574 0
3567 3572 -3576 0
-3567 3569 -3570 -3573 -3574 0
3567 3569 -3570 -3576 0
3568 3569 3571 3572 3574 3577 0
-3571 -3577 0
3568 3569 3570 3572 -3574 0
3567 3569 3570 -3575 0
3569 3570 3571 -3572 3573 0
-3569 -3577 0
3567 3571 3573 3574 3577 0
-3573 -3577 0
-3568 -3577 0
3575 3576 3577 0
-3575 -3576 0
3578 3579 3581 3582 -3583 -3584 0
3578 -3579 3581 3582 3583 -3585 0
3578 -3579 -3581 3582 -3583 3585 0
-3578 3579 3580 -3582 3583 -3585 3587 0
3579 -3580 3581 3582 3585 3587 0
-3579 3580 -3581 3582 -3584 -3585 0
3578 3579 -3581 -3582 -3583 3584 0
-3578 -3580 -3581 3582 -3583 -3587 0
-3578 3580 -3581 3582 3583 3585 3587 0
-3580 -3581 3582 3584 3587 0
3578 -3580 -3582 -3585 -3587 0
3580 3581 3582 3583 -3584 -3587 0
3582 3583 3584 3585 3588 0
3580 -3581 3582 -3585 -3587 0
3580 3581 -3582 3583 3584 -3587 0
-3578 -3580 3581 3583 3584 3585 3587 0
-3578 -3580 3581 3582 3583 -3584 3587 0
-3582 -3583 -3584 3585 3587 0
-3582 3583 -3584 3585 -3587 0
3578 -3579 -3580 -3583 3584 3585 0
-3579 -3580 3581 -3582 3584 -3585 0
-3578 -3579 3580 -3583 -3584 -3587 0
-3580 3581 3584 -3585 -3587 0
-3578 -3582 -3583 3584 -3587 0
3579 3580 -3582 3583 3584 3585 0
3578 3582 3583 3584 3588 0
-3579 3580 3581 -3583 3587 0
3580 3581 -3582 -3584 3587 0
-3578 3580 3581 3582 3584 3587 0
3579 3582 -3583 -3584 -3587 0
3578 3581 -3582 -3584 -3587 0
-3578 -3580 3581 -3583 -3584 3585 0
3579 -3582 -3583 3584 -3587 0
-3578 3579 -3580 -3581 -3587 0
-3578 3580 -3581 -3582 -3583 3585 0
-3579 -3580 3582 -3584 -3587 0
3579 3581 3583 3584 3585 3588 0
3578 -3580 -3581 -3583 3587 0
3578 -3579 3580 3583 3584 -3585 0
-3580 -3581 -3582 -3584 3587 0
-3578 -3579 -3580 -3581 3587 0
-3581 -3588 0
-3578 -3579 -3581 -3582 3583 3584 0
3579 3583 3585 -3587 0
-3578 3582 -3583 3584 3587 0
-3578 -3580 3581 -3582 -3585 0
3578 3583 -3587 0
-3578 3580 -3581 -3584 -3585 0
3578 3580 -3581 -3587 0
3579 3580 3582 3583 3585 3588 0
-3582 -3588 0
3579 3580 3581 3583 -3585 0
3578 3580 3581 -3586 0
3580 3581 3582 -3583 3584 0
-3580 -3588 0
3578 3582 3584 3585 3588 0
-3584 -3588 0
-3579 -3588 0
3586 3587 3588 0
-3586 -3587 0
3589 3590 3592 3593 -3594 -3595 0
3589 -3590 3592 3593 3594 -3596 0
3589 -3590 -3592 3593 -3594 3596 0
-3589 3590 3591 -3593 3594 -3596 3598 0
3590 -3591 3592 3593 3596 3598 0
-3590 3591 -3592 3593 -3595 -3596 0
3589 3590 -3592 -3593 -3594 3595 0
-3589 -3591 -3592 3593 -3594 -3598 0
-3589 3591 -3592 3593 3594 3596 3598 0
-3591 -3592 3593 3595 3598 0
3589 -3591 -3593 -3596 -3598 0
3591 3592 3593 3594 -3595 -3598 0
3593 3594 3595 3596 3599 0
3591 -3592 3593 -3596 -3598 0
3591 3592 -3593 3594 3595 -3598 0
-3589 -3591 3592 3594 3595 3596 3598 0
-3589 -3591 3592 3593 3594 -3595 3598 0
-3593 -3594 -3595 3596 3598 0
-3593 3594 -3595 3596 -3598 0
3589 -3590 -3591 -3594 3595 3596 0
-3590 -3591 3592 -3593 3595 -3596 0
-3589 -3590 3591 -3594 -3595 -3598 0
-3591 3592 3595 -3596 -3598 0
-3589 -3593 -3594 3595 -3598 0
3590 3591 -3593 3594 3595 3596 0
3589 3593 3594 3595 3599 0
-3590 3591 3592 -3594 3598 0
3591 3592 -3593 -3595 3598 0
-3589 3591 3592 3593 3595 3598 0
3590 3593 -3594 -3595 -3598 0
3589 3592 -3593 -3595 -3598 0
-3589 -3591 3592 -3594 -3595 3596 0
3590 -3593 -3594 3595 -3598 0
-3589 3590 -3591 -3592 -3598 0
-3589 3591 -3592 -3593 -3594 3596 0
-3590 -3591 3593 -3595 -3598 0
3590 3592 3594 3595 3596 3599 0
3589 -3591 -3592 -3594 3598 0
3589 -3590 3591 3594 3595 -3596 0
-3591 -3592 -3593 -3595 3598 0
-3589 -3590 -3591 -3592 3598 0
-3592 -3599 0
-3589 -3590 -3592 -3593 3594 3595 0
3590 3594 3596 -3598 0
-3589 3593 -3594 3595 3598 0
-3589 -3591 3592 -3593 -3596 0
3589 3594 -3598 0
-3589 3591 -3592 -3595 -3596 0
3589 3591 -3592 -3598 0
3590 3591 3593 3594 3596 3599 0
-3593 -3599 0
3590 3591 3592 3594 -3596 0
3589 3591 3592 -3597 0
3591 3592 3593 -3594 3595 0
-3591 -3599 0
3589 3593 3595 3596 3599 0
-3595 -3599 0
-3590 -3599 0
3597 3598 3599 0
-3597 -3598 0
3600 3601 3603 3604 -3605 -3606 0
3600 -3601 3603 3604 3605 -3607 0
3600 -3601 -3603 3604 -3605 3607 0
-3600 3601 3602 -3604 3605 -3607 3609 0
3601 -3602 3603 3604 3607 3609 0
-3601 3602 -3603 3604 -3606 -3607 0
3600 3601 -3603 -3604 -3605 3606 0
-3600 -3602 -3603 3604 -3605 -3609 0
-3600 3602 -3603 3604 3605 3607 3609 0
-3602 -3603 3604 3606 3609 0
3600 -3602 -3604 -3607 -3609 0
3602 3603 3604 3605 -3606 -3609 0
3604 3605 3606 3607 3610 0
3602 -3603 3604 -3607 -3609 0
3602 3603 -3604 3605 3606 -3609 0
-3600 -3602 3603 3605 3606 3607 3609 0
-3600 -3602 3603 3604 3605 -3606 3609 0
-3604 -3605 -3606 3607 3609 0
-3604 3605 -3606 3607 -3609 0
3600 -3601 -3602 -3605 3606 3607 0
-3601 -3602 3603 -3604 3606 -3607 0
-3600 -3601 3602 -3605 -3606 -3609 0
-3602 3603 3606 -3607 -3609 0
-3600 -3604 -3605 3606 -3609 0
3601 3602 -3604 3605 3606 3607 0
3600 3604 3605 3606 3610 0
-3601 3602 3603 -3605 3609 0
3602 3603 -3604 -3606 3609 0
-3600 3602 3603 3604 3606 3609 0
3601 3604 -3605 -3606 -3609 0
3600 3603 -3604 -3606 -3609 0
-3600 -3602 3603 -3605 -3606 3607 0
3601 -3604 -3605 3606 -3609 0
-3600 3601 -3602 -3603 -3609 0
-3600 3602 -3603 -3604 -3605 3607 0
-3601 -3602 3604 -3606 -3609 0
3601 3603 3605 3606 3607 3610 0
3600 -3602 -3603 -3605 3609 0
3600 -3601 3602 3605 3606 -3607 0
-3602 -3603 -3604 -3606 3609 0
-3600 -3601 -3602 -3603 3609 0
-3603 -3610 0
-3600 -3601 -3603 -3604 3605 3606 0
3601 3605 3607 -3609 0
-3600 3604 -3605 3606 3609 0
-3600 -3602 3603 -3604 -3607 0
3600 3605 -3609 0
-3600 3602 -3603 -3606 -3607 0
3600 3602 -3603 -3609 0
3601 3602 3604 3605 3607 3610 0
-3604 -3610 0
3601 3602 3603 3605 -3607 0
3600 3602 3603 -3608 0
3602 3603 3604 -3605 3606 0
-3602 -3610 0
3600 3604 3606 3607 3610 0
-3606 -3610 0
-3601 -3610 0
3608 3609 3610 0
-3608 -3609 0
3611 3612 3614 3615 -3616 -3617 0
3611 -3612 3614 3615 3616 -3618 0
3611 -3612 -3614 3615 -3616 3618 0
-3611 3612 3613 -3615 3616 -3618 3620 0
3612 -3613 3614 3615 3618 3620 0
-3612 3613 -3614 3615 -3617 -3618 0
3611 3612 -3614 -3615 -3616 3617 0
-3611 -3613 -3614 3615 -3616 -3620 0
-3611 3613 -3614 3615 3616 3618 3620 0
-3613 -3614 3615 3617 3620 0
3611 -3613 -3615 -3618 -3620 0
3613 3614 3615 3616 -3617 -3620 0
3615 3616 3617 3618 3621 0
3613 -3614 3615 -3618 -3620 0
3613 3614 -3615 3616 3617 -3620 0
-3611 -3613 3614 3616 3617 3618 3620 0
-3611 -3613 3614 3615 3616 -3617 3620 0
-3615 -3616 -3617 3618 3620 0
-3615 3616 -3617 3618 -3620 0
3611 -3612 -3613 -3616 3617 3618 0
-3612 -3613 3614 -3615 3617 -3618 0
-3611 -3612 3613 -3616 -3617 -3620 0
-3613 3614 3617 -3618 -3620 0
-3611 -3615 -3616 3617 -3620 0
3612 3613 -3615 3616 3617 3618 0
3611 3615 3616 3617 3621 0
-3612 3613 3614 -3616 3620 0
3613 3614 -3615 -3617 3620 0
-3611 3613 3614 3615 3617 3620 0
3612 3615 -3616 -3617 -3620 0
3611 3614 -3615 -3617 -3620 0
-3611 -3613 3614 -3616 -3617 3618 0
3612 -3615 -3616 3617 -3620 0
-3611 3612 -3613 -3614 -3620 0
-3611 3613 -3614 -3615 -3616 3618 0
-3612 -3613 3615 -3617 -3620 0
3612 3614 3616 3617 3618 3621 0
3611 -3613 -3614 -3616 3620 0
3611 -3612 3613 3616 3617 -3618 0
-3613 -3614 -3615 -3617 3620 0
-3611 -3612 -3613 -3614 3620 0
-3614 -3621 0
-3611 -3612 -3614 -3615 3616 3617 0
3612 3616 3618 -3620 0
-3611 3615 -3616 3617 3620 0
-3611 -3613 3614 -3615 -3618 0
3611 3616 -3620 0
-3611 3613 -3614 -3617 -3618 0
3611 3613 -3614 -3620 0
3612 3613 3615 3616 3618 3621 0
-3615 -3621 0
3612 3613 3614 3616 -3618 0
3611 3613 3614 -3619 0
3613 3614 3615 -3616 3617 0
-3613 -3621 0
3611 3615 3617 3618 3621 0
-3617 -3621 0
-3612 -3621 0
3619 3620 3621 0
-3619 -3620 0
3622 3623 3625 3626 -3627 -3628 0
3622 -3623 3625 3626 3627 -3629 0
3622 -3623 -3625 3626 -3627 3629 0
-3622 3623 3624 -3626 3627 -3629 3631 0
3623 -3624 3625 3626 3629 3631 0
-3623 3624 -3625 3626 -3628 -3629 0
3622 3623 -3625 -3626 -3627 3628 0
-3622 -3624 -3625 3626 -3627 -3631 0
-3622 3624 -3625 3626 3627 3629 3631 0
-3624 -3625 3626 3628 3631 0
3622 -3624 -3626 -3629 -3631 0
3624 3625 3626 3627 -3628 -3631 0
3626 3627 3628 3629 3632 0
3624 -3625 3626 -3629 -3631 0
3624 3625 -3626 3627 3628 -3631 0
-3622 -3624 3625 3627 3628 3629 3631 0
-3622 -3624 3625 3626 3627 -3628 3631 0
-3626 -3627 -3628 3629 3631 0
-3626 3627 -3628 3629 -3631 0
3622 -3623 -3624 -3627 3628 3629 0
-3623 -3624 3625 -3626 3628 -3629 0
-3622 -3623 3624 -3627 -3628 -3631 0
-3624 3625 3628 -3629 -3631 0
-3622 -3626 -3627 3628 -3631 0
3623 3624 -3626 3627 3628 3629 0
3622 3626 3627 3628 3632 0
-3623 3624 3625 -3627 3631 0
3624 3625 -3626 -3628 3631 0
-3622 3624 3625 3626 3628 3631 0
3623 3626 -3627 -3628 -3631 0
3622 3625 -3626 -3628 -3631 0
-3622 -3624 3625 -3627 -3628 3629 0
3623 -3626 -3627 3628 -3631 0
-3622 3623 -3624 -3625 -3631 0
-3622 3624 -3625 -3626 -3627 3629 0
-3623 -3624 3626 -3628 -3631 0
3623 3625 3627 3628 3629 3632 0
3622 -3624 -3625 -3627 3631 0
3622 -3623 3624 3627 3628 -3629 0
-3624 -3625 -3626 -3628 3631 0
-3622 -3623 -3624 -3625 3631 0
-3625 -3632 0
-3622 -3623 -3625 -3626 3627 3628 0
3623 3627 3629 -3631 0
-3622 3626 -3627 3628 3631 0
-3622 -3624 3625 -3626 -3629 0
3622 3627 -3631 0
-3622 3624 -3625 -3628 -3629 0
3622 3624 -3625 -3631 0
3623 3624 3626 3627 3629 3632 0
-3626 -3632 0
3623 3624 3625 3627 -3629 0
3622 3624 3625 -3630 0
3624 3625 3626 -3627 3628 0
-3624 -3632 0
3622 3626 3628 3629 3632 0
-3628 -3632 0
-3623 -3632 0
3630 3631 3632 0
-3630 -3631 0
3633 3634 3636 3637 -3638 -3639 0
3633 -3634 3636 3637 3638 -3640 0
3633 -3634 -3636 3637 -3638 3640 0
-3633 3634 3635 -3637 3638 -3640 3642 0
3634 -3635 3636 3637 3640 3642 0
-3634 3635 -3636 3637 -3639 -3640 0
3633 3634 -3636 -3637 -3638 3639 0
-3633 -3635 -3636 3637 -3638 -3642 0
-3633 3635 -3636 3637 3638 3640 3642 0
-3635 -3636 3637 3639 3642 0
3633 -3635 -3637 -3640 -3642 0
3635 3636 3637 3638 -3639 -3642 0
3637 3638 3639 3640 3643 0
3635 -3636 3637 -3640 -3642 0
3635 3636 -3637 3638 3639 -3642 0
-3633 -3635 3636 3638 3639 3640 3642 0
-3633 -3635 3636 3637 3638 -3639 3642 0
-3637 -3638 -3639 3640 3642 0
-3637 3638 -3639 3640 -3642 0
3633 -3634 -3635 -3638 3639 3640 0
-3634 -3635 3636 -3637 3639 -3640 0
-3633 -3634 3635 -3638 -3639 -3642 0
-3635 3636 3639 -3640 -3642 0
-3633 -3637 -3638 3639 -3642 0
3634 3635 -3637 3638 3639 3640 0
3633 3637 3638 3639 3643 0
-3634 3635 3636 -3638 3642 0
3635 3636 -3637 -3639 3642 0
-3633 3635 3636 3637 3639 3642 0
3634 3637 -3638 -3639 -3642 0
3633 3636 -3637 -3639 -3642 0
-3633 -3635 3636 -3638 -3639 3640 0
3634 -3637 -3638 3639 -3642 0
-3633 3634 -3635 -3636 -3642 0
-3633 3635 -3636 -3637 -3638 3640 0
-3634 -3635 3637 -3639 -3642 0
3634 3636 3638 3639 3640 3643 0
3633 -3635 -3636 -3638 3642 0
3633 -3634 3635 3638 3639 -3640 0
-3635 -3636 -3637 -3639 3642 0
-3633 -3634 -3635 -3636 3642 0
-3636 -3643 0
-3633 -3634 -3636 -3637 3638 3639 0
3634 3638 3640 -3642 0
-3633 3637 -3638 3639 3642 0
-3633 -3635 3636 -3637 -3640 0
3633 3638 -3642 0
-3633 3635 -3636 -3639 -3640 0
3633 3635 -3636 -3642 0
3634 3635 3637 3638 3640 3643 0
-3637 -3643 0
3634 3635 3636 3638 -3640 0
3633 3635 3636 -3641 0
3635 3636 3637 -3638 3639 0
-3635 -3643 0
3633 3637 3639 3640 3643 0
-3639 -3643 0
-3634 -3643 0
3641 3642 3643 0
-3641 -3642 0
3644 3645 3647 3648 -3649 -3650 0
3644 -3645 3647 3648 3649 -3651 0
3644 -3645 -3647 3648 -3649 3651 0
-3644 3645 3646 -3648 3649 -3651 3653 0
3645 -3646 3647 3648 3651 3653 0
-3645 3646 -3647 3648 -3650 -3651 0
3644 3645 -3647 -3648 -3649 3650 0
-3644 -3646 -3647 3648 -3649 -3653 0
-3644 3646 -3647 3648 3649 3651 3653 0
-3646 -3647 3648 3650 3653 0
3644 -3646 -3648 -3651 -3653 0
3646 3647 3648 3649 -3650 -3653 0
3648 3649 3650 3651 3654 0
3646 -3647 3648 -3651 -3653 0
3646 3647 -3648 3649 3650 -3653 0
-3644 -3646 3647 3649 3650 3651 3653 0
-3644 -3646 3647 3648 3649 -3650 3653 0
-3648 -3649 -3650 3651 3653 0
-3648 3649 -3650 3651 -3653 0
3644 -3645 -3646 -3649 3650 3651 0
-3645 -3646 3647 -3648 3650 -3651 0
-3644 -3645 3646 -3649 -3650 -3653 0
-3646 3647 3650 -3651 -3653 0
-3644 -3648 -3649 3650 -3653 0
3645 3646 -3648 3649 3650 3651 0
3644 3648 3649 3650 3654 0
-3645 3646 3647 -3649 3653 0
3646 3647 -3648 -3650 3653 0
-3644 3646 3647 3648 3650 3653 0
3645 3648 -3649 -3650 -3653 0
3644 3647 -3648 -3650 -3653 0
-3644 -3646 3647 -3649 -3650 3651 0
3645 -3648 -3649 3650 -3653 0
-3644 3645 -3646 -3647 -3653 0
-3644 3646 -3647 -3648 -3649 3651 0
-3645 -3646 3648 -3650 -3653 0
3645 3647 3649 3650 3651 3654 0
3644 -3646 -3647 -3649 3653 0
3644 -3645 3646 3649 3650 -3651 0
-3646 -3647 -3648 -3650 3653 0
-3644 -3645 -3646 -3647 3653 0
-3647 -3654 0
-3644 -3645 -3647 -3648 3649 3650 0
3645 3649 3651 -3653 0
-3644 3648 -3649 3650 3653 0
-3644 -3646 3647 -3648 -3651 0
3644 3649 -3653 0
-3644 3646 -3647 -3650 -3651 0
3644 3646 -3647 -3653 0
3645 3646 3648 3649 3651 3654 0
-3648 -3654 0
3645 3646 3647 3649 -3651 0
3644 3646 3647 -3652 0
3646 3647 3648 -3649 3650 0
-3646 -3654 0
3644 3648 3650 3651 3654 0
-3650 -3654 0
-3645 -3654 0
3652 3653 3654 0
-3652 -3653 0
3655 3656 3658 3659 -3660 -3661 0
3655 -3656 3658 3659 3660 -3662 0
3655 -3656 -3658 3659 -3660 3662 0
-3655 3656 3657 -3659 3660 -3662 3664 0
3656 -3657 3658 3659 3662 3664 0
-3656 3657 -3658 3659 -3661 -3662 0
3655 3656 -3658 -3659 -3660 3661 0
-3655 -3657 -3658 3659 -3660 -3664 0
-3655 3657 -3658 3659 3660 3662 3664 0
-3657 -3658 3659 3661 3664 0
3655 -3657 -3659 -3662 -3664 0
3657 3658 3659 3660 -3661 -3664 0
3659 3660 3661 3662 3665 0
3657 -3658 3659 -3662 -3664 0
3657 3658 -3659 3660 3661 -3664 0
-3655 -3657 3658 3660 3661 3662 3664 0
-3655 -3657 3658 3659 3660 -3661 3664 0
-3659 -3660 -3661 3662 3664 0
-3659 3660 -3661 3662 -3664 0
3655 -3656 -3657 -3660 3661 3662 0
-3656 -3657 3658 -3659 3661 -3662 0
-3655 -3656 3657 -3660 -3661 -3664 0
-3657 3658 3661 -3662 -3664 0
-3655 -3659 -3660 3661 -3664 0
3656 3657 -3659 3660 3661 3662 0
3655 3659 3660 3661 3665 0
-3656 3657 3658 -3660 3664 0
3657 3658 -3659 -3661 3664 0
-3655 3657 3658 3659 3661 3664 0
3656 3659 -3660 -3661 -3664 0
3655 3658 -3659 -3661 -3664 0
-3655 -3657 3658 -3660 -3661 3662 0
3656 -3659 -3660 3661 -3664 0
-3655 3656 -3657 -3658 -3664 0
-3655 3657 -3658 -3659 -3660 3662 0
-3656 -3657 3659 -3661 -3664 0
3656 3658 3660 3661 3662 3665 0
3655 -3657 -3658 -3660 3664 0
3655 -3656 3657 3660 3661 -3662 0
-3657 -3658 -3659 -3661 3664 0
-3655 -3656 -3657 -3658 3664 0
-3658 -3665 0
-3655 -3656 -3658 -3659 3660 3661 0
3656 3660 3662 -3664 0
-3655 3659 -3660 3661 3664 0
-3655 -3657 3658 -3659 -3662 0
3655 3660 -3664 0
-3655 3657 -3658 -3661 -3662 0
3655 3657 -3658 -3664 0
3656 3657 3659 3660 3662 3665 0
-3659 -3665 0
3656 3657 3658 3660 -3662 0
3655 3657 3658 -3663 0
3657 3658 3659 -3660 3661 0
-3657 -3665 0
3655 3659 3661 3662 3665 0
-3661 -3665 0
-3656 -3665 0
3663 3664 3665 0
-3663 -3664 0
3666 3667 3669 3670 -3671 -3672 0
3666 -3667 3669 3670 3671 -3673 0
3666 -3667 -3669 3670 -3671 3673 0
-3666 3667 3668 -3670 3671 -3673 3675 0
3667 -3668 3669 3670 3673 3675 0
-3667 3668 -3669 3670 -3672 -3673 0
3666 3667 -3669 -3670 -3671 3672 0
-3666 -3668 -3669 3670 -3671 -3675 0
-3666 3668 -3669 3670 3671 3673 3675 0
-3668 -3669 3670 3672 3675 0
3666 -3668 -3670 -3673 -3675 0
3668 3669 3670 3671 -3672 -3675 0
3670 3671 3672 3673 3676 0
3668 -3669 3670 -3673 -3675 0
3668 3669 -3670 3671 3672 -3675 0
-3666 -3668 3669 3671 3672 3673 3675 0
-3666 -3668 3669 3670 3671 -3672 3675 0
-3670 -3671 -3672 3673 3675 0
-3670 3671 -3672 3673 -3675 0
3666 -3667 -3668 -3671 3672 3673 0
-3667 -3668 3669 -3670 3672 -3673 0
-3666 -3667 3668 -3671 -3672 -3675 0
-3668 3669 3672 -3673 -3675 0
-3666 -3670 -3671 3672 -3675 0
3667 3668 -3670 3671 3672 3673 0
3666 3670 3671 3672 3676 0
-3667 3668 3669 -3671 3675 0
3668 3669 -3670 -3672 3675 0
-3666 3668 3669 3670 3672 3675 0
3667 3670 -3671 -3672 -3675 0
3666 3669 -3670 -3672 -3675 0
-3666 -3668 3669 -3671 -3672 3673 0
3667 -3670 -3671 3672 -3675 0
-3666 3667 -3668 -3669 -3675 0
-3666 3668 -3669 -3670 -3671 3673 0
-3667 -3668 3670 -3672 -3675 0
3667 3669 3671 3672 3673 3676 0
3666 -3668 -3669 -3671 3675 0
3666 -3667 3668 3671 3672 -3673 0
-3668 -3669 -3670 -3672 3675 0
-3666 -3667 -3668 -3669 3675 0
-3669 -3676 0
-3666 -3667 -3669 -3670 3671 3672 0
3667 3671 3673 -3675 0
-3666 3670 -3671 3672 3675 0
-3666 -3668 3669 -3670 -3673 0
3666 3671 -3675 0
-3666 3668 -3669 -3672 -3673 0
3666 3668 -3669 -3675 0
3667 3668 3670 3671 3673 3676 0
-3670 -3676 0
3667 3668 3669 3671 -3673 0
3666 3668 3669 -3674 0
3668 3669 3670 -3671 3672 0
-3668 -3676 0
3666 3670 3672 3673 3676 0
-3672 -3676 0
-3667 -3676 0
3674 3675 3676 0
-3674 -3675 0
3677 3678 3680 3681 -3682 -3683 0
3677 -3678 3680 3681 3682 -3684 0
3677 -3678 -3680 3681 -3682 3684 0
-3677 3678 3679 -3681 3682 -3684 3686 0
3678 -3679 3680 3681 3684 3686 0
-3678 3679 -3680 3681 -3683 -3684 0
3677 3678 -3680 -3681 -3682 3683 0
-3677 -3679 -3680 3681 -3682 -3686 0
-3677 3679 -3680 3681 3682 3684 3686 0
-3679 -3680 3681 3683 3686 0
3677 -3679 -3681 -3684 -3686 0
3679 3680 3681 3682 -3683 -3686 0
3681 3682 3683 3684 3687 0
3679 -3680 3681 -3684 -3686 0
3679 3680 -3681 3682 3683 -3686 0
-3677 -3679 3680 3682 3683 3684 3686 0
-3677 -3679 3680 3681 3682 -3683 3686 0
-3681 -3682 -3683 3684 3686 0
-3681 3682 -3683 3684 -3686 0
3677 -3678 -3679 -3682 3683 3684 0
-3678 -3679 3680 -3681 3683 -3684 0
-3677 -3678 3679 -3682 -3683 -3686 0
-3679 3680 3683 -3684 -3686 0
-3677 -3681 -3682 3683 -3686 0
3678 3679 -3681 3682 3683 3684 0
3677 3681 3682 3683 3687 0
-3678 3679 3680 -3682 3686 0
3679 3680 -3681 -3683 3686 0
-3677 3679 3680 3681 3683 3686 0
3678 3681 -3682 -3683 -3686 0
3677 3680 -3681 -3683 -3686 0
-3677 -3679 3680 -3682 -3683 3684 0
3678 -3681 -3682 3683 -3686 0
-3677 3678 -3679 -3680 -3686 0
-3677 3679 -3680 -3681 -3682 3684 0
-3678 -3679 3681 -3683 -3686 0
3678 3680 3682 3683 3684 3687 0
3677 -3679 -3680 -3682 3686 0
3677 -3678 3679 3682 3683 -3684 0
-3679 -3680 -3681 -3683 3686 0
-3677 -3678 -3679 -3680 3686 0
-3680 -3687 0
-3677 -3678 -3680 -3681 3682 3683 0
3678 3682 3684 -3686 0
-3677 3681 -3682 3683 3686 0
-3677 -3679 3680 -3681 -3684 0
3677 3682 -3686 0
-3677 3679 -3680 -3683 -3684 0
3677 3679 -3680 -3686 0
3678 3679 3681 3682 3684 3687 0
-3681 -3687 0
3678 3679 3680 3682 -3684 0
3677 3679 3680 -3685 0
3679 3680 3681 -3682 3683 0
-3679 -3687 0
3677 3681 3683 3684 3687 0
-3683 -3687 0
-3678 -3687 0
3685 3686 3687 0
-3685 -3686 0
3688 3689 3691 3692 -3693 -3694 0
3688 -3689 3691 3692 3693 -3695 0
3688 -3689 -3691 3692 -3693 3695 0
-3688 3689 3690 -3692 3693 -3695 3697 0
3689 -3690 3691 3692 3695 3697 0
-3689 3690 -3691 3692 -3694 -3695 0
3688 3689 -3691 -3692 -3693 3694 0
-3688 -3690 -3691 3692 -3693 -3697 0
-3688 3690 -3691 3692 3693 3695 3697 0
-3690 -3691 3692 3694 3697 0
3688 -3690 -3692 -3695 -3697 0
3690 3691 3692 3693 -3694 -3697 0
3692 3693 3694 3695 3698 0
3690 -3691 3692 -3695 -3697 0
3690 3691 -3692 3693 3694 -3697 0
-3688 -3690 3691 3693 3694 3695 3697 0
-3688 -3690 3691 3692 3693 -3694 3697 0
-3692 -3693 -3694 3695 3697 0
-3692 3693 -3694 3695 -3697 0
3688 -3689 -3690 -3693 3694 3695 0
-3689 -3690 3691 -3692 3694 -3695 0
-3688 -3689 3690 -3693 -3694 -3697 0
-3690 3691 3694 -3695 -3697 0
-3688 -3692 -3693 3694 -3697 0
3689 3690 -3692 3693 3694 3695 0
3688 3692 3693 3694 3698 0
-3689 3690 3691 -3693 3697 0
3690 3691 -3692 -3694 3697 0
-3688 3690 3691 3692 3694 3697 0
3689 3692 -3693 -3694 -3697 0
3688 3691 -3692 -3694 -3697 0
-3688 -3690 3691 -3693 -3694 3695 0
3689 -3692 -3693 3694 -3697 0
-3688 3689 -3690 -3691 -3697 0
-3688 3690 -3691 -3692 -3693 3695 0
-3689 -3690 3692 -3694 -3697 0
3689 3691 3693 3694 3695 3698 0
3688 -3690 -3691 -3693 3697 0
3688 -3689 3690 3693 3694 -3695 0
-3690 -3691 -3692 -3694 3697 0
-3688 -3689 -3690 -3691 3697 0
-3691 -3698 0
-3688 -3689 -3691 -3692 3693 3694 0
3689 3693 3695 -3697 0
-3688 3692 -3693 3694 3697 0
-3688 -3690 3691 -3692 -3695 0
3688 3693 -3697 0
-3688 3690 -3691 -3694 -3695 0
3688 3690 -3691 -3697 0
3689 3690 3692 3693 3695 3698 0
-3692 -3698 0
3689 3690 3691 3693 -3695 0
3688 3690 3691 -3696 0
3690 3691 3692 -3693 3694 0
-3690 -3698 0
3688 3692 3694 3695 3698 0
-3694 -3698 0
-3689 -3698 0
3696 3697 3698 0
-3696 -3697 0
3699 3700 3702 3703 -3704 -3705 0
3699 -3700 3702 3703 3704 -3706 0
3699 -3700 -3702 3703 -3704 3706 0
-3699 3700 3701 -3703 3704 -3706 3708 0
3700 -3701 3702 3703 3706 3708 0
-3700 3701 -3702 3703 -3705 -3706 0
3699 3700 -3702 -3703 -3704 3705 0
-3699 -3701 -3702 3703 -3704 -3708 0
-3699 3701 -3702 3703 3704 3706 3708 0
-3701 -3702 3703 3705 3708 0
3699 -3701 -3703 -3706 -3708 0
3701 3702 3703 3704 -3705 -3708 0
3703 3704 3705 3706 3709 0
3701 -3702 3703 -3706 -3708 0
3701 3702 -3703 3704 3705 -3708 0
-3699 -3701 3702 3704 3705 3706 3708 0
-3699 -3701 3702 3703 3704 -3705 3708 0
-3703 -3704 -3705 3706 3708 0
-3703 3704 -3705 3706 -3708 0
3699 -3700 -3701 -3704 3705 3706 0
-3700 -3701 3702 -3703 3705 -3706 0
-3699 -3700 3701 -3704 -3705 -3708 0
-3701 3702 3705 -3706 -3708 0
-3699 -3703 -3704 3705 -3708 0
3700 3701 -3703 3704 3705 3706 0
3699 3703 3704 3705 3709 0
-3700 3701 3702 -3704 3708 0
3701 3702 -3703 -3705 3708 0
-3699 3701 3702 3703 3705 3708 0
3700 3703 -3704 -3705 -3708 0
3699 3702 -3703 -3705 -3708 0
-3699 -3701 3702 -3704 -3705 3706 0
3700 -3703 -3704 3705 -3708 0
-3699 3700 -3701 -3702 -3708 0
-3699 3701 -3702 -3703 -3704 3706 0
-3700 -3701 3703 -3705 -3708 0
3700 3702 3704 3705 3706 3709 0
3699 -3701 -3702 -3704 3708 0
3699 -3700 3701 3704 3705 -3706 0
-3701 -3702 -3703 -3705 3708 0
-3699 -3700 -3701 -3702 3708 0
-3702 -3709 0
-3699 -3700 -3702 -3703 3704 3705 0
3700 3704 3706 -3708 0
-3699 3703 -3704 3705 3708 0
-3699 -3701 3702 -3703 -3706 0
3699 3704 -3708 0
-3699 3701 -3702 -3705 -3706 0
3699 3701 -3702 -3708 0
3700 3701 3703 3704 3706 3709 0
-3703 -3709 0
3700 3701 3702 3704 -3706 0
3699 3701 3702 -3707 0
3701 3702 3703 -3704 3705 0
-3701 -3709 0
3699 3703 3705 3706 3709 0
-3705 -3709 0
-3700 -3709 0
3707 3708 3709 0
-3707 -3708 0
3710 3711 3713 3714 -3715 -3716 0
3710 -3711 3713 3714 3715 -3717 0
3710 -3711 -3713 3714 -3715 3717 0
-3710 3711 3712 -3714 3715 -3717 3719 0
3711 -3712 3713 3714 3717 3719 0
-3711 3712 -3713 3714 -3716 -3717 0
3710 3711 -3713 -3714 -3715 3716 0
-3710 -3712 -3713 3714 -3715 -3719 0
-3710 3712 -3713 3714 3715 3717 3719 0
-3712 -3713 3714 3716 3719 0
3710 -3712 -3714 -3717 -3719 0
3712 3713 3714 3715 -3716 -3719 0
3714 3715 3716 3717 3720 0
3712 -3713 3714 -3717 -3719 0
3712 3713 -3714 3715 3716 -3719 0
-3710 -3712 3713 3715 3716 3717 3719 0
-3710 -3712 3713 3714 3715 -3716 3719 0
-3714 -3715 -3716 3717 3719 0
-3714 3715 -3716 3717 -3719 0
3710 -3711 -3712 -3715 3716 3717 0
-3711 -3712 3713 -3714 3716 -3717 0
-3710 -3711 3712 -3715 -3716 -3719 0
-3712 3713 3716 -3717 -3719 0
-3710 -3714 -3715 3716 -3719 0
3711 3712 -3714 3715 3716 3717 0
3710 3714 3715 3716 3720 0
-3711 3712 3713 -3715 3719 0
3712 3713 -3714 -3716 3719 0
-3710 3712 3713 3714 3716 3719 0
3711 3714 -3715 -3716 -3719 0
3710 3713 -3714 -3716 -3719 0
-3710 -3712 3713 -3715 -3716 3717 0
3711 -3714 -3715 3716 -3719 0
-3710 3711 -3712 -3713 -3719 0
-3710 3712 -3713 -3714 -3715 3717 0
-3711 -3712 3714 -3716 -3719 0
3711 3713 3715 3716 3717 3720 0
3710 -3712 -3713 -3715 3719 0
3710 -3711 3712 3715 3716 -3717 0
-3712 -3713 -3714 -3716 3719 0
-3710 -3711 -3712 -3713 3719 0
-3713 -3720 0
-3710 -3711 -3713 -3714 3715 3716 0
3711 3715 3717 -3719 0
-3710 3714 -3715 3716 3719 0
-3710 -3712 3713 -3714 -3717 0
3710 3715 -3719 0
-3710 3712 -3713 -3716 -3717 0
3710 3712 -3713 -3719 0
3711 3712 3714 3715 3717 3720 0
-3714 -3720 0
3711 3712 3713 3715 -3717 0
3710 3712 3713 -3718 0
3712 3713 3714 -3715 3716 0
-3712 -3720 0
3710 3714 3716 3717 3720 0
-3716 -3720 0
-3711 -3720 0
3718 3719 3720 0
-3718 -3719 0
3721 3722 3724 3725 -3726 -3727 0
3721 -3722 3724 3725 3726 -3728 0
3721 -3722 -3724 3725 -3726 3728 0
-3721 3722 3723 -3725 3726 -3728 3730 0
3722 -3723 3724 3725 3728 3730 0
-3722 3723 -3724 3725 -3727 -3728 0
3721 3722 -3724 -3725 -3726 3727 0
-3721 -3723 -3724 3725 -3726 -3730 0
-3721 3723 -3724 3725 3726 3728 3730 0
-3723 -3724 3725 3727 3730 0
3721 -3723 -3725 -3728 -3730 0
3723 3724 3725 3726 -3727 -3730 0
3725 3726 3727 3728 3731 0
3723 -3724 3725 -3728 -3730 0
3723 3724 -3725 3726 3727 -3730 0
-3721 -3723 3724 3726 3727 3728 3730 0
-3721 -3723 3724 3725 3726 -3727 3730 0
-3725 -3726 -3727 3728 3730 0
-3725 3726 -3727 3728 -3730 0
3721 -3722 -3723 -3726 3727 3728 0
-3722 -3723 3724 -3725 3727 -3728 0
-3721 -3722 3723 -3726 -3727 -3730 0
-3723 3724 3727 -3728 -3730 0
-3721 -3725 -3726 3727 -3730 0
3722 3723 -3725 3726 3727 3728 0
3721 3725 3726 3727 3731 0
-3722 3723 3724 -3726 3730 0
3723 3724 -3725 -3727 3730 0
-3721 3723 3724 3725 3727 3730 0
3722 3725 -3726 -3727 -3730 0
3721 3724 -3725 -3727 -3730 0
-3721 -3723 3724 -3726 -3727 3728 0
3722 -3725 -3726 3727 -3730 0
-3721 3722 -3723 -3724 -3730 0
-3721 3723 -3724 -3725 -3726 3728 0
-3722 -3723 3725 -3727 -3730 0
3722 3724 3726 3727 3728 3731 0
3721 -3723 -3724 -3726 3730 0
3721 -3722 3723 3726 3727 -3728 0
-3723 -3724 -3725 -3727 3730 0
-3721 -3722 -3723 -3724 3730 0
-3724 -3731 0
-3721 -3722 -3724 -3725 3726 3727 0
3722 3726 3728 -3730 0
-3721 3725 -3726 3727 3730 0
-3721 -3723 3724 -3725 -3728 0
3721 3726 -3730 0
-3721 3723 -3724 -3727 -3728 0
3721 3723 -3724 -3730 0
3722 3723 3725 3726 3728 3731 0
-3725 -3731 0
3722 3723 3724 3726 -3728 0
3721 3723 3724 -3729 0
3723 3724 3725 -3726 3727 0
-3723 -3731 0
3721 3725 3727 3728 3731 0
-3727 -3731 0
-3722 -3731 0
3729 3730 3731 0
-3729 -3730 0
3732 3733 3735 3736 -3737 -3738 0
3732 -3733 3735 3736 3737 -3739 0
3732 -3733 -3735 3736 -3737 3739 0
-3732 3733 3734 -3736 3737 -3739 3741 0
3733 -3734 3735 3736 3739 3741 0
-3733 3734 -3735 3736 -3738 -3739 0
3732 3733 -3735 -3736 -3737 3738 0
-3732 -3734 -3735 3736 -3737 -3741 0
-3732 3734 -3735 3736 3737 3739 3741 0
-3734 -3735 3736 3738 3741 0
3732 -3734 -3736 -3739 -3741 0
3734 3735 3736 3737 -3738 -3741 0
3736 3737 3738 3739 3742 0
3734 -3735 3736 -3739 -3741 0
3734 3735 -3736 3737 3738 -3741 0
-3732 -3734 3735 3737 3738 3739 3741 0
-3732 -3734 3735 3736 3737 -3738 3741 0
-3736 -3737 -3738 3739 3741 0
-3736 3737 -3738 3739 -3741 0
3732 -3733 -3734 -3737 3738 3739 0
-3733 -3734 3735 -3736 3738 -3739 0
-3732 -3733 3734 -3737 -3738 -3741 0
-3734 3735 3738 -3739 -3741 0
-3732 -3736 -3737 3738 -3741 0
3733 3734 -3736 3737 3738 3739 0
3732 3736 3737 3738 3742 0
-3733 3734 3735 -3737 3741 0
3734 3735 -3736 -3738 3741 0
-3732 3734 3735 3736 3738 3741 0
3733 3736 -3737 -3738 -3741 0
3732 3735 -3736 -3738 -3741 0
-3732 -3734 3735 -3737 -3738 3739 0
3733 -3736 -3737 3738 -3741 0
-3732 3733 -3734 -3735 -3741 0
-3732 3734 -3735 -3736 -3737 3739 0
-3733 -3734 3736 -3738 -3741 0
3733 3735 3737 3738 3739 3742 0
3732 -3734 -3735 -3737 3741 0
3732 -3733 3734 3737 3738 -3739 0
-3734 -3735 -3736 -3738 3741 0
-3732 -3733 -3734 -3735 3741 0
-3735 -3742 0
-3732 -3733 -3735 -3736 3737 3738 0
3733 3737 3739 -3741 0
-3732 3736 -3737 3738 3741 0
-3732 -3734 3735 -3736 -3739 0
3732 3737 -3741 0
-3732 3734 -3735 -3738 -3739 0
3732 3734 -3735 -3741 0
3733 3734 3736 3737 3739 3742 0
-3736 -3742 0
3733 3734 3735 3737 -3739 0
3732 3734 3735 -3740 0
3734 3735 3736 -3737 3738 0
-3734 -3742 0
3732 3736 3738 3739 3742 0
-3738 -3742 0
-3733 -3742 0
3740 3741 3742 0
-3740 -3741 0
3743 3744 3746 3747 -3748 -3749 0
3743 -3744 3746 3747 3748 -3750 0
3743 -3744 -3746 3747 -3748 3750 0
-3743 3744 3745 -3747 3748 -3750 3752 0
3744 -3745 3746 3747 3750 3752 0
-3744 3745 -3746 3747 -3749 -3750 0
3743 3744 -3746 -3747 -3748 3749 0
-3743 -3745 -3746 3747 -3748 -3752 0
-3743 3745 -3746 3747 3748 3750 3752 0
-3745 -3746 3747 3749 3752 0
3743 -3745 -3747 -3750 -3752 0
3745 3746 3747 3748 -3749 -3752 0
3747 3748 3749 3750 3753 0
3745 -3746 3747 -3750 -3752 0
3745 3746 -3747 3748 3749 -3752 0
-3743 -3745 3746 3748 3749 3750 3752 0
-3743 -3745 3746 3747 3748 -3749 3752 0
-3747 -3748 -3749 3750 3752 0
-3747 3748 -3749 3750 -3752 0
3743 -3744 -3745 -3748 3749 3750 0
-3744 -3745 3746 -3747 3749 -3750 0
-3743 -3744 3745 -3748 -3749 -3752 0
-3745 3746 3749 -3750 -3752 0
-3743 -3747 -3748 3749 -3752 0
3744 3745 -3747 3748 3749 3750 0
3743 3747 3748 3749 3753 0
-3744 3745 3746 -3748 3752 0
3745 3746 -3747 -3749 3752 0
-3743 3745 3746 3747 3749 3752 0
3744 3747 -3748 -3749 -3752 0
3743 3746 -3747 -3749 -3752 0
-3743 -3745 3746 -3748 -3749 3750 0
3744 -3747 -3748 3749 -3752 0
-3743 3744 -3745 -3746 -3752 0
-3743 3745 -3746 -3747 -3748 3750 0
-3744 -3745 3747 -3749 -3752 0
3744 3746 3748 3749 3750 3753 0
3743 -3745 -3746 -3748 3752 0
3743 -3744 3745 3748 3749 -3750 0
-3745 -3746 -3747 -3749 3752 0
-3743 -3744 -3745 -3746 3752 0
-3746 -3753 0
-3743 -3744 -3746 -3747 3748 3749 0
3744 3748 3750 -3752 0
-3743 3747 -3748 3749 3752 0
-3743 -3745 3746 -3747 -3750 0
3743 3748 -3752 0
-3743 3745 -3746 -3749 -3750 0
3743 3745 -3746 -3752 0
3744 3745 3747 3748 3750 3753 0
-3747 -3753 0
3744 3745 3746 3748 -3750 0
3743 3745 3746 -3751 0
3745 3746 3747 -3748 3749 0
-3745 -3753 0
3743 3747 3749 3750 3753 0
-3749 -3753 0
-3744 -3753 0
3751 3752 3753 0
-3751 -3752 0
3754 3755 3757 3758 -3759 -3760 0
3754 -3755 3757 3758 3759 -3761 0
3754 -3755 -3757 3758 -3759 3761 0
-3754 3755 3756 -3758 3759 -3761 3763 0
3755 -3756 3757 3758 3761 3763 0
-3755 3756 -3757 3758 -3760 -3761 0
3754 3755 -3757 -3758 -3759 3760 0
-3754 -3756 -3757 3758 -3759 -3763 0
-3754 3756 -3757 3758 3759 3761 3763 0
-3756 -3757 3758 3760 3763 0
3754 -3756 -3758 -3761 -3763 0
3756 3757 3758 3759 -3760 -3763 0
3758 3759 3760 3761 3764 0
3756 -3757 3758 -3761 -3763 0
3756 3757 -3758 3759 3760 -3763 0
-3754 -3756 3757 3759 3760 3761 3763 0
-3754 -3756 3757 3758 3759 -3760 3763 0
-3758 -3759 -3760 3761 3763 0
-3758 3759 -3760 3761 -3763 0
3754 -3755 -3756 -3759 3760 3761 0
-3755 -3756 3757 -3758 3760 -3761 0
-3754 -3755 3756 -3759 -3760 -3763 0
-3756 3757 3760 -3761 -3763 0
-3754 -3758 -3759 3760 -3763 0
3755 3756 -3758 3759 3760 3761 0
3754 3758 3759 3760 3764 0
-3755 3756 3757 -3759 3763 0
3756 3757 -3758 -3760 3763 0
-3754 3756 3757 3758 3760 3763 0
3755 3758 -3759 -3760 -3763 0
3754 3757 -3758 -3760 -3763 0
-3754 -3756 3757 -3759 -3760 3761 0
3755 -3758 -3759 3760 -3763 0
-3754 3755 -3756 -3757 -3763 0
-3754 3756 -3757 -3758 -3759 3761 0
-3755 -3756 3758 -3760 -3763 0
3755 3757 3759 3760 3761 3764 0
3754 -3756 -3757 -3759 3763 0
3754 -3755 3756 3759 3760 -3761 0
-3756 -3757 -3758 -3760 3763 0
-3754 -3755 -3756 -3757 3763 0
-3757 -3764 0
-3754 -3755 -3757 -3758 3759 3760 0
3755 3759 3761 -3763 0
-3754 3758 -3759 3760 3763 0
-3754 -3756 3757 -3758 -3761 0
3754 3759 -3763 0
-3754 3756 -3757 -3760 -3761 0
3754 3756 -3757 -3763 0
3755 3756 3758 3759 3761 3764 0
-3758 -3764 0
3755 3756 3757 3759 -3761 0
3754 3756 3757 -3762 0
3756 3757 3758 -3759 3760 0
-3756 -3764 0
3754 3758 3760 3761 3764 0
-3760 -3764 0
-3755 -3764 0
3762 3763 3764 0
-3762 -3763 0
3765 3766 3768 3769 -3770 -3771 0
3765 -3766 3768 3769 3770 -3772 0
3765 -3766 -3768 3769 -3770 3772 0
-3765 3766 3767 -3769 3770 -3772 3774 0
3766 -3767 3768 3769 3772 3774 0
-3766 3767 -3768 3769 -3771 -3772 0
3765 3766 -3768 -3769 -3770 3771 0
-3765 -3767 -3768 3769 -3770 -3774 0
-3765 3767 -3768 3769 3770 3772 3774 0
-3767 -3768 3769 3771 3774 0
3765 -3767 -3769 -3772 -3774 0
3767 3768 3769 3770 -3771 -3774 0
3769 3770 3771 3772 3775 0
3767 -3768 3769 -3772 -3774 0
3767 3768 -3769 3770 3771 -3774 0
-3765 -3767 3768 3770 3771 3772 3774 0
-3765 -3767 3768 3769 3770 -3771 3774 0
-3769 -3770 -3771 3772 3774 0
-3769 3770 -3771 3772 -3774 0
3765 -3766 -3767 -3770 3771 3772 0
-3766 -3767 3768 -3769 3771 -3772 0
-3765 -3766 3767 -3770 -3771 -3774 0
-3767 3768 3771 -3772 -3774 0
-3765 -3769 -3770 3771 -3774 0
3766 3767 -3769 3770 3771 3772 0
3765 3769 3770 3771 3775 0
-3766 3767 3768 -3770 3774 0
3767 3768 -3769 -3771 3774 0
-3765 3767 3768 3769 3771 3774 0
3766 3769 -3770 -3771 -3774 0
3765 3768 -3769 -3771 -3774 0
-3765 -3767 3768 -3770 -3771 3772 0
3766 -3769 -3770 3771 -3774 0
-3765 3766 -3767 -3768 -3774 0
-3765 3767 -3768 -3769 -3770 3772 0
-3766 -3767 3769 -3771 -3774 0
3766 3768 3770 3771 3772 3775 0
3765 -3767 -3768 -3770 3774 0
3765 -3766 3767 3770 3771 -3772 0
-3767 -3768 -3769 -3771 3774 0
-3765 -3766 -3767 -3768 3774 0
-3768 -3775 0
-3765 -3766 -3768 -3769 3770 3771 0
3766 3770 3772 -3774 0
-3765 3769 -3770 3771 3774 0
-3765 -3767 3768 -3769 -3772 0
3765 3770 -3774 0
-3765 3767 -3768 -3771 -3772 0
3765 3767 -3768 -3774 0
3766 3767 3769 3770 3772 3775 0
-3769 -3775 0
3766 3767 3768 3770 -3772 0
3765 3767 3768 -3773 0
3767 3768 3769 -3770 3771 0
-3767 -3775 0
3765 3769 3771 3772 3775 0
-3771 -3775 0
-3766 -3775 0
3773 3774 3775 0
-3773 -3774 0
3776 3777 3779 3780 -3781 -3782 0
3776 -3777 3779 3780 3781 -3783 0
3776 -3777 -3779 3780 -3781 3783 0
-3776 3777 3778 -3780 3781 -3783 3785 0
3777 -3778 3779 3780 3783 3785 0
-3777 3778 -3779 3780 -3782 -3783 0
3776 3777 -3779 -3780 -3781 3782 0
-3776 -3778 -3779 3780 -3781 -3785 0
-3776 3778 -3779 3780 3781 3783 3785 0
-3778 -3779 3780 3782 3785 0
3776 -3778 -3780 -3783 -3785 0
3778 3779 3780 3781 -3782 -3785 0
3780 3781 3782 3783 3786 0
3778 -3779 3780 -3783 -3785 0
3778 3779 -3780 3781 3782 -3785 0
-3776 -3778 3779 3781 3782 3783 3785 0
-3776 -3778 3779 3780 3781 -3782 3785 0
-3780 -3781 -3782 3783 3785 0
-3780 3781 -3782 3783 -3785 0
3776 -3777 -3778 -3781 3782 3783 0
-3777 -3778 3779 -3780 3782 -3783 0
-3776 -3777 3778 -3781 -3782 -3785 0
-3778 3779 3782 -3783 -3785 0
-3776 -3780 -3781 3782 -3785 0
3777 3778 -3780 3781 3782 3783 0
3776 3780 3781 3782 3786 0
-3777 3778 3779 -3781 3785 0
3778 3779 -3780 -3782 3785 0
-3776 3778 3779 3780 3782 3785 0
3777 3780 -3781 -3782 -3785 0
3776 3779 -3780 -3782 -3785 0
-3776 -3778 3779 -3781 -3782 3783 0
3777 -3780 -3781 3782 -3785 0
-3776 3777 -3778 -3779 -3785 0
-3776 3778 -3779 -3780 -3781 3783 0
-3777 -3778 3780 -3782 -3785 0
3777 3779 3781 3782 3783 3786 0
3776 -3778 -3779 -3781 3785 0
3776 -3777 3778 3781 3782 -3783 0
-3778 -3779 -3780 -3782 3785 0
-3776 -3777 -3778 -3779 3785 0
-3779 -3786 0
-3776 -3777 -3779 -3780 3781 3782 0
3777 3781 3783 -3785 0
-3776 3780 -3781 3782 3785 0
-3776 -3778 3779 -3780 -3783 0
3776 3781 -3785 0
-3776 3778 -3779 -3782 -3783 0
3776 3778 -3779 -3785 0
3777 3778 3780 3781 3783 3786 0
-3780 -3786 0
3777 3778 3779 3781 -3783 0
3776 3778 3779 -3784 0
3778 3779 3780 -3781 3782 0
-3778 -3786 0
3776 3780 3782 3783 3786 0
-3782 -3786 0
-3777 -3786 0
3784 3785 3786 0
-3784 -3785 0
3787 3788 3790 3791 -3792 -3793 0
3787 -3788 3790 3791 3792 -3794 0
3787 -3788 -3790 3791 -3792 3794 0
-3787 3788 3789 -3791 3792 -3794 3796 0
3788 -3789 3790 3791 3794 3796 0
-3788 3789 -3790 3791 -3793 -3794 0
3787 3788 -3790 -3791 -3792 3793 0
-3787 -3789 -3790 3791 -3792 -3796 0
-3787 3789 -3790 3791 3792 3794 3796 0
-3789 -3790 3791 3793 3796 0
3787 -3789 -3791 -3794 -3796 0
3789 3790 3791 3792 -3793 -3796 0
3791 3792 3793 3794 3797 0
3789 -3790 3791 -3794 -3796 0
3789 3790 -3791 3792 3793 -3796 0
-3787 -3789 3790 3792 3793 3794 3796 0
-3787 -3789 3790 3791 3792 -3793 3796 0
-3791 -3792 -3793 3794 3796 0
-3791 3792 -3793 3794 -3796 0
3787 -3788 -3789 -3792 3793 3794 0
-3788 -3789 3790 -3791 3793 -3794 0
-3787 -3788 3789 -3792 -3793 -3796 0
-3789 3790 3793 -3794 -3796 0
-3787 -3791 -3792 3793 -3796 0
3788 3789 -3791 3792 3793 3794 0
3787 3791 3792 3793 3797 0
-3788 3789 3790 -3792 3796 0
3789 3790 -3791 -3793 3796 0
-3787 3789 3790 3791 3793 3796 0
3788 3791 -3792 -3793 -3796 0
3787 3790 -3791 -3793 -3796 0
-3787 -3789 3790 -3792 -3793 3794 0
3788 -3791 -3792 3793 -3796 0
-3787 3788 -3789 -3790 -3796 0
-3787 3789 -3790 -3791 -3792 3794 0
-3788 -3789 3791 -3793 -3796 0
3788 3790 3792 3793 3794 3797 0
3787 -3789 -3790 -3792 3796 0
3787 -3788 3789 3792 3793 -3794 0
-3789 -3790 -3791 -3793 3796 0
-3787 -3788 -3789 -3790 3796 0
-3790 -3797 0
-3787 -3788 -3790 -3791 3792 3793 0
3788 3792 3794 -3796 0
-3787 3791 -3792 3793 3796 0
-3787 -3789 3790 -3791 -3794 0
3787 3792 -3796 0
-3787 3789 -3790 -3793 -3794 0
3787 3789 -3790 -3796 0
3788 3789 3791 3792 3794 3797 0
-3791 -3797 0
3788 3789 3790 3792 -3794 0
3787 3789 3790 -3795 0
3789 3790 3791 -3792 3793 0
-3789 -3797 0
3787 3791 3793 3794 3797 0
-3793 -3797 0
-3788 -3797 0
3795 3796 3797 0
-3795 -3796 0
3798 3799 3801 3802 -3803 -3804 0
3798 -3799 3801 3802 3803 -3805 0
3798 -3799 -3801 3802 -3803 3805 0
-3798 3799 3800 -3802 3803 -3805 3807 0
3799 -3800 3801 3802 3805 3807 0
-3799 3800 -3801 3802 -3804 -3805 0
3798 3799 -3801 -3802 -3803 3804 0
-3798 -3800 -3801 3802 -3803 -3807 0
-3798 3800 -3801 3802 3803 3805 3807 0
-3800 -3801 3802 3804 3807 0
3798 -3800 -3802 -3805 -3807 0
3800 3801 3802 3803 -3804 -3807 0
3802 3803 3804 3805 3808 0
3800 -3801 3802 -3805 -3807 0
3800 3801 -3802 3803 3804 -3807 0
-3798 -3800 3801 3803 3804 3805 3807 0
-3798 -3800 3801 3802 3803 -3804 3807 0
-3802 -3803 -3804 3805 3807 0
-3802 3803 -3804 3805 -3807 0
3798 -3799 -3800 -3803 3804 3805 0
-3799 -3800 3801 -3802 3804 -3805 0
-3798 -3799 3800 -3803 -3804 -3807 0
-3800 3801 3804 -3805 -3807 0
-3798 -3802 -3803 3804 -3807 0
3799 3800 -3802 3803 3804 3805 0
3798 3802 3803 3804 3808 0
-3799 3800 3801 -3803 3807 0
3800 3801 -3802 -3804 3807 0
-3798 3800 3801 3802 3804 3807 0
3799 3802 -3803 -3804 -3807 0
3798 3801 -3802 -3804 -3807 0
-3798 -3800 3801 -3803 -3804 3805 0
3799 -3802 -3803 3804 -3807 0
-3798 3799 -3800 -3801 -3807 0
-3798 3800 -3801 -3802 -3803 3805 0
-3799 -3800 3802 -3804 -3807 0
3799 3801 3803 3804 3805 3808 0
3798 -3800 -3801 -3803 3807 0
3798 -3799 3800 3803 3804 -3805 0
-3800 -3801 -3802 -3804 3807 0
-3798 -3799 -3800 -3801 3807 0
-3801 -3808 0
-3798 -3799 -3801 -3802 3803 3804 0
3799 3803 3805 -3807 0
-3798 3802 -3803 3804 3807 0
-3798 -3800 3801 -3802 -3805 0
3798 3803 -3807 0
-3798 3800 -3801 -3804 -3805 0
3798 3800 -3801 -3807 0
3799 3800 3802 3803 3805 3808 0
-3802 -3808 0
3799 3800 3801 3803 -3805 0
3798 3800 3801 -3806 0
3800 3801 3802 -3803 3804 0
-3800 -3808 0
3798 3802 3804 3805 3808 0
-3804 -3808 0
-3799 -3808 0
3806 3807 3808 0
-3806 -3807 0
3809 3810 3812 3813 -3814 -3815 0
3809 -3810 3812 3813 3814 -3816 0
3809 -3810 -3812 3813 -3814 3816 0
-3809 3810 3811 -3813 3814 -3816 3818 0
3810 -3811 3812 3813 3816 3818 0
-3810 3811 -3812 3813 -3815 -3816 0
3809 3810 -3812 -3813 -3814 3815 0
-3809 -3811 -3812 3813 -3814 -3818 0
-3809 3811 -3812 3813 3814 3816 3818 0
-3811 -3812 3813 3815 3818 0
3809 -3811 -3813 -3816 -3818 0
3811 3812 3813 3814 -3815 -3818 0
3813 3814 3815 3816 3819 0
3811 -3812 3813 -3816 -3818 0
3811 3812 -3813 3814 3815 -3818 0
-3809 -3811 3812 3814 3815 3816 3818 0
-3809 -3811 3812 3813 3814 -3815 3818 0
-3813 -3814 -3815 3816 3818 0
-3813 3814 -3815 3816 -3818 0
3809 -3810 -3811 -3814 3815 3816 0
-3810 -3811 3812 -3813 3815 -3816 0
-3809 -3810 3811 -3814 -3815 -3818 0
-3811 3812 3815 -3816 -3818 0
-3809 -3813 -3814 3815 -3818 0
3810 3811 -3813 3814 3815 3816 0
3809 3813 3814 3815 3819 0
-3810 3811 3812 -3814 3818 0
3811 3812 -3813 -3815 3818 0
-3809 3811 3812 3813 3815 3818 0
3810 3813 -3814 -3815 -3818 0
3809 3812 -3813 -3815 -3818 0
-3809 -3811 3812 -3814 -3815 3816 0
3810 -3813 -3814 3815 -3818 0
-3809 3810 -3811 -3812 -3818 0
-3809 3811 -3812 -3813 -3814 3816 0
-3810 -3811 3813 -3815 -3818 0
3810 3812 3814 3815 3816 3819 0
3809 -3811 -3812 -3814 3818 0
3809 -3810 3811 3814 3815 -3816 0
-3811 -3812 -3813 -3815 3818 0
-3809 -3810 -3811 -3812 3818 0
-3812 -3819 0
-3809 -3810 -3812 -3813 3814 3815 0
3810 3814 3816 -3818 0
-3809 3813 -3814 3815 3818 0
-3809 -3811 3812 -3813 -3816 0
3809 3814 -3818 0
-3809 3811 -3812 -3815 -3816 0
3809 3811 -3812 -3818 0
3810 3811 3813 3814 3816 3819 0
-3813 -3819 0
3810 3811 3812 3814 -3816 0
3809 3811 3812 -3817 0
3811 3812 3813 -3814 3815 0
-3811 -3819 0
3809 3813 3815 3816 3819 0
-3815 -3819 0
-3810 -3819 0
3817 3818 3819 0
-3817 -3818 0
3820 3821 3823 3824 -3825 -3826 0
3820 -3821 3823 3824 3825 -3827 0
3820 -3821 -3823 3824 -3825 3827 0
-3820 3821 3822 -3824 3825 -3827 3829 0
3821 -3822 3823 3824 3827 3829 0
-3821 3822 -3823 3824 -3826 -3827 0
3820 3821 -3823 -3824 -3825 3826 0
-3820 -3822 -3823 3824 -3825 -3829 0
-3820 3822 -3823 3824 3825 3827 3829 0
-3822 -3823 3824 3826 3829 0
3820 -3822 -3824 -3827 -3829 0
3822 3823 3824 3825 -3826 -3829 0
3824 3825 3826 3827 3830 0
3822 -3823 3824 -3827 -3829 0
3822 3823 -3824 3825 3826 -3829 0
-3820 -3822 3823 3825 3826 3827 3829 0
-3820 -3822 3823 3824 3825 -3826 3829 0
-3824 -3825 -3826 3827 3829 0
-3824 3825 -3826 3827 -3829 0
3820 -3821 -3822 -3825 3826 3827 0
-3821 -3822 3823 -3824 3826 -3827 0
-3820 -3821 3822 -3825 -3826 -3829 0
-3822 3823 3826 -3827 -3829 0
-3820 -3824 -3825 3826 -3829 0
3821 3822 -3824 3825 3826 3827 0
3820 3824 3825 3826 3830 0
-3821 3822 3823 -3825 3829 0
3822 3823 -3824 -3826 3829 0
-3820 3822 3823 3824 3826 3829 0
3821 3824 -3825 -3826 -3829 0
3820 3823 -3824 -3826 -3829 0
-3820 -3822 3823 -3825 -3826 3827 0
3821 -3824 -3825 3826 -3829 0
-3820 3821 -3822 -3823 -3829 0
-3820 3822 -3823 -3824 -3825 3827 0
-3821 -3822 3824 -3826 -3829 0
3821 3823 3825 3826 3827 3830 0
3820 -3822 -3823 -3825 3829 0
3820 -3821 3822 3825 3826 -3827 0
-3822 -3823 -3824 -3826 3829 0
-3820 -3821 -3822 -3823 3829 0
-3823 -3830 0
-3820 -3821 -3823 -3824 3825 3826 0
3821 3825 3827 -3829 0
-3820 3824 -3825 3826 3829 0
-3820 -3822 3823 -3824 -3827 0
3820 3825 -3829 0
-3820 3822 -3823 -3826 -3827 0
3820 3822 -3823 -3829 0
3821 3822 3824 3825 3827 3830 0
-3824 -3830 0
3821 3822 3823 3825 -3827 0
3820 3822 3823 -3828 0
3822 3823 3824 -3825 3826 0
-3822 -3830 0
3820 3824 3826 3827 3830 0
-3826 -3830 0
-3821 -3830 0
3828 3829 3830 0
-3828 -3829 0
3831 3832 3834 3835 -3836 -3837 0
3831 -3832 3834 3835 3836 -3838 0
3831 -3832 -3834 3835 -3836 3838 0
-3831 3832 3833 -3835 3836 -3838 3840 0
3832 -3833 3834 3835 3838 3840 0
-3832 3833 -3834 3835 -3837 -3838 0
3831 3832 -3834 -3835 -3836 3837 0
-3831 -3833 -3834 3835 -3836 -3840 0
-3831 3833 -3834 3835 3836 3838 3840 0
-3833 -3834 3835 3837 3840 0
3831 -3833 -3835 -3838 -3840 0
3833 3834 3835 3836 -3837 -3840 0
3835 3836 3837 3838 3841 0
3833 -3834 3835 -3838 -3840 0
3833 3834 -3835 3836 3837 -3840 0
-3831 -3833 3834 3836 3837 3838 3840 0
-3831 -3833 3834 3835 3836 -3837 3840 0
-3835 -3836 -3837 3838 3840 0
-3835 3836 -3837 3838 -3840 0
3831 -3832 -3833 -3836 3837 3838 0
-3832 -3833 3834 -3835 3837 -3838 0
-3831 -3832 3833 -3836 -3837 -3840 0
-3833 3834 3837 -3838 -3840 0
-3831 -3835 -3836 3837 -3840 0
3832 3833 -3835 3836 3837 3838 0
3831 3835 3836 3837 3841 0
-3832 3833 3834 -3836 3840 0
3833 3834 -3835 -3837 3840 0
-3831 3833 3834 3835 3837 3840 0
3832 3835 -3836 -3837 -3840 0
3831 3834 -3835 -3837 -3840 0
-3831 -3833 3834 -3836 -3837 3838 0
3832 -3835 -3836 3837 -3840 0
-3831 3832 -3833 -3834 -3840 0
-3831 3833 -3834 -3835 -3836 3838 0
-3832 -3833 3835 -3837 -3840 0
3832 3834 3836 3837 3838 3841 0
3831 -3833 -3834 -3836 3840 0
3831 -3832 3833 3836 3837 -3838 0
-3833 -3834 -3835 -3837 3840 0
-3831 -3832 -3833 -3834 3840 0
-3834 -3841 0
-3831 -3832 -3834 -3835 3836 3837 0
3832 3836 3838 -3840 0
-3831 3835 -3836 3837 3840 0
-3831 -3833 3834 -3835 -3838 0
3831 3836 -3840 0
-3831 3833 -3834 -3837 -3838 0
3831 3833 -3834 -3840 0
3832 3833 3835 3836 3838 3841 0
-3835 -3841 0
3832 3833 3834 3836 -3838 0
3831 3833 3834 -3839 0
3833 3834 3835 -3836 3837 0
-3833 -3841 0
3831 3835 3837 3838 3841 0
-3837 -3841 0
-3832 -3841 0
3839 3840 3841 0
-3839 -3840 0
3842 3843 3845 3846 -3847 -3848 0
3842 -3843 3845 3846 3847 -3849 0
3842 -3843 -3845 3846 -3847 3849 0
-3842 3843 3844 -3846 3847 -3849 3851 0
3843 -3844 3845 3846 3849 3851 0
-3843 3844 -3845 3846 -3848 -3849 0
3842 3843 -3845 -3846 -3847 3848 0
-3842 -3844 -3845 3846 -3847 -3851 0
-3842 3844 -3845 3846 3847 3849 3851 0
-3844 -3845 3846 3848 3851 0
3842 -3844 -3846 -3849 -3851 0
3844 3845 3846 3847 -3848 -3851 0
3846 3847 3848 3849 3852 0
3844 -3845 3846 -3849 -3851 0
3844 3845 -3846 3847 3848 -3851 0
-3842 -3844 3845 3847 3848 3849 3851 0
-3842 -3844 3845 3846 3847 -3848 3851 0
-3846 -3847 -3848 3849 3851 0
-3846 3847 -3848 3849 -3851 0
3842 -3843 -3844 -3847 3848 3849 0
-3843 -3844 3845 -3846 3848 -3849 0
-3842 -3843 3844 -3847 -3848 -3851 0
-3844 3845 3848 -3849 -3851 0
-3842 -3846 -3847 3848 -3851 0
3843 3844 -3846 3847 3848 3849 0
3842 3846 3847 3848 3852 0
-3843 3844 3845 -3847 3851 0
3844 3845 -3846 -3848 3851 0
-3842 3844 3845 3846 3848 3851 0
3843 3846 -3847 -3848 -3851 0
3842 3845 -3846 -3848 -3851 0
-3842 -3844 3845 -3847 -3848 3849 0
3843 -3846 -3847 3848 -3851 0
-3842 3843 -3844 -3845 -3851 0
-3842 3844 -3845 -3846 -3847 3849 0
-3843 -3844 3846 -3848 -3851 0
3843 3845 3847 3848 3849 3852 0
3842 -3844 -3845 -3847 3851 0
3842 -3843 3844 3847 3848 -3849 0
-3844 -3845 -3846 -3848 3851 0
-3842 -3843 -3844 -3845 3851 0
-3845 -3852 0
-3842 -3843 -3845 -3846 3847 3848 0
3843 3847 3849 -3851 0
-3842 3846 -3847 3848 3851 0
-3842 -3844 3845 -3846 -3849 0
3842 3847 -3851 0
-3842 3844 -3845 -3848 -3849 0
3842 3844 -3845 -3851 0
3843 3844 3846 3847 3849 3852 0
-3846 -3852 0
3843 3844 3845 3847 -3849 0
3842 3844 3845 -3850 0
3844 3845 3846 -3847 3848 0
-3844 -3852 0
3842 3846 3848 3849 3852 0
-3848 -3852 0
-3843 -3852 0
3850 3851 3852 0
-3850 -3851 0
3853 3854 3856 3857 -3858 -3859 0
3853 -3854 3856 3857 3858 -3860 0
3853 -3854 -3856 3857 -3858 3860 0
-3853 3854 3855 -3857 3858 -3860 3862 0
3854 -3855 3856 3857 3860 3862 0
-3854 3855 -3856 3857 -3859 -3860 0
3853 3854 -3856 -3857 -3858 3859 0
-3853 -3855 -3856 3857 -3858 -3862 0
-3853 3855 -3856 3857 3858 3860 3862 0
-3855 -3856 3857 3859 3862 0
3853 -3855 -3857 -3860 -3862 0
3855 3856 3857 3858 -3859 -3862 0
3857 3858 3859 3860 3863 0
3855 -3856 3857 -3860 -3862 0
3855 3856 -3857 3858 3859 -3862 0
-3853 -3855 3856 3858 3859 3860 3862 0
-3853 -3855 3856 3857 3858 -3859 3862 0
-3857 -3858 -3859 3860 3862 0
-3857 3858 -3859 3860 -3862 0
3853 -3854 -3855 -3858 3859 3860 0
-3854 -3855 3856 -3857 3859 -3860 0
-3853 -3854 3855 -3858 -3859 -3862 0
-3855 3856 3859 -3860 -3862 0
-3853 -3857 -3858 3859 -3862 0
3854 3855 -3857 3858 3859 3860 0
3853 3857 3858 3859 3863 0
-3854 3855 3856 -3858 3862 0
3855 3856 -3857 -3859 3862 0
-3853 3855 3856 3857 3859 3862 0
3854 3857 -3858 -3859 -3862 0
3853 3856 -3857 -3859 -3862 0
-3853 -3855 3856 -3858 -3859 3860 0
3854 -3857 -3858 3859 -3862 0
-3853 3854 -3855 -3856 -3862 0
-3853 3855 -3856 -3857 -3858 3860 0
-3854 -3855 3857 -3859 -3862 0
3854 3856 3858 3859 3860 3863 0
3853 -3855 -3856 -3858 3862 0
3853 -3854 3855 3858 3859 -3860 0
-3855 -3856 -3857 -3859 3862 0
-3853 -3854 -3855 -3856 3862 0
-3856 -3863 0
-3853 -3854 -3856 -3857 3858 3859 0
3854 3858 3860 -3862 0
-3853 3857 -3858 3859 3862 0
-3853 -3855 3856 -3857 -3860 0
3853 3858 -3862 0
-3853 3855 -3856 -3859 -3860 0
3853 3855 -3856 -3862 0
3854 3855 3857 3858 3860 3863 0
-3857 -3863 0
3854 3855 3856 3858 -3860 0
3853 3855 3856 -3861 0
3855 3856 3857 -3858 3859 0
-3855 -3863 0
3853 3857 3859 3860 3863 0
-3859 -3863 0
-3854 -3863 0
3861 3862 3863 0
-3861 -3862 0
3864 3865 3867 3868 -3869 -3870 0
3864 -3865 3867 3868 3869 -3871 0
3864 -3865 -3867 3868 -3869 3871 0
-3864 3865 3866 -3868 3869 -3871 3873 0
3865 -3866 3867 3868 3871 3873 0
-3865 3866 -3867 3868 -3870 -3871 0
3864 3865 -3867 -3868 -3869 3870 0
-3864 -3866 -3867 3868 -3869 -3873 0
-3864 3866 -3867 3868 3869 3871 3873 0
-3866 -3867 3868 3870 3873 0
3864 -3866 -3868 -3871 -3873 0
3866 3867 3868 3869 -3870 -3873 0
3868 3869 3870 3871 3874 0
3866 -3867 3868 -3871 -3873 0
3866 3867 -3868 3869 3870 -3873 0
-3864 -3866 3867 3869 3870 3871 3873 0
-3864 -3866 3867 3868 3869 -3870 3873 0
-3868 -3869 -3870 3871 3873 0
-3868 3869 -3870 3871 -3873 0
3864 -3865 -3866 -3869 3870 3871 0
-3865 -3866 3867 -3868 3870 -3871 0
-3864 -3865 3866 -3869 -3870 -3873 0
-3866 3867 3870 -3871 -3873 0
-3864 -3868 -3869 3870 -3873 0
3865 3866 -3868 3869 3870 3871 0
3864 3868 3869 3870 3874 0
-3865 3866 3867 -3869 3873 0
3866 3867 -3868 -3870 3873 0
-3864 3866 3867 3868 3870 3873 0
3865 3868 -3869 -3870 -3873 0
3864 3867 -3868 -3870 -3873 0
-3864 -3866 3867 -3869 -3870 3871 0
3865 -3868 -3869 3870 -3873 0
-3864 3865 -3866 -3867 -3873 0
-3864 3866 -3867 -3868 -3869 3871 0
-3865 -3866 3868 -3870 -3873 0
3865 3867 3869 3870 3871 3874 0
3864 -3866 -3867 -3869 3873 0
3864 -3865 3866 3869 3870 -3871 0
-3866 -3867 -3868 -3870 3873 0
-3864 -3865 -3866 -3867 3873 0
-3867 -3874 0
-3864 -3865 -3867 -3868 3869 3870 0
3865 3869 3871 -3873 0
-3864 3868 -3869 3870 3873 0
-3864 -3866 3867 -3868 -3871 0
3864 3869 -3873 0
-3864 3866 -3867 -3870 -3871 0
3864 3866 -3867 -3873 0
3865 3866 3868 3869 3871 3874 0
-3868 -3874 0
3865 3866 3867 3869 -3871 0
3864 3866 3867 -3872 0
3866 3867 3868 -3869 3870 0
-3866 -3874 0
3864 3868 3870 3871 3874 0
-3870 -3874 0
-3865 -3874 0
3872 3873 3874 0
-3872 -3873 0
-4003 3875 0
4003 -3875 0
-4004 3876 0
4004 -3876 0
-4005 3877 0
4005 -3877 0
-4006 3878 0
4006 -3878 0
-4007 3879 0
4007 -3879 0
-4008 3880 0
4008 -3880 0
-4009 3881 0
4009 -3881 0
-4010 3882 0
4010 -3882 0
-4011 3883 0
4011 -3883 0
-4012 3884 0
4012 -3884 0
-4013 3885 0
4013 -3885 0
-4014 3886 0
4014 -3886 0
-4015 3887 0
4015 -3887 0
-4016 3888 0
4016 -3888 0
-4017 3889 0
4017 -3889 0
-4018 3890 0
4018 -3890 0
-4019 3891 0
4019 -3891 0
-4020 3892 0
4020 -3892 0
-4021 3893 0
4021 -3893 0
-4022 3894 0
4022 -3894 0
-4023 3895 0
4023 -3895 0
-4024 3896 0
4024 -3896 0
-4025 3897 0
4025 -3897 0
-4026 3898 0
4026 -3898 0
-4027 3899 0
4027 -3899 0
-4028 3900 0
4028 -3900 0
-4029 3901 0
4029 -3901 0
-4030 3902 0
4030 -3902 0
-4031 3903 0
4031 -3903 0
-4032 3904 0
4032 -3904 0
-4033 3905 0
4033 -3905 0
-4034 3906 0
4034 -3906 0
-4035 3907 0
4035 -3907 0
-4036 3908 0
4036 -3908 0
-4037 3909 0
4037 -3909 0
-4038 3910 0
4038 -3910 0
-4039 3911 0
4039 -3911 0
-4040 3912 0
4040 -3912 0
-4041 3913 0
4041 -3913 0
-4042 3914 0
4042 -3914 0
-4043 3915 0
4043 -3915 0
-4044 3916 0
4044 -3916 0
-4045 3917 0
4045 -3917 0
-4046 3918 0
4046 -3918 0
-4047 3919 0
4047 -3919 0
-4048 3920 0
4048 -3920 0
-4049 3921 0
4049 -3921 0
-4050 3922 0
4050 -3922 0
-4051 3923 0
4051 -3923 0
-4052 3924 0
4052 -3924 0
-4053 3925 0
4053 -3925 0
-4054 3926 0
4054 -3926 0
-4055 3927 0
4055 -3927 0
-4056 3928 0
4056 -3928 0
-4057 3929 0
4057 -3929 0
-4058 3930 0
4058 -3930 0
-4059 3931 0
4059 -3931 0
-4060 3932 0
4060 -3932 0
-4061 3933 0
4061 -3933 0
-4062 3934 0
4062 -3934 0
-4063 3935 0
4063 -3935 0
-4064 3936 0
4064 -3936 0
-4065 3937 0
4065 -3937 0
-4066 3938 0
4066 -3938 0
-4067 3939 0
4067 -3939 0
-4068 3940 0
4068 -3940 0
-4069 3941 0
4069 -3941 0
-4070 3942 0
4070 -3942 0
-4071 3943 0
4071 -3943 0
-4072 3944 0
4072 -3944 0
-4073 3945 0
4073 -3945 0
-4074 3946 0
4074 -3946 0
-4075 3947 0
4075 -3947 0
-4076 3948 0
4076 -3948 0
-4077 3949 0
4077 -3949 0
-4078 3950 0
4078 -3950 0
-4079 3951 0
4079 -3951 0
-4080 3952 0
4080 -3952 0
-4081 3953 0
4081 -3953 0
-4082 3954 0
4082 -3954 0
-4083 3955 0
4083 -3955 0
-4084 3956 0
4084 -3956 0
-4085 3957 0
4085 -3957 0
-4086 3958 0
4086 -3958 0
-4087 3959 0
4087 -3959 0
-4088 3960 0
4088 -3960 0
-4089 3961 0
4089 -3961 0
-4090 3962 0
4090 -3962 0
-4091 3963 0
4091 -3963 0
-4092 3964 0
4092 -3964 0
-4093 3965 0
4093 -3965 0
-4094 3966 0
4094 -3966 0
-4095 3967 0
4095 -3967 0
-4096 3968 0
4096 -3968 0
-4097 3969 0
4097 -3969 0
-4098 3970 0
4098 -3970 0
-4099 3971 0
4099 -3971 0
-4100 3972 0
4100 -3972 0
-4101 3973 0
4101 -3973 0
-4102 3974 0
4102 -3974 0
-4103 3975 0
4103 -3975 0
-4104 3976 0
4104 -3976 0
-4105 3977 0
4105 -3977 0
-4106 3978 0
4106 -3978 0
-4107 3979 0
4107 -3979 0
-4108 3980 0
4108 -3980 0
-4109 3981 0
4109 -3981 0
-4110 3982 0
4110 -3982 0
-4111 3983 0
4111 -3983 0
-4112 3984 0
4112 -3984 0
-4113 3985 0
4113 -3985 0
-4114 3986 0
4114 -3986 0
-4115 3987 0
4115 -3987 0
-4116 3988 0
4116 -3988 0
-4117 3989 0
4117 -3989 0
-4118 3990 0
4118 -3990 0
-4119 3991 0
4119 -3991 0
-4120 3992 0
4120 -3992 0
-4121 3993 0
4121 -3993 0
-4122 3994 0
4122 -3994 0
-4123 3995 0
4123 -3995 0
-4124 3996 0
4124 -3996 0
-4125 3997 0
4125 -3997 0
-4126 3998 0
4126 -3998 0
-4127 3999 0
4127 -3999 0
-4128 4000 0
4128 -4000 0
-4129 4001 0
4129 -4001 0
-4130 4002 0
4130 -4002 0
3011 -3267 0
-3011 3267 0
3012 -3268 0
-3012 3268 0
3013 -3269 0
-3013 3269 0
3014 -3270 0
-3014 3270 0
3015 -3271 0
-3015 3271 0
3016 -3272 0
-3016 3272 0
3017 -3273 0
-3017 3273 0
3018 -3274 0
-3018 3274 0
3019 -3275 0
-3019 3275 0
3020 -3276 0
-3020 3276 0
3021 -3277 0
-3021 3277 0
3022 -3278 0
-3022 3278 0
3023 -3279 0
-3023 3279 0
3024 -3280 0
-3024 3280 0
3025 -3281 0
-3025 3281 0
3026 -3282 0
-3026 3282 0
3027 -3283 0
-3027 3283 0
3028 -3284 0
-3028 3284 0
3029 -3285 0
-3029 3285 0
3030 -3286 0
-3030 3286 0
3031 -3287 0
-3031 3287 0
3032 -3288 0
-3032 3288 0
3033 -3289 0
-3033 3289 0
3034 -3290 0
-3034 3290 0
3035 -3291 0
-3035 3291 0
3036 -3292 0
-3036 3292 0
3037 -3293 0
-3037 3293 0
3038 -3294 0
-3038 3294 0
3039 -3295 0
-3039 3295 0
3040 -3296 0
-3040 3296 0
3041 -3297 0
-3041 3297 0
3042 -3298 0
-3042 3298 0
3043 -3299 0
-3043 3299 0
3044 -3300 0
-3044 3300 0
3045 -3301 0
-3045 3301 0
3046 -3302 0
-3046 3302 0
3047 -3303 0
-3047 3303 0
3048 -3304 0
-3048 3304 0
3049 -3305 0
-3049 3305 0
3050 -3306 0
-3050 3306 0
3051 -3307 0
-3051 3307 0
3052 -3308 0
-3052 3308 0
3053 -3309 0
-3053 3309 0
3054 -3310 0
-3054 3310 0
3055 -3311 0
-3055 3311 0
3056 -3312 0
-3056 3312 0
3057 -3313 0
-3057 3313 0
3058 -3314 0
-3058 3314 0
3059 -3315 0
-3059 3315 0
3060 -3316 0
-3060 3316 0
3061 -3317 0
-3061 3317 0
3062 -3318 0
-3062 3318 0
3063 -3319 0
-3063 3319 0
3064 -3320 0
-3064 3320 0
3065 -3321 0
-3065 3321 0
3066 -3322 0
-3066 3322 0
3067 -3323 0
-3067 3323 0
3068 -3324 0
-3068 3324 0
3069 -3325 0
-3069 3325 0
3070 -3326 0
-3070 3326 0
3071 -3327 0
-3071 3327 0
3072 -3328 0
-3072 3328 0
3073 -3329 0
-3073 3329 0
3074 -3330 0
-3074 3330 0
3075 -3331 0
-3075 3331 0
3076 -3332 0
-3076 3332 0
3077 -3333 0
-3077 3333 0
3078 -3334 0
-3078 3334 0
3079 -3335 0
-3079 3335 0
3080 -3336 0
-3080 3336 0
3081 -3337 0
-3081 3337 0
3082 -3338 0
-3082 3338 0
3083 -3339 0
-3083 3339 0
3084 -3340 0
-3084 3340 0
3085 -3341 0
-3085 3341 0
3086 -3342 0
-3086 3342 0
3087 -3343 0
-3087 3343 0
3088 -3344 0
-3088 3344 0
3089 -3345 0
-3089 3345 0
3090 -3346 0
-3090 3346 0
3091 -3347 0
-3091 3347 0
3092 -3348 0
-3092 3348 0
3093 -3349 0
-3093 3349 0
3094 -3350 0
-3094 3350 0
3095 -3351 0
-3095 3351 0
3096 -3352 0
-3096 3352 0
3097 -3353 0
-3097 3353 0
3098 -3354 0
-3098 3354 0
3099 -3355 0
-3099 3355 0
3100 -3356 0
-3100 3356 0
3101 -3357 0
-3101 3357 0
3102 -3358 0
-3102 3358 0
3103 -3359 0
-3103 3359 0
3104 -3360 0
-3104 3360 0
3105 -3361 0
-3105 3361 0
3106 -3362 0
-3106 3362 0
3107 -3363 0
-3107 3363 0
3108 -3364 0
-3108 3364 0
3109 -3365 0
-3109 3365 0
3110 -3366 0
-3110 3366 0
3111 -3367 0
-3111 3367 0
3112 -3368 0
-3112 3368 0
3113 -3369 0
-3113 3369 0
3114 -3370 0
-3114 3370 0
3115 -3371 0
-3115 3371 0
3116 -3372 0
-3116 3372 0
3117 -3373 0
-3117 3373 0
3118 -3374 0
-3118 3374 0
3119 -3375 0
-3119 3375 0
3120 -3376 0
-3120 3376 0
3121 -3377 0
-3121 3377 0
3122 -3378 0
-3122 3378 0
3123 -3379 0
-3123 3379 0
3124 -3380 0
-3124 3380 0
3125 -3381 0
-3125 3381 0
3126 -3382 0
-3126 3382 0
3127 -3383 0
-3127 3383 0
3128 -3384 0
-3128 3384 0
3129 -3385 0
-3129 3385 0
3130 -3386 0
-3130 3386 0
3131 -3387 0
-3131 3387 0
3132 -3388 0
-3132 3388 0
3133 -3389 0
-3133 3389 0
3134 -3390 0
-3134 3390 0
3135 -3391 0
-3135 3391 0
3136 -3392 0
-3136 3392 0
3137 -3393 0
-3137 3393 0
3138 -3394 0
-3138 3394 0
4003 -3139 0
-4003 3139 0
4004 -3140 0
-4004 3140 0
4005 -3141 0
-4005 3141 0
4006 -3142 0
-4006 3142 0
4007 -3143 0
-4007 3143 0
4008 -3144 0
-4008 3144 0
4009 -3145 0
-4009 3145 0
4010 -3146 0
-4010 3146 0
4011 -3147 0
-4011 3147 0
4012 -3148 0
-4012 3148 0
4013 -3149 0
-4013 3149 0
4014 -3150 0
-4014 3150 0
4015 -3151 0
-4015 3151 0
4016 -3152 0
-4016 3152 0
4017 -3153 0
-4017 3153 0
4018 -3154 0
-4018 3154 0
4019 -3155 0
-4019 3155 0
4020 -3156 0
-4020 3156 0
4021 -3157 0
-4021 3157 0
4022 -3158 0
-4022 3158 0
4023 -3159 0
-4023 3159 0
4024 -3160 0
-4024 3160 0
4025 -3161 0
-4025 3161 0
4026 -3162 0
-4026 3162 0
4027 -3163 0
-4027 3163 0
4028 -3164 0
-4028 3164 0
4029 -3165 0
-4029 3165 0
4030 -3166 0
-4030 3166 0
4031 -3167 0
-4031 3167 0
4032 -3168 0
-4032 3168 0
4033 -3169 0
-4033 3169 0
4034 -3170 0
-4034 3170 0
4035 -3171 0
-4035 3171 0
4036 -3172 0
-4036 3172 0
4037 -3173 0
-4037 3173 0
4038 -3174 0
-4038 3174 0
4039 -3175 0
-4039 3175 0
4040 -3176 0
-4040 3176 0
4041 -3177 0
-4041 3177 0
4042 -3178 0
-4042 3178 0
4043 -3179 0
-4043 3179 0
4044 -3180 0
-4044 3180 0
4045 -3181 0
-4045 3181 0
4046 -3182 0
-4046 3182 0
4047 -3183 0
-4047 3183 0
4048 -3184 0
-4048 3184 0
4049 -3185 0
-4049 3185 0
4050 -3186 0
-4050 3186 0
4051 -3187 0
-4051 3187 0
4052 -3188 0
-4052 3188 0
4053 -3189 0
-4053 3189 0
4054 -3190 0
-4054 3190 0
4055 -3191 0
-4055 3191 0
4056 -3192 0
-4056 3192 0
4057 -3193 0
-4057 3193 0
4058 -3194 0
-4058 3194 0
4059 -3195 0
-4059 3195 0
4060 -3196 0
-4060 3196 0
4061 -3197 0
-4061 3197 0
4062 -3198 0
-4062 3198 0
4063 -3199 0
-4063 3199 0
4064 -3200 0
-4064 3200 0
4065 -3201 0
-4065 3201 0
4066 -3202 0
-4066 3202 0
4067 -3203 0
-4067 3203 0
4068 -3204 0
-4068 3204 0
4069 -3205 0
-4069 3205 0
4070 -3206 0
-4070 3206 0
4071 -3207 0
-4071 3207 0
4072 -3208 0
-4072 3208 0
4073 -3209 0
-4073 3209 0
4074 -3210 0
-4074 3210 0
4075 -3211 0
-4075 3211 0
4076 -3212 0
-4076 3212 0
4077 -3213 0
-4077 3213 0
4078 -3214 0
-4078 3214 0
4079 -3215 0
-4079 3215 0
4080 -3216 0
-4080 3216 0
4081 -3217 0
-4081 3217 0
4082 -3218 0
-4082 3218 0
4083 -3219 0
-4083 3219 0
4084 -3220 0
-4084 3220 0
4085 -3221 0
-4085 3221 0
4086 -3222 0
-4086 3222 0
4087 -3223 0
-4087 3223 0
4088 -3224 0
-4088 3224 0
4089 -3225 0
-4089 3225 0
4090 -3226 0
-4090 3226 0
4091 -3227 0
-4091 3227 0
4092 -3228 0
-4092 3228 0
4093 -3229 0
-4093 3229 0
4094 -3230 0
-4094 3230 0
4095 -3231 0
-4095 3231 0
4096 -3232 0
-4096 3232 0
4097 -3233 0
-4097 3233 0
4098 -3234 0
-4098 3234 0
4099 -3235 0
-4099 3235 0
4100 -3236 0
-4100 3236 0
4101 -3237 0
-4101 3237 0
4102 -3238 0
-4102 3238 0
4103 -3239 0
-4103 3239 0
4104 -3240 0
-4104 3240 0
4105 -3241 0
-4105 3241 0
4106 -3242 0
-4106 3242 0
4107 -3243 0
-4107 3243 0
4108 -3244 0
-4108 3244 0
4109 -3245 0
-4109 3245 0
4110 -3246 0
-4110 3246 0
4111 -3247 0
-4111 3247 0
4112 -3248 0
-4112 3248 0
4113 -3249 0
-4113 3249 0
4114 -3250 0
-4114 3250 0
4115 -3251 0
-4115 3251 0
4116 -3252 0
-4116 3252 0
4117 -3253 0
-4117 3253 0
4118 -3254 0
-4118 3254 0
4119 -3255 0
-4119 3255 0
4120 -3256 0
-4120 3256 0
4121 -3257 0
-4121 3257 0
4122 -3258 0
-4122 3258 0
4123 -3259 0
-4123 3259 0
4124 -3260 0
-4124 3260 0
4125 -3261 0
-4125 3261 0
4126 -3262 0
-4126 3262 0
4127 -3263 0
-4127 3263 0
4128 -3264 0
-4128 3264 0
4129 -3265 0
-4129 3265 0
4130 -3266 0
-4130 3266 0
-3519 3523 0
3519 -3523 0
-3520 3524 0
3520 -3524 0
-3521 3525 0
3521 -3525 0
-3522 3526 0
3522 -3526 0
-3515 3534 0
3515 -3534 0
-3516 3535 0
3516 -3535 0
-3517 3536 0
3517 -3536 0
-3518 3537 0
3518 -3537 0
-3511 3545 0
3511 -3545 0
-3512 3546 0
3512 -3546 0
-3513 3547 0
3513 -3547 0
-3514 3548 0
3514 -3548 0
-3507 3556 0
3507 -3556 0
-3508 3557 0
3508 -3557 0
-3509 3558 0
3509 -3558 0
-3510 3559 0
3510 -3559 0
-3503 3567 0
3503 -3567 0
-3504 3568 0
3504 -3568 0
-3505 3569 0
3505 -3569 0
-3506 3570 0
3506 -3570 0
-3499 3578 0
3499 -3578 0
-3500 3579 0
3500 -3579 0
-3501 3580 0
3501 -3580 0
-3502 3581 0
3502 -3581 0
-3495 3589 0
3495 -3589 0
-3496 3590 0
3496 -3590 0
-3497 3591 0
3497 -3591 0
-3498 3592 0
3498 -3592 0
-3491 3600 0
3491 -3600 0
-3492 3601 0
3492 -3601 0
-3493 3602 0
3493 -3602 0
-3494 3603 0
3494 -3603 0
-3487 3611 0
3487 -3611 0
-3488 3612 0
3488 -3612 0
-3489 3613 0
3489 -3613 0
-3490 3614 0
3490 -3614 0
-3483 3622 0
3483 -3622 0
-3484 3623 0
3484 -3623 0
-3485 3624 0
3485 -3624 0
-3486 3625 0
3486 -3625 0
-3479 3633 0
3479 -3633 0
-3480 3634 0
3480 -3634 0
-3481 3635 0
3481 -3635 0
-3482 3636 0
3482 -3636 0
-3475 3644 0
3475 -3644 0
-3476 3645 0
3476 -3645 0
-3477 3646 0
3477 -3646 0
-3478 3647 0
3478 -3647 0
-3471 3655 0
3471 -3655 0
-3472 3656 0
3472 -3656 0
-3473 3657 0
3473 -3657 0
-3474 3658 0
3474 -3658 0
-3467 3666 0
3467 -3666 0
-3468 3667 0
3468 -3667 0
-3469 3668 0
3469 -3668 0
-3470 3669 0
3470 -3669 0
-3463 3677 0
3463 -3677 0
-3464 3678 0
3464 -3678 0
-3465 3679 0
3465 -3679 0
-3466 3680 0
3466 -3680 0
-3459 3688 0
3459 -3688 0
-3460 3689 0
3460 -3689 0
-3461 3690 0
3461 -3690 0
-3462 3691 0
3462 -3691 0
-3455 3699 0
3455 -3699 0
-3456 3700 0
3456 -3700 0
-3457 3701 0
3457 -3701 0
-3458 3702 0
3458 -3702 0
-3451 3710 0
3451 -3710 0
-3452 3711 0
3452 -3711 0
-3453 3712 0
3453 -3712 0
-3454 3713 0
3454 -3713 0
-3447 3721 0
3447 -3721 0
-3448 3722 0
3448 -3722 0
-3449 3723 0
3449 -3723 0
-3450 3724 0
3450 -3724 0
-3443 3732 0
3443 -3732 0
-3444 3733 0
3444 -3733 0
-3445 3734 0
3445 -3734 0
-3446 3735 0
3446 -3735 0
-3439 3743 0
3439 -3743 0
-3440 3744 0
3440 -3744 0
-3441 3745 0
3441 -3745 0
-3442 3746 0
3442 -3746 0
-3435 3754 0
3435 -3754 0
-3436 3755 0
3436 -3755 0
-3437 3756 0
3437 -3756 0
-3438 3757 0
3438 -3757 0
-3431 3765 0
3431 -3765 0
-3432 3766 0
3432 -3766 0
-3433 3767 0
3433 -3767 0
-3434 3768 0
3434 -3768 0
-3427 3776 0
3427 -3776 0
-3428 3777 0
3428 -3777 0
-3429 3778 0
3429 -3778 0
-3430 3779 0
3430 -3779 0
-3423 3787 0
3423 -3787 0
-3424 3788 0
3424 -3788 0
-3425 3789 0
3425 -3789 0
-3426 3790 0
3426 -3790 0
-3419 3798 0
3419 -3798 0
-3420 3799 0
3420 -3799 0
-3421 3800 0
3421 -3800 0
-3422 3801 0
3422 -3801 0
-3415 3809 0
3415 -3809 0
-3416 3810 0
3416 -3810 0
-3417 3811 0
3417 -3811 0
-3418 3812 0
3418 -3812 0
-3411 3820 0
3411 -3820 0
-3412 3821 0
3412 -3821 0
-3413 3822 0
3413 -3822 0
-3414 3823 0
3414 -3823 0
-3407 3831 0
3407 -3831 0
-3408 3832 0
3408 -3832 0
-3409 3833 0
3409 -3833 0
-3410 3834 0
3410 -3834 0
-3403 3842 0
3403 -3842 0
-3404 3843 0
3404 -3843 0
-3405 3844 0
3405 -3844 0
-3406 3845 0
3406 -3845 0
-3399 3853 0
3399 -3853 0
-3400 3854 0
3400 -3854 0
-3401 3855 0
3401 -3855 0
-3402 3856 0
3402 -3856 0
-3395 3864 0
3395 -3864 0
-3396 3865 0
3396 -3865 0
-3397 3866 0
3397 -3866 0
-3398 3867 0
3398 -3867 0
-3868 3875 0
3868 -3875 0
-3869 3876 0
3869 -3876 0
-3870 3877 0
3870 -3877 0
-3871 3878 0
3871 -3878 0
-3857 3879 0
3857 -3879 0
-3858 3880 0
3858 -3880 0
-3859 3881 0
3859 -3881 0
-3860 3882 0
3860 -3882 0
-3846 3883 0
3846 -3883 0
-3847 3884 0
3847 -3884 0
-3848 3885 0
3848 -3885 0
-3849 3886 0
3849 -3886 0
-3835 3887 0
3835 -3887 0
-3836 3888 0
3836 -3888 0
-3837 3889 0
3837 -3889 0
-3838 3890 0
3838 -3890 0
-3824 3891 0
3824 -3891 0
-3825 3892 0
3825 -3892 0
-3826 3893 0
3826 -3893 0
-3827 3894 0
3827 -3894 0
-3813 3895 0
3813 -3895 0
-3814 3896 0
3814 -3896 0
-3815 3897 0
3815 -3897 0
-3816 3898 0
3816 -3898 0
-3802 3899 0
3802 -3899 0
-3803 3900 0
3803 -3900 0
-3804 3901 0
3804 -3901 0
-3805 3902 0
3805 -3902 0
-3791 3903 0
3791 -3903 0
-3792 3904 0
3792 -3904 0
-3793 3905 0
3793 -3905 0
-3794 3906 0
3794 -3906 0
-3780 3907 0
3780 -3907 0
-3781 3908 0
3781 -3908 0
-3782 3909 0
3782 -3909 0
-3783 3910 0
3783 -3910 0
-3769 3911 0
3769 -3911 0
-3770 3912 0
3770 -3912 0
-3771 3913 0
3771 -3913 0
-3772 3914 0
3772 -3914 0
-3758 3915 0
3758 -3915 0
-3759 3916 0
3759 -3916 0
-3760 3917 0
3760 -3917 0
-3761 3918 0
3761 -3918 0
-3747 3919 0
3747 -3919 0
-3748 3920 0
3748 -3920 0
-3749 3921 0
3749 -3921 0
-3750 3922 0
3750 -3922 0
-3736 3923 0
3736 -3923 0
-3737 3924 0
3737 -3924 0
-3738 3925 0
3738 -3925 0
-3739 3926 0
3739 -3926 0
-3725 3927 0
3725 -3927 0
-3726 3928 0
3726 -3928 0
-3727 3929 0
3727 -3929 0
-3728 3930 0
3728 -3930 0
-3714 3931 0
3714 -3931 0
-3715 3932 0
3715 -3932 0
-3716 3933 0
3716 -3933 0
-3717 3934 0
3717 -3934 0
-3703 3935 0
3703 -3935 0
-3704 3936 0
3704 -3936 0
-3705 3937 0
3705 -3937 0
-3706 3938 0
3706 -3938 0
-3692 3939 0
3692 -3939 0
-3693 3940 0
3693 -3940 0
-3694 3941 0
3694 -3941 0
-3695 3942 0
3695 -3942 0
-3681 3943 0
3681 -3943 0
-3682 3944 0
3682 -3944 0
-3683 3945 0
3683 -3945 0
-3684 3946 0
3684 -3946 0
-3670 3947 0
3670 -3947 0
-3671 3948 0
3671 -3948 0
-3672 3949 0
3672 -3949 0
-3673 3950 0
3673 -3950 0
-3659 3951 0
3659 -3951 0
-3660 3952 0
3660 -3952 0
-3661 3953 0
3661 -3953 0
-3662 3954 0
3662 -3954 0
-3648 3955 0
3648 -3955 0
-3649 3956 0
3649 -3956 0
-3650 3957 0
3650 -3957 0
-3651 3958 0
3651 -3958 0
-3637 3959 0
3637 -3959 0
-3638 3960 0
3638 -3960 0
-3639 3961 0
3639 -3961 0
-3640 3962 0
3640 -3962 0
-3626 3963 0
3626 -3963 0
-3627 3964 0
3627 -3964 0
-3628 3965 0
3628 -3965 0
-3629 3966 0
3629 -3966 0
-3615 3967 0
3615 -3967 0
-3616 3968 0
3616 -3968 0
-3617 3969 0
3617 -3969 0
-3618 3970 0
3618 -3970 0
-3604 3971 0
3604 -3971 0
-3605 3972 0
3605 -3972 0
-3606 3973 0
3606 -3973 0
-3607 3974 0
3607 -3974 0
-3593 3975 0
3593 -3975 0
-3594 3976 0
3594 -3976 0
-3595 3977 0
3595 -3977 0
-3596 3978 0
3596 -3978 0
-3582 3979 0
3582 -3979 0
-3583 3980 0
3583 -3980 0
-3584 3981 0
3584 -3981 0
-3585 3982 0
3585 -3982 0
-3571 3983 0
3571 -3983 0
-3572 3984 0
3572 -3984 0
-3573 3985 0
3573 -3985 0
-3574 3986 0
3574 -3986 0
-3560 3987 0
3560 -3987 0
-3561 3988 0
3561 -3988 0
-3562 3989 0
3562 -3989 0
-3563 3990 0
3563 -3990 0
-3549 3991 0
3549 -3991 0
-3550 3992 0
3550 -3992 0
-3551 3993 0
3551 -3993 0
-3552 3994 0
3552 -3994 0
-3538 3995 0
3538 -3995 0
-3539 3996 0
3539 -3996 0
-3540 3997 0
3540 -3997 0
-3541 3998 0
3541 -3998 0
-3527 3999 0
3527 -3999 0
-3528 4000 0
3528 -4000 0
-3529 4001 0
3529 -4001 0
-3530 4002 0
3530 -4002 0
4159 4172 -4387 0
4159 -4172 4387 0
-4159 4172 4387 0
-4159 -4172 -4387 0
4387 4226 -4259 0
4387 -4226 4259 0
-4387 4226 4259 0
-4387 -4226 -4259 0
4132 4136 -4388 0
4132 -4136 4388 0
-4132 4136 4388 0
-4132 -4136 -4388 0
4388 4178 -4389 0
4388 -4178 4389 0
-4388 4178 4389 0
-4388 -4178 -4389 0
4389 4232 -4390 0
4389 -4232 4390 0
-4389 4232 4390 0
-4389 -4232 -4390 0
4390 4247 -4391 0
4390 -4247 4391 0
-4390 4247 4391 0
-4390 -4247 -4391 0
4391 4253 -4260 0
4391 -4253 4260 0
-4391 4253 4260 0
-4391 -4253 -4260 0
4137 4148 -4392 0
4137 -4148 4392 0
-4137 4148 4392 0
-4137 -4148 -4392 0
4392 4190 -4261 0
4392 -4190 4261 0
-4392 4190 4261 0
-4392 -4190 -4261 0
4157 4168 -4393 0
4157 -4168 4393 0
-4157 4168 4393 0
-4157 -4168 -4393 0
4393 4179 -4394 0
4393 -4179 4394 0
-4393 4179 4394 0
-4393 -4179 -4394 0
4394 4192 -4395 0
4394 -4192 4395 0
-4394 4192 4395 0
-4394 -4192 -4395 0
4395 4206 -4396 0
4395 -4206 4396 0
-4395 4206 4396 0
-4395 -4206 -4396 0
4396 4210 -4397 0
4396 -4210 4397 0
-4396 4210 4397 0
-4396 -4210 -4397 0
4397 4246 -4262 0
4397 -4246 4262 0
-4397 4246 4262 0
-4397 -4246 -4262 0
4163 4176 -4398 0
4163 -4176 4398 0
-4163 4176 4398 0
-4163 -4176 -4398 0
4398 4230 -4263 0
4398 -4230 4263 0
-4398 4230 4263 0
-4398 -4230 -4263 0
4136 4140 -4399 0
4136 -4140 4399 0
-4136 4140 4399 0
-4136 -4140 -4399 0
4399 4182 -4400 0
4399 -4182 4400 0
-4399 4182 4400 0
-4399 -4182 -4400 0
4400 4236 -4401 0
4400 -4236 4401 0
-4400 4236 4401 0
-4400 -4236 -4401 0
4401 4251 -4402 0
4401 -4251 4402 0
-4401 4251 4402 0
-4401 -4251 -4402 0
4402 4257 -4264 0
4402 -4257 4264 0
-4402 4257 4264 0
-4402 -4257 -4264 0
4141 4152 -4403 0
4141 -4152 4403 0
-4141 4152 4403 0
-4141 -4152 -4403 0
4403 4194 -4265 0
4403 -4194 4265 0
-4403 4194 4265 0
-4403 -4194 -4265 0
4161 4172 -4404 0
4161 -4172 4404 0
-4161 4172 4404 0
-4161 -4172 -4404 0
4404 4183 -4405 0
4404 -4183 4405 0
-4404 4183 4405 0
-4404 -4183 -4405 0
4405 4196 -4406 0
4405 -4196 4406 0
-4405 4196 4406 0
-4405 -4196 -4406 0
4406 4210 -4407 0
4406 -4210 4407 0
-4406 4210 4407 0
-4406 -4210 -4407 0
4407 4214 -4408 0
4407 -4214 4408 0
-4407 4214 4408 0
-4407 -4214 -4408 0
4408 4250 -4266 0
4408 -4250 4266 0
-4408 4250 4266 0
-4408 -4250 -4266 0
4167 4180 -4409 0
4167 -4180 4409 0
-4167 4180 4409 0
-4167 -4180 -4409 0
4409 4234 -4267 0
4409 -4234 4267 0
-4409 4234 4267 0
-4409 -4234 -4267 0
4133 4140 -4410 0
4133 -4140 4410 0
-4133 4140 4410 0
-4133 -4140 -4410 0
4410 4144 -4411 0
4410 -4144 4411 0
-4410 4144 4411 0
-4410 -4144 -4411 0
4411 4186 -4412 0
4411 -4186 4412 0
-4411 4186 4412 0
-4411 -4186 -4412 0
4412 4240 -4413 0
4412 -4240 4413 0
-4412 4240 4413 0
-4412 -4240 -4413 0
4413 4255 -4268 0
4413 -4255 4268 0
-4413 4255 4268 0
-4413 -4255 -4268 0
4145 4156 -4414 0
4145 -4156 4414 0
-4145 4156 4414 0
-4145 -4156 -4414 0
4414 4198 -4269 0
4414 -4198 4269 0
-4414 4198 4269 0
-4414 -4198 -4269 0
4165 4176 -4415 0
4165 -4176 4415 0
-4165 4176 4415 0
-4165 -4176 -4415 0
4415 4187 -4416 0
4415 -4187 4416 0
-4415 4187 4416 0
-4415 -4187 -4416 0
4416 4200 -4417 0
4416 -4200 4417 0
-4416 4200 4417 0
-4416 -4200 -4417 0
4417 4214 -4418 0
4417 -4214 4418 0
-4417 4214 4418 0
-4417 -4214 -4418 0
4418 4218 -4419 0
4418 -4218 4419 0
-4418 4218 4419 0
-4418 -4218 -4419 0
4419 4254 -4270 0
4419 -4254 4270 0
-4419 4254 4270 0
-4419 -4254 -4270 0
4171 4184 -4420 0
4171 -4184 4420 0
-4171 4184 4420 0
-4171 -4184 -4420 0
4420 4238 -4271 0
4420 -4238 4271 0
-4420 4238 4271 0
-4420 -4238 -4271 0
4131 4144 -4421 0
4131 -4144 4421 0
-4131 4144 4421 0
-4131 -4144 -4421 0
4421 4198 -4422 0
4421 -4198 4422 0
-4421 4198 4422 0
-4421 -4198 -4422 0
4422 4244 -4272 0
4422 -4244 4272 0
-4422 4244 4272 0
-4422 -4244 -4272 0
4149 4160 -4423 0
4149 -4160 4423 0
-4149 4160 4423 0
-4149 -4160 -4423 0
4423 4202 -4273 0
4423 -4202 4273 0
-4423 4202 4273 0
-4423 -4202 -4273 0
4169 4180 -4424 0
4169 -4180 4424 0
-4169 4180 4424 0
-4169 -4180 -4424 0
4424 4191 -4425 0
4424 -4191 4425 0
-4424 4191 4425 0
-4424 -4191 -4425 0
4425 4204 -4426 0
4425 -4204 4426 0
-4425 4204 4426 0
-4425 -4204 -4426 0
4426 4218 -4427 0
4426 -4218 4427 0
-4426 4218 4427 0
-4426 -4218 -4427 0
4427 4222 -4428 0
4427 -4222 4428 0
-4427 4222 4428 0
-4427 -4222 -4428 0
4428 4258 -4274 0
4428 -4258 4274 0
-4428 4258 4274 0
-4428 -4258 -4274 0
4175 4188 -4429 0
4175 -4188 4429 0
-4175 4188 4429 0
-4175 -4188 -4429 0
4429 4242 -4275 0
4429 -4242 4275 0
-4429 4242 4275 0
-4429 -4242 -4275 0
4135 4148 -4430 0
4135 -4148 4430 0
-4135 4148 4430 0
-4135 -4148 -4430 0
4430 4202 -4431 0
4430 -4202 4431 0
-4430 4202 4431 0
-4430 -4202 -4431 0
4431 4248 -4276 0
4431 -4248 4276 0
-4431 4248 4276 0
-4431 -4248 -4276 0
4153 4164 -4432 0
4153 -4164 4432 0
-4153 4164 4432 0
-4153 -4164 -4432 0
4432 4206 -4277 0
4432 -4206 4277 0
-4432 4206 4277 0
-4432 -4206 -4277 0
4134 4173 -4433 0
4134 -4173 4433 0
-4134 4173 4433 0
-4134 -4173 -4433 0
4433 4184 -4434 0
4433 -4184 4434 0
-4433 4184 4434 0
-4433 -4184 -4434 0
4434 4195 -4435 0
4434 -4195 4435 0
-4434 4195 4435 0
-4434 -4195 -4435 0
4435 4208 -4436 0
4435 -4208 4436 0
-4435 4208 4436 0
-4435 -4208 -4436 0
4436 4222 -4437 0
4436 -4222 4437 0
-4436 4222 4437 0
-4436 -4222 -4437 0
4437 4226 -4278 0
4437 -4226 4278 0
-4437 4226 4278 0
-4437 -4226 -4278 0
4179 4192 -4438 0
4179 -4192 4438 0
-4179 4192 4438 0
-4179 -4192 -4438 0
4438 4246 -4279 0
4438 -4246 4279 0
-4438 4246 4279 0
-4438 -4246 -4279 0
4139 4152 -4439 0
4139 -4152 4439 0
-4139 4152 4439 0
-4139 -4152 -4439 0
4439 4206 -4440 0
4439 -4206 4440 0
-4439 4206 4440 0
-4439 -4206 -4440 0
4440 4252 -4280 0
4440 -4252 4280 0
-4440 4252 4280 0
-4440 -4252 -4280 0
4157 4168 -4441 0
4157 -4168 4441 0
-4157 4168 4441 0
-4157 -4168 -4441 0
4441 4210 -4281 0
4441 -4210 4281 0
-4441 4210 4281 0
-4441 -4210 -4281 0
4138 4177 -4442 0
4138 -4177 4442 0
-4138 4177 4442 0
-4138 -4177 -4442 0
4442 4188 -4443 0
4442 -4188 4443 0
-4442 4188 4443 0
-4442 -4188 -4443 0
4443 4199 -4444 0
4443 -4199 4444 0
-4443 4199 4444 0
-4443 -4199 -4444 0
4444 4212 -4445 0
4444 -4212 4445 0
-4444 4212 4445 0
-4444 -4212 -4445 0
4445 4226 -4446 0
4445 -4226 4446 0
-4445 4226 4446 0
-4445 -4226 -4446 0
4446 4230 -4282 0
4446 -4230 4282 0
-4446 4230 4282 0
-4446 -4230 -4282 0
4183 4196 -4447 0
4183 -4196 4447 0
-4183 4196 4447 0
-4183 -4196 -4447 0
4447 4250 -4283 0
4447 -4250 4283 0
-4447 4250 4283 0
-4447 -4250 -4283 0
4143 4156 -4448 0
4143 -4156 4448 0
-4143 4156 4448 0
-4143 -4156 -4448 0
4448 4210 -4449 0
4448 -4210 4449 0
-4448 4210 4449 0
-4448 -4210 -4449 0
4449 4256 -4284 0
4449 -4256 4284 0
-4449 4256 4284 0
-4449 -4256 -4284 0
4161 4172 -4450 0
4161 -4172 4450 0
-4161 4172 4450 0
-4161 -4172 -4450 0
4450 4214 -4285 0
4450 -4214 4285 0
-4450 4214 4285 0
-4450 -4214 -4285 0
4142 4181 -4451 0
4142 -4181 4451 0
-4142 4181 4451 0
-4142 -4181 -4451 0
4451 4192 -4452 0
4451 -4192 4452 0
-4451 4192 4452 0
-4451 -4192 -4452 0
4452 4203 -4453 0
4452 -4203 4453 0
-4452 4203 4453 0
-4452 -4203 -4453 0
4453 4216 -4454 0
4453 -4216 4454 0
-4453 4216 4454 0
-4453 -4216 -4454 0
4454 4230 -4455 0
4454 -4230 4455 0
-4454 4230 4455 0
-4454 -4230 -4455 0
4455 4234 -4286 0
4455 -4234 4286 0
-4455 4234 4286 0
-4455 -4234 -4286 0
4187 4200 -4456 0
4187 -4200 4456 0
-4187 4200 4456 0
-4187 -4200 -4456 0
4456 4254 -4287 0
4456 -4254 4287 0
-4456 4254 4287 0
-4456 -4254 -4287 0
4132 4147 -4457 0
4132 -4147 4457 0
-4132 4147 4457 0
-4132 -4147 -4457 0
4457 4160 -4458 0
4457 -4160 4458 0
-4457 4160 4458 0
-4457 -4160 -4458 0
4458 4214 -4288 0
4458 -4214 4288 0
-4458 4214 4288 0
-4458 -4214 -4288 0
4165 4176 -4459 0
4165 -4176 4459 0
-4165 4176 4459 0
-4165 -4176 -4459 0
4459 4218 -4289 0
4459 -4218 4289 0
-4459 4218 4289 0
-4459 -4218 -4289 0
4146 4185 -4460 0
4146 -4185 4460 0
-4146 4185 4460 0
-4146 -4185 -4460 0
4460 4196 -4461 0
4460 -4196 4461 0
-4460 4196 4461 0
-4460 -4196 -4461 0
4461 4207 -4462 0
4461 -4207 4462 0
-4461 4207 4462 0
-4461 -4207 -4462 0
4462 4220 -4463 0
4462 -4220 4463 0
-4462 4220 4463 0
-4462 -4220 -4463 0
4463 4234 -4464 0
4463 -4234 4464 0
-4463 4234 4464 0
-4463 -4234 -4464 0
4464 4238 -4290 0
4464 -4238 4290 0
-4464 4238 4290 0
-4464 -4238 -4290 0
4191 4204 -4465 0
4191 -4204 4465 0
-4191 4204 4465 0
-4191 -4204 -4465 0
4465 4258 -4291 0
4465 -4258 4291 0
-4465 4258 4291 0
-4465 -4258 -4291 0
4136 4151 -4466 0
4136 -4151 4466 0
-4136 4151 4466 0
-4136 -4151 -4466 0
4466 4164 -4467 0
4466 -4164 4467 0
-4466 4164 4467 0
-4466 -4164 -4467 0
4467 4218 -4292 0
4467 -4218 4292 0
-4467 4218 4292 0
-4467 -4218 -4292 0
4169 4180 -4468 0
4169 -4180 4468 0
-4169 4180 4468 0
-4169 -4180 -4468 0
4468 4222 -4293 0
4468 -4222 4293 0
-4468 4222 4293 0
-4468 -4222 -4293 0
4150 4189 -4469 0
4150 -4189 4469 0
-4150 4189 4469 0
-4150 -4189 -4469 0
4469 4200 -4470 0
4469 -4200 4470 0
-4469 4200 4470 0
-4469 -4200 -4470 0
4470 4211 -4471 0
4470 -4211 4471 0
-4470 4211 4471 0
-4470 -4211 -4471 0
4471 4224 -4472 0
4471 -4224 4472 0
-4471 4224 4472 0
-4471 -4224 -4472 0
4472 4238 -4473 0
4472 -4238 4473 0
-4472 4238 4473 0
-4472 -4238 -4473 0
4473 4242 -4294 0
4473 -4242 4294 0
-4473 4242 4294 0
-4473 -4242 -4294 0
4134 4195 -4474 0
4134 -4195 4474 0
-4134 4195 4474 0
-4134 -4195 -4474 0
4474 4208 -4295 0
4474 -4208 4295 0
-4474 4208 4295 0
-4474 -4208 -4295 0
4140 4155 -4475 0
4140 -4155 4475 0
-4140 4155 4475 0
-4140 -4155 -4475 0
4475 4168 -4476 0
4475 -4168 4476 0
-4475 4168 4476 0
-4475 -4168 -4476 0
4476 4222 -4296 0
4476 -4222 4296 0
-4476 4222 4296 0
-4476 -4222 -4296 0
4173 4184 -4477 0
4173 -4184 4477 0
-4173 4184 4477 0
-4173 -4184 -4477 0
4477 4226 -4297 0
4477 -4226 4297 0
-4477 4226 4297 0
-4477 -4226 -4297 0
4154 4193 -4478 0
4154 -4193 4478 0
-4154 4193 4478 0
-4154 -4193 -4478 0
4478 4204 -4479 0
4478 -4204 4479 0
-4478 4204 4479 0
-4478 -4204 -4479 0
4479 4215 -4480 0
4479 -4215 4480 0
-4479 4215 4480 0
-4479 -4215 -4480 0
4480 4228 -4481 0
4480 -4228 4481 0
-4480 4228 4481 0
-4480 -4228 -4481 0
4481 4242 -4482 0
4481 -4242 4482 0
-4481 4242 4482 0
-4481 -4242 -4482 0
4482 4246 -4298 0
4482 -4246 4298 0
-4482 4246 4298 0
-4482 -4246 -4298 0
4138 4199 -4483 0
4138 -4199 4483 0
-4138 4199 4483 0
-4138 -4199 -4483 0
4483 4212 -4299 0
4483 -4212 4299 0
-4483 4212 4299 0
-4483 -4212 -4299 0
4144 4159 -4484 0
4144 -4159 4484 0
-4144 4159 4484 0
-4144 -4159 -4484 0
4484 4165 -4485 0
4484 -4165 4485 0
-4484 4165 4485 0
-4484 -4165 -4485 0
4485 4172 -4486 0
4485 -4172 4486 0
-4485 4172 4486 0
-4485 -4172 -4486 0
4486 4176 -4487 0
4486 -4176 4487 0
-4486 4176 4487 0
-4486 -4176 -4487 0
4487 4218 -4488 0
4487 -4218 4488 0
-4487 4218 4488 0
-4487 -4218 -4488 0
4488 4226 -4300 0
4488 -4226 4300 0
-4488 4226 4300 0
-4488 -4226 -4300 0
4177 4188 -4489 0
4177 -4188 4489 0
-4177 4188 4489 0
-4177 -4188 -4489 0
4489 4230 -4301 0
4489 -4230 4301 0
-4489 4230 4301 0
-4489 -4230 -4301 0
4158 4197 -4490 0
4158 -4197 4490 0
-4158 4197 4490 0
-4158 -4197 -4490 0
4490 4208 -4491 0
4490 -4208 4491 0
-4490 4208 4491 0
-4490 -4208 -4491 0
4491 4219 -4492 0
4491 -4219 4492 0
-4491 4219 4492 0
-4491 -4219 -4492 0
4492 4232 -4493 0
4492 -4232 4493 0
-4492 4232 4493 0
-4492 -4232 -4493 0
4493 4246 -4494 0
4493 -4246 4494 0
-4493 4246 4494 0
-4493 -4246 -4494 0
4494 4250 -4302 0
4494 -4250 4302 0
-4494 4250 4302 0
-4494 -4250 -4302 0
4142 4203 -4495 0
4142 -4203 4495 0
-4142 4203 4495 0
-4142 -4203 -4495 0
4495 4216 -4303 0
4495 -4216 4303 0
-4495 4216 4303 0
-4495 -4216 -4303 0
4148 4163 -4496 0
4148 -4163 4496 0
-4148 4163 4496 0
-4148 -4163 -4496 0
4496 4169 -4497 0
4496 -4169 4497 0
-4496 4169 4497 0
-4496 -4169 -4497 0
4497 4176 -4498 0
4497 -4176 4498 0
-4497 4176 4498 0
-4497 -4176 -4498 0
4498 4180 -4499 0
4498 -4180 4499 0
-4498 4180 4499 0
-4498 -4180 -4499 0
4499 4222 -4500 0
4499 -4222 4500 0
-4499 4222 4500 0
-4499 -4222 -4500 0
4500 4230 -4304 0
4500 -4230 4304 0
-4500 4230 4304 0
-4500 -4230 -4304 0
4181 4192 -4501 0
4181 -4192 4501 0
-4181 4192 4501 0
-4181 -4192 -4501 0
4501 4234 -4305 0
4501 -4234 4305 0
-4501 4234 4305 0
-4501 -4234 -4305 0
4162 4201 -4502 0
4162 -4201 4502 0
-4162 4201 4502 0
-4162 -4201 -4502 0
4502 4212 -4503 0
4502 -4212 4503 0
-4502 4212 4503 0
-4502 -4212 -4503 0
4503 4223 -4504 0
4503 -4223 4504 0
-4503 4223 4504 0
-4503 -4223 -4504 0
4504 4236 -4505 0
4504 -4236 4505 0
-4504 4236 4505 0
-4504 -4236 -4505 0
4505 4250 -4506 0
4505 -4250 4506 0
-4505 4250 4506 0
-4505 -4250 -4506 0
4506 4254 -4306 0
4506 -4254 4306 0
-4506 4254 4306 0
-4506 -4254 -4306 0
4146 4207 -4507 0
4146 -4207 4507 0
-4146 4207 4507 0
-4146 -4207 -4507 0
4507 4220 -4307 0
4507 -4220 4307 0
-4507 4220 4307 0
-4507 -4220 -4307 0
4152 4167 -4508 0
4152 -4167 4508 0
-4152 4167 4508 0
-4152 -4167 -4508 0
4508 4173 -4509 0
4508 -4173 4509 0
-4508 4173 4509 0
-4508 -4173 -4509 0
4509 4180 -4510 0
4509 -4180 4510 0
-4509 4180 4510 0
-4509 -4180 -4510 0
4510 4184 -4511 0
4510 -4184 4511 0
-4510 4184 4511 0
-4510 -4184 -4511 0
4511 4226 -4512 0
4511 -4226 4512 0
-4511 4226 4512 0
-4511 -4226 -4512 0
4512 4234 -4308 0
4512 -4234 4308 0
-4512 4234 4308 0
-4512 -4234 -4308 0
4185 4196 -4513 0
4185 -4196 4513 0
-4185 4196 4513 0
-4185 -4196 -4513 0
4513 4238 -4309 0
4513 -4238 4309 0
-4513 4238 4309 0
-4513 -4238 -4309 0
4166 4205 -4514 0
4166 -4205 4514 0
-4166 4205 4514 0
-4166 -4205 -4514 0
4514 4216 -4515 0
4514 -4216 4515 0
-4514 4216 4515 0
-4514 -4216 -4515 0
4515 4227 -4516 0
4515 -4227 4516 0
-4515 4227 4516 0
-4515 -4227 -4516 0
4516 4240 -4517 0
4516 -4240 4517 0
-4516 4240 4517 0
-4516 -4240 -4517 0
4517 4254 -4518 0
4517 -4254 4518 0
-4517 4254 4518 0
-4517 -4254 -4518 0
4518 4258 -4310 0
4518 -4258 4310 0
-4518 4258 4310 0
-4518 -4258 -4310 0
4150 4211 -4519 0
4150 -4211 4519 0
-4150 4211 4519 0
-4150 -4211 -4519 0
4519 4224 -4311 0
4519 -4224 4311 0
-4519 4224 4311 0
-4519 -4224 -4311 0
4156 4171 -4520 0
4156 -4171 4520 0
-4156 4171 4520 0
-4156 -4171 -4520 0
4520 4177 -4521 0
4520 -4177 4521 0
-4520 4177 4521 0
-4520 -4177 -4521 0
4521 4184 -4522 0
4521 -4184 4522 0
-4521 4184 4522 0
-4521 -4184 -4522 0
4522 4188 -4523 0
4522 -4188 4523 0
-4522 4188 4523 0
-4522 -4188 -4523 0
4523 4230 -4524 0
4523 -4230 4524 0
-4523 4230 4524 0
-4523 -4230 -4524 0
4524 4238 -4312 0
4524 -4238 4312 0
-4524 4238 4312 0
-4524 -4238 -4312 0
4189 4200 -4525 0
4189 -4200 4525 0
-4189 4200 4525 0
-4189 -4200 -4525 0
4525 4242 -4313 0
4525 -4242 4313 0
-4525 4242 4313 0
-4525 -4242 -4313 0
4134 4170 -4526 0
4134 -4170 4526 0
-4134 4170 4526 0
-4134 -4170 -4526 0
4526 4209 -4527 0
4526 -4209 4527 0
-4526 4209 4527 0
-4526 -4209 -4527 0
4527 4220 -4528 0
4527 -4220 4528 0
-4527 4220 4528 0
-4527 -4220 -4528 0
4528 4231 -4529 0
4528 -4231 4529 0
-4528 4231 4529 0
-4528 -4231 -4529 0
4529 4244 -4530 0
4529 -4244 4530 0
-4529 4244 4530 0
-4529 -4244 -4530 0
4530 4258 -4314 0
4530 -4258 4314 0
-4530 4258 4314 0
-4530 -4258 -4314 0
4154 4215 -4531 0
4154 -4215 4531 0
-4154 4215 4531 0
-4154 -4215 -4531 0
4531 4228 -4315 0
4531 -4228 4315 0
-4531 4228 4315 0
-4531 -4228 -4315 0
4160 4175 -4532 0
4160 -4175 4532 0
-4160 4175 4532 0
-4160 -4175 -4532 0
4532 4181 -4533 0
4532 -4181 4533 0
-4532 4181 4533 0
-4532 -4181 -4533 0
4533 4188 -4534 0
4533 -4188 4534 0
-4533 4188 4534 0
-4533 -4188 -4534 0
4534 4192 -4535 0
4534 -4192 4535 0
-4534 4192 4535 0
-4534 -4192 -4535 0
4535 4234 -4536 0
4535 -4234 4536 0
-4535 4234 4536 0
-4535 -4234 -4536 0
4536 4242 -4316 0
4536 -4242 4316 0
-4536 4242 4316 0
-4536 -4242 -4316 0
4193 4204 -4537 0
4193 -4204 4537 0
-4193 4204 4537 0
-4193 -4204 -4537 0
4537 4246 -4317 0
4537 -4246 4317 0
-4537 4246 4317 0
-4537 -4246 -4317 0
4134 4138 -4538 0
4134 -4138 4538 0
-4134 4138 4538 0
-4134 -4138 -4538 0
4538 4174 -4539 0
4538 -4174 4539 0
-4538 4174 4539 0
-4538 -4174 -4539 0
4539 4213 -4540 0
4539 -4213 4540 0
-4539 4213 4540 0
-4539 -4213 -4540 0
4540 4224 -4541 0
4540 -4224 4541 0
-4540 4224 4541 0
-4540 -4224 -4541 0
4541 4235 -4542 0
4541 -4235 4542 0
-4541 4235 4542 0
-4541 -4235 -4542 0
4542 4248 -4318 0
4542 -4248 4318 0
-4542 4248 4318 0
-4542 -4248 -4318 0
4158 4219 -4543 0
4158 -4219 4543 0
-4158 4219 4543 0
-4158 -4219 -4543 0
4543 4232 -4319 0
4543 -4232 4319 0
-4543 4232 4319 0
-4543 -4232 -4319 0
4164 4179 -4544 0
4164 -4179 4544 0
-4164 4179 4544 0
-4164 -4179 -4544 0
4544 4185 -4545 0
4544 -4185 4545 0
-4544 4185 4545 0
-4544 -4185 -4545 0
4545 4192 -4546 0
4545 -4192 4546 0
-4545 4192 4546 0
-4545 -4192 -4546 0
4546 4196 -4547 0
4546 -4196 4547 0
-4546 4196 4547 0
-4546 -4196 -4547 0
4547 4238 -4548 0
4547 -4238 4548 0
-4547 4238 4548 0
-4547 -4238 -4548 0
4548 4246 -4320 0
4548 -4246 4320 0
-4548 4246 4320 0
-4548 -4246 -4320 0
4197 4208 -4549 0
4197 -4208 4549 0
-4197 4208 4549 0
-4197 -4208 -4549 0
4549 4250 -4321 0
4549 -4250 4321 0
-4549 4250 4321 0
-4549 -4250 -4321 0
4138 4142 -4550 0
4138 -4142 4550 0
-4138 4142 4550 0
-4138 -4142 -4550 0
4550 4178 -4551 0
4550 -4178 4551 0
-4550 4178 4551 0
-4550 -4178 -4551 0
4551 4217 -4552 0
4551 -4217 4552 0
-4551 4217 4552 0
-4551 -4217 -4552 0
4552 4228 -4553 0
4552 -4228 4553 0
-4552 4228 4553 0
-4552 -4228 -4553 0
4553 4239 -4554 0
4553 -4239 4554 0
-4553 4239 4554 0
-4553 -4239 -4554 0
4554 4252 -4322 0
4554 -4252 4322 0
-4554 4252 4322 0
-4554 -4252 -4322 0
4162 4223 -4555 0
4162 -4223 4555 0
-4162 4223 4555 0
-4162 -4223 -4555 0
4555 4236 -4323 0
4555 -4236 4323 0
-4555 4236 4323 0
-4555 -4236 -4323 0
4168 4183 -4556 0
4168 -4183 4556 0
-4168 4183 4556 0
-4168 -4183 -4556 0
4556 4189 -4557 0
4556 -4189 4557 0
-4556 4189 4557 0
-4556 -4189 -4557 0
4557 4196 -4558 0
4557 -4196 4558 0
-4557 4196 4558 0
-4557 -4196 -4558 0
4558 4200 -4559 0
4558 -4200 4559 0
-4558 4200 4559 0
-4558 -4200 -4559 0
4559 4242 -4560 0
4559 -4242 4560 0
-4559 4242 4560 0
-4559 -4242 -4560 0
4560 4250 -4324 0
4560 -4250 4324 0
-4560 4250 4324 0
-4560 -4250 -4324 0
4201 4212 -4561 0
4201 -4212 4561 0
-4201 4212 4561 0
-4201 -4212 -4561 0
4561 4254 -4325 0
4561 -4254 4325 0
-4561 4254 4325 0
-4561 -4254 -4325 0
4142 4146 -4562 0
4142 -4146 4562 0
-4142 4146 4562 0
-4142 -4146 -4562 0
4562 4182 -4563 0
4562 -4182 4563 0
-4562 4182 4563 0
-4562 -4182 -4563 0
4563 4221 -4564 0
4563 -4221 4564 0
-4563 4221 4564 0
-4563 -4221 -4564 0
4564 4232 -4565 0
4564 -4232 4565 0
-4564 4232 4565 0
-4564 -4232 -4565 0
4565 4243 -4566 0
4565 -4243 4566 0
-4565 4243 4566 0
-4565 -4243 -4566 0
4566 4256 -4326 0
4566 -4256 4326 0
-4566 4256 4326 0
-4566 -4256 -4326 0
4166 4227 -4567 0
4166 -4227 4567 0
-4166 4227 4567 0
-4166 -4227 -4567 0
4567 4240 -4327 0
4567 -4240 4327 0
-4567 4240 4327 0
-4567 -4240 -4327 0
4172 4187 -4568 0
4172 -4187 4568 0
-4172 4187 4568 0
-4172 -4187 -4568 0
4568 4193 -4569 0
4568 -4193 4569 0
-4568 4193 4569 0
-4568 -4193 -4569 0
4569 4200 -4570 0
4569 -4200 4570 0
-4569 4200 4570 0
-4569 -4200 -4570 0
4570 4204 -4571 0
4570 -4204 4571 0
-4570 4204 4571 0
-4570 -4204 -4571 0
4571 4246 -4572 0
4571 -4246 4572 0
-4571 4246 4572 0
-4571 -4246 -4572 0
4572 4254 -4328 0
4572 -4254 4328 0
-4572 4254 4328 0
-4572 -4254 -4328 0
4205 4216 -4573 0
4205 -4216 4573 0
-4205 4216 4573 0
-4205 -4216 -4573 0
4573 4258 -4329 0
4573 -4258 4329 0
-4573 4258 4329 0
-4573 -4258 -4329 0
4132 4146 -4574 0
4132 -4146 4574 0
-4132 4146 4574 0
-4132 -4146 -4574 0
4574 4150 -4575 0
4574 -4150 4575 0
-4574 4150 4575 0
-4574 -4150 -4575 0
4575 4225 -4576 0
4575 -4225 4576 0
-4575 4225 4576 0
-4575 -4225 -4576 0
4576 4236 -4577 0
4576 -4236 4577 0
-4576 4236 4577 0
-4576 -4236 -4577 0
4577 4247 -4330 0
4577 -4247 4330 0
-4577 4247 4330 0
-4577 -4247 -4330 0
4170 4231 -4578 0
4170 -4231 4578 0
-4170 4231 4578 0
-4170 -4231 -4578 0
4578 4244 -4331 0
4578 -4244 4331 0
-4578 4244 4331 0
-4578 -4244 -4331 0
4176 4191 -4579 0
4176 -4191 4579 0
-4176 4191 4579 0
-4176 -4191 -4579 0
4579 4197 -4580 0
4579 -4197 4580 0
-4579 4197 4580 0
-4579 -4197 -4580 0
4580 4204 -4581 0
4580 -4204 4581 0
-4580 4204 4581 0
-4580 -4204 -4581 0
4581 4208 -4582 0
4581 -4208 4582 0
-4581 4208 4582 0
-4581 -4208 -4582 0
4582 4250 -4583 0
4582 -4250 4583 0
-4582 4250 4583 0
-4582 -4250 -4583 0
4583 4258 -4332 0
4583 -4258 4332 0
-4583 4258 4332 0
-4583 -4258 -4332 0
4134 4209 -4584 0
4134 -4209 4584 0
-4134 4209 4584 0
-4134 -4209 -4584 0
4584 4220 -4333 0
4584 -4220 4333 0
-4584 4220 4333 0
-4584 -4220 -4333 0
4136 4150 -4585 0
4136 -4150 4585 0
-4136 4150 4585 0
-4136 -4150 -4585 0
4585 4154 -4586 0
4585 -4154 4586 0
-4585 4154 4586 0
-4585 -4154 -4586 0
4586 4229 -4587 0
4586 -4229 4587 0
-4586 4229 4587 0
-4586 -4229 -4587 0
4587 4240 -4588 0
4587 -4240 4588 0
-4587 4240 4588 0
-4587 -4240 -4588 0
4588 4251 -4334 0
4588 -4251 4334 0
-4588 4251 4334 0
-4588 -4251 -4334 0
4174 4235 -4589 0
4174 -4235 4589 0
-4174 4235 4589 0
-4174 -4235 -4589 0
4589 4248 -4335 0
4589 -4248 4335 0
-4589 4248 4335 0
-4589 -4248 -4335 0
4134 4180 -4590 0
4134 -4180 4590 0
-4134 4180 4590 0
-4134 -4180 -4590 0
4590 4195 -4591 0
4590 -4195 4591 0
-4590 4195 4591 0
-4590 -4195 -4591 0
4591 4201 -4592 0
4591 -4201 4592 0
-4591 4201 4592 0
-4591 -4201 -4592 0
4592 4208 -4593 0
4592 -4208 4593 0
-4592 4208 4593 0
-4592 -4208 -4593 0
4593 4212 -4594 0
4593 -4212 4594 0
-4593 4212 4594 0
-4593 -4212 -4594 0
4594 4254 -4336 0
4594 -4254 4336 0
-4594 4254 4336 0
-4594 -4254 -4336 0
4138 4213 -4595 0
4138 -4213 4595 0
-4138 4213 4595 0
-4138 -4213 -4595 0
4595 4224 -4337 0
4595 -4224 4337 0
-4595 4224 4337 0
-4595 -4224 -4337 0
4140 4154 -4596 0
4140 -4154 4596 0
-4140 4154 4596 0
-4140 -4154 -4596 0
4596 4158 -4597 0
4596 -4158 4597 0
-4596 4158 4597 0
-4596 -4158 -4597 0
4597 4233 -4598 0
4597 -4233 4598 0
-4597 4233 4598 0
-4597 -4233 -4598 0
4598 4244 -4599 0
4598 -4244 4599 0
-4598 4244 4599 0
-4598 -4244 -4599 0
4599 4255 -4338 0
4599 -4255 4338 0
-4599 4255 4338 0
-4599 -4255 -4338 0
4178 4239 -4600 0
4178 -4239 4600 0
-4178 4239 4600 0
-4178 -4239 -4600 0
4600 4252 -4339 0
4600 -4252 4339 0
-4600 4252 4339 0
-4600 -4252 -4339 0
4138 4184 -4601 0
4138 -4184 4601 0
-4138 4184 4601 0
-4138 -4184 -4601 0
4601 4199 -4602 0
4601 -4199 4602 0
-4601 4199 4602 0
-4601 -4199 -4602 0
4602 4205 -4603 0
4602 -4205 4603 0
-4602 4205 4603 0
-4602 -4205 -4603 0
4603 4212 -4604 0
4603 -4212 4604 0
-4603 4212 4604 0
-4603 -4212 -4604 0
4604 4216 -4605 0
4604 -4216 4605 0
-4604 4216 4605 0
-4604 -4216 -4605 0
4605 4258 -4340 0
4605 -4258 4340 0
-4605 4258 4340 0
-4605 -4258 -4340 0
4142 4217 -4606 0
4142 -4217 4606 0
-4142 4217 4606 0
-4142 -4217 -4606 0
4606 4228 -4341 0
4606 -4228 4341 0
-4606 4228 4341 0
-4606 -4228 -4341 0
4131 4144 -4607 0
4131 -4144 4607 0
-4131 4144 4607 0
-4131 -4144 -4607 0
4607 4158 -4608 0
4607 -4158 4608 0
-4607 4158 4608 0
-4607 -4158 -4608 0
4608 4162 -4609 0
4608 -4162 4609 0
-4608 4162 4609 0
-4608 -4162 -4609 0
4609 4198 -4610 0
4609 -4198 4610 0
-4609 4198 4610 0
-4609 -4198 -4610 0
4610 4237 -4611 0
4610 -4237 4611 0
-4610 4237 4611 0
-4610 -4237 -4611 0
4611 4248 -4342 0
4611 -4248 4342 0
-4611 4248 4342 0
-4611 -4248 -4342 0
4182 4243 -4612 0
4182 -4243 4612 0
-4182 4243 4612 0
-4182 -4243 -4612 0
4612 4256 -4343 0
4612 -4256 4343 0
-4612 4256 4343 0
-4612 -4256 -4343 0
4134 4142 -4613 0
4134 -4142 4613 0
-4134 4142 4613 0
-4134 -4142 -4613 0
4613 4188 -4614 0
4613 -4188 4614 0
-4613 4188 4614 0
-4613 -4188 -4614 0
4614 4203 -4615 0
4614 -4203 4615 0
-4614 4203 4615 0
-4614 -4203 -4615 0
4615 4209 -4616 0
4615 -4209 4616 0
-4615 4209 4616 0
-4615 -4209 -4616 0
4616 4216 -4617 0
4616 -4216 4617 0
-4616 4216 4617 0
-4616 -4216 -4617 0
4617 4220 -4344 0
4617 -4220 4344 0
-4617 4220 4344 0
-4617 -4220 -4344 0
4146 4221 -4618 0
4146 -4221 4618 0
-4146 4221 4618 0
-4146 -4221 -4618 0
4618 4232 -4345 0
4618 -4232 4345 0
-4618 4232 4345 0
-4618 -4232 -4345 0
4135 4148 -4619 0
4135 -4148 4619 0
-4135 4148 4619 0
-4135 -4148 -4619 0
4619 4162 -4620 0
4619 -4162 4620 0
-4619 4162 4620 0
-4619 -4162 -4620 0
4620 4166 -4621 0
4620 -4166 4621 0
-4620 4166 4621 0
-4620 -4166 -4621 0
4621 4202 -4622 0
4621 -4202 4622 0
-4621 4202 4622 0
-4621 -4202 -4622 0
4622 4241 -4623 0
4622 -4241 4623 0
-4622 4241 4623 0
-4622 -4241 -4623 0
4623 4252 -4346 0
4623 -4252 4346 0
-4623 4252 4346 0
-4623 -4252 -4346 0
4132 4247 -4347 0
4132 -4247 4347 0
-4132 4247 4347 0
-4132 -4247 -4347 0
4138 4146 -4624 0
4138 -4146 4624 0
-4138 4146 4624 0
-4138 -4146 -4624 0
4624 4192 -4625 0
4624 -4192 4625 0
-4624 4192 4625 0
-4624 -4192 -4625 0
4625 4207 -4626 0
4625 -4207 4626 0
-4625 4207 4626 0
-4625 -4207 -4626 0
4626 4213 -4627 0
4626 -4213 4627 0
-4626 4213 4627 0
-4626 -4213 -4627 0
4627 4220 -4628 0
4627 -4220 4628 0
-4627 4220 4628 0
-4627 -4220 -4628 0
4628 4224 -4348 0
4628 -4224 4348 0
-4628 4224 4348 0
-4628 -4224 -4348 0
4150 4225 -4629 0
4150 -4225 4629 0
-4150 4225 4629 0
-4150 -4225 -4629 0
4629 4236 -4349 0
4629 -4236 4349 0
-4629 4236 4349 0
-4629 -4236 -4349 0
4139 4152 -4630 0
4139 -4152 4630 0
-4139 4152 4630 0
-4139 -4152 -4630 0
4630 4166 -4631 0
4630 -4166 4631 0
-4630 4166 4631 0
-4630 -4166 -4631 0
4631 4170 -4632 0
4631 -4170 4632 0
-4631 4170 4632 0
-4631 -4170 -4632 0
4632 4206 -4633 0
4632 -4206 4633 0
-4632 4206 4633 0
-4632 -4206 -4633 0
4633 4245 -4634 0
4633 -4245 4634 0
-4633 4245 4634 0
-4633 -4245 -4634 0
4634 4256 -4350 0
4634 -4256 4350 0
-4634 4256 4350 0
-4634 -4256 -4350 0
4136 4251 -4351 0
4136 -4251 4351 0
-4136 4251 4351 0
-4136 -4251 -4351 0
4142 4150 -4635 0
4142 -4150 4635 0
-4142 4150 4635 0
-4142 -4150 -4635 0
4635 4196 -4636 0
4635 -4196 4636 0
-4635 4196 4636 0
-4635 -4196 -4636 0
4636 4211 -4637 0
4636 -4211 4637 0
-4636 4211 4637 0
-4636 -4211 -4637 0
4637 4217 -4638 0
4637 -4217 4638 0
-4637 4217 4638 0
-4637 -4217 -4638 0
4638 4224 -4639 0
4638 -4224 4639 0
-4638 4224 4639 0
-4638 -4224 -4639 0
4639 4228 -4352 0
4639 -4228 4352 0
-4639 4228 4352 0
-4639 -4228 -4352 0
4154 4229 -4640 0
4154 -4229 4640 0
-4154 4229 4640 0
-4154 -4229 -4640 0
4640 4240 -4353 0
4640 -4240 4353 0
-4640 4240 4353 0
-4640 -4240 -4353 0
4132 4143 -4641 0
4132 -4143 4641 0
-4132 4143 4641 0
-4132 -4143 -4641 0
4641 4156 -4642 0
4641 -4156 4642 0
-4641 4156 4642 0
-4641 -4156 -4642 0
4642 4170 -4643 0
4642 -4170 4643 0
-4642 4170 4643 0
-4642 -4170 -4643 0
4643 4174 -4644 0
4643 -4174 4644 0
-4643 4174 4644 0
-4643 -4174 -4644 0
4644 4210 -4645 0
4644 -4210 4645 0
-4644 4210 4645 0
-4644 -4210 -4645 0
4645 4249 -4354 0
4645 -4249 4354 0
-4645 4249 4354 0
-4645 -4249 -4354 0
4140 4255 -4355 0
4140 -4255 4355 0
-4140 4255 4355 0
-4140 -4255 -4355 0
4146 4154 -4646 0
4146 -4154 4646 0
-4146 4154 4646 0
-4146 -4154 -4646 0
4646 4200 -4647 0
4646 -4200 4647 0
-4646 4200 4647 0
-4646 -4200 -4647 0
4647 4215 -4648 0
4647 -4215 4648 0
-4647 4215 4648 0
-4647 -4215 -4648 0
4648 4221 -4649 0
4648 -4221 4649 0
-4648 4221 4649 0
-4648 -4221 -4649 0
4649 4228 -4650 0
4649 -4228 4650 0
-4649 4228 4650 0
-4649 -4228 -4650 0
4650 4232 -4356 0
4650 -4232 4356 0
-4650 4232 4356 0
-4650 -4232 -4356 0
4158 4233 -4651 0
4158 -4233 4651 0
-4158 4233 4651 0
-4158 -4233 -4651 0
4651 4244 -4357 0
4651 -4244 4357 0
-4651 4244 4357 0
-4651 -4244 -4357 0
4136 4147 -4652 0
4136 -4147 4652 0
-4136 4147 4652 0
-4136 -4147 -4652 0
4652 4160 -4653 0
4652 -4160 4653 0
-4652 4160 4653 0
-4652 -4160 -4653 0
4653 4174 -4654 0
4653 -4174 4654 0
-4653 4174 4654 0
-4653 -4174 -4654 0
4654 4178 -4655 0
4654 -4178 4655 0
-4654 4178 4655 0
-4654 -4178 -4655 0
4655 4214 -4656 0
4655 -4214 4656 0
-4655 4214 4656 0
-4655 -4214 -4656 0
4656 4253 -4358 0
4656 -4253 4358 0
-4656 4253 4358 0
-4656 -4253 -4358 0
4131 4144 -4657 0
4131 -4144 4657 0
-4131 4144 4657 0
-4131 -4144 -4657 0
4657 4198 -4359 0
4657 -4198 4359 0
-4657 4198 4359 0
-4657 -4198 -4359 0
4150 4158 -4658 0
4150 -4158 4658 0
-4150 4158 4658 0
-4150 -4158 -4658 0
4658 4204 -4659 0
4658 -4204 4659 0
-4658 4204 4659 0
-4658 -4204 -4659 0
4659 4219 -4660 0
4659 -4219 4660 0
-4659 4219 4660 0
-4659 -4219 -4660 0
4660 4225 -4661 0
4660 -4225 4661 0
-4660 4225 4661 0
-4660 -4225 -4661 0
4661 4232 -4662 0
4661 -4232 4662 0
-4661 4232 4662 0
-4661 -4232 -4662 0
4662 4236 -4360 0
4662 -4236 4360 0
-4662 4236 4360 0
-4662 -4236 -4360 0
4162 4237 -4663 0
4162 -4237 4663 0
-4162 4237 4663 0
-4162 -4237 -4663 0
4663 4248 -4361 0
4663 -4248 4361 0
-4663 4248 4361 0
-4663 -4248 -4361 0
4140 4151 -4664 0
4140 -4151 4664 0
-4140 4151 4664 0
-4140 -4151 -4664 0
4664 4164 -4665 0
4664 -4164 4665 0
-4664 4164 4665 0
-4664 -4164 -4665 0
4665 4178 -4666 0
4665 -4178 4666 0
-4665 4178 4666 0
-4665 -4178 -4666 0
4666 4182 -4667 0
4666 -4182 4667 0
-4666 4182 4667 0
-4666 -4182 -4667 0
4667 4218 -4668 0
4667 -4218 4668 0
-4667 4218 4668 0
-4667 -4218 -4668 0
4668 4257 -4362 0
4668 -4257 4362 0
-4668 4257 4362 0
-4668 -4257 -4362 0
4135 4148 -4669 0
4135 -4148 4669 0
-4135 4148 4669 0
-4135 -4148 -4669 0
4669 4202 -4363 0
4669 -4202 4363 0
-4669 4202 4363 0
-4669 -4202 -4363 0
4154 4162 -4670 0
4154 -4162 4670 0
-4154 4162 4670 0
-4154 -4162 -4670 0
4670 4208 -4671 0
4670 -4208 4671 0
-4670 4208 4671 0
-4670 -4208 -4671 0
4671 4223 -4672 0
4671 -4223 4672 0
-4671 4223 4672 0
-4671 -4223 -4672 0
4672 4229 -4673 0
4672 -4229 4673 0
-4672 4229 4673 0
-4672 -4229 -4673 0
4673 4236 -4674 0
4673 -4236 4674 0
-4673 4236 4674 0
-4673 -4236 -4674 0
4674 4240 -4364 0
4674 -4240 4364 0
-4674 4240 4364 0
-4674 -4240 -4364 0
4166 4241 -4675 0
4166 -4241 4675 0
-4166 4241 4675 0
-4166 -4241 -4675 0
4675 4252 -4365 0
4675 -4252 4365 0
-4675 4252 4365 0
-4675 -4252 -4365 0
4133 4144 -4676 0
4133 -4144 4676 0
-4133 4144 4676 0
-4133 -4144 -4676 0
4676 4155 -4677 0
4676 -4155 4677 0
-4676 4155 4677 0
-4676 -4155 -4677 0
4677 4168 -4678 0
4677 -4168 4678 0
-4677 4168 4678 0
-4677 -4168 -4678 0
4678 4182 -4679 0
4678 -4182 4679 0
-4678 4182 4679 0
-4678 -4182 -4679 0
4679 4186 -4680 0
4679 -4186 4680 0
-4679 4186 4680 0
-4679 -4186 -4680 0
4680 4222 -4366 0
4680 -4222 4366 0
-4680 4222 4366 0
-4680 -4222 -4366 0
4139 4152 -4681 0
4139 -4152 4681 0
-4139 4152 4681 0
-4139 -4152 -4681 0
4681 4206 -4367 0
4681 -4206 4367 0
-4681 4206 4367 0
-4681 -4206 -4367 0
4158 4166 -4682 0
4158 -4166 4682 0
-4158 4166 4682 0
-4158 -4166 -4682 0
4682 4212 -4683 0
4682 -4212 4683 0
-4682 4212 4683 0
-4682 -4212 -4683 0
4683 4227 -4684 0
4683 -4227 4684 0
-4683 4227 4684 0
-4683 -4227 -4684 0
4684 4233 -4685 0
4684 -4233 4685 0
-4684 4233 4685 0
-4684 -4233 -4685 0
4685 4240 -4686 0
4685 -4240 4686 0
-4685 4240 4686 0
-4685 -4240 -4686 0
4686 4244 -4368 0
4686 -4244 4368 0
-4686 4244 4368 0
-4686 -4244 -4368 0
4170 4245 -4687 0
4170 -4245 4687 0
-4170 4245 4687 0
-4170 -4245 -4687 0
4687 4256 -4369 0
4687 -4256 4369 0
-4687 4256 4369 0
-4687 -4256 -4369 0
4137 4148 -4688 0
4137 -4148 4688 0
-4137 4148 4688 0
-4137 -4148 -4688 0
4688 4159 -4689 0
4688 -4159 4689 0
-4688 4159 4689 0
-4688 -4159 -4689 0
4689 4172 -4690 0
4689 -4172 4690 0
-4689 4172 4690 0
-4689 -4172 -4690 0
4690 4186 -4691 0
4690 -4186 4691 0
-4690 4186 4691 0
-4690 -4186 -4691 0
4691 4190 -4692 0
4691 -4190 4692 0
-4691 4190 4692 0
-4691 -4190 -4692 0
4692 4226 -4370 0
4692 -4226 4370 0
-4692 4226 4370 0
-4692 -4226 -4370 0
4143 4156 -4693 0
4143 -4156 4693 0
-4143 4156 4693 0
-4143 -4156 -4693 0
4693 4210 -4371 0
4693 -4210 4371 0
-4693 4210 4371 0
-4693 -4210 -4371 0
4162 4170 -4694 0
4162 -4170 4694 0
-4162 4170 4694 0
-4162 -4170 -4694 0
4694 4216 -4695 0
4694 -4216 4695 0
-4694 4216 4695 0
-4694 -4216 -4695 0
4695 4231 -4696 0
4695 -4231 4696 0
-4695 4231 4696 0
-4695 -4231 -4696 0
4696 4237 -4697 0
4696 -4237 4697 0
-4696 4237 4697 0
-4696 -4237 -4697 0
4697 4244 -4698 0
4697 -4244 4698 0
-4697 4244 4698 0
-4697 -4244 -4698 0
4698 4248 -4372 0
4698 -4248 4372 0
-4698 4248 4372 0
-4698 -4248 -4372 0
4132 4174 -4699 0
4132 -4174 4699 0
-4132 4174 4699 0
-4132 -4174 -4699 0
4699 4249 -4373 0
4699 -4249 4373 0
-4699 4249 4373 0
-4699 -4249 -4373 0
4141 4152 -4700 0
4141 -4152 4700 0
-4141 4152 4700 0
-4141 -4152 -4700 0
4700 4163 -4701 0
4700 -4163 4701 0
-4700 4163 4701 0
-4700 -4163 -4701 0
4701 4176 -4702 0
4701 -4176 4702 0
-4701 4176 4702 0
-4701 -4176 -4702 0
4702 4190 -4703 0
4702 -4190 4703 0
-4702 4190 4703 0
-4702 -4190 -4703 0
4703 4194 -4704 0
4703 -4194 4704 0
-4703 4194 4704 0
-4703 -4194 -4704 0
4704 4230 -4374 0
4704 -4230 4374 0
-4704 4230 4374 0
-4704 -4230 -4374 0
4147 4160 -4705 0
4147 -4160 4705 0
-4147 4160 4705 0
-4147 -4160 -4705 0
4705 4214 -4375 0
4705 -4214 4375 0
-4705 4214 4375 0
-4705 -4214 -4375 0
4166 4174 -4706 0
4166 -4174 4706 0
-4166 4174 4706 0
-4166 -4174 -4706 0
4706 4220 -4707 0
4706 -4220 4707 0
-4706 4220 4707 0
-4706 -4220 -4707 0
4707 4235 -4708 0
4707 -4235 4708 0
-4707 4235 4708 0
-4707 -4235 -4708 0
4708 4241 -4709 0
4708 -4241 4709 0
-4708 4241 4709 0
-4708 -4241 -4709 0
4709 4248 -4710 0
4709 -4248 4710 0
-4709 4248 4710 0
-4709 -4248 -4710 0
4710 4252 -4376 0
4710 -4252 4376 0
-4710 4252 4376 0
-4710 -4252 -4376 0
4136 4178 -4711 0
4136 -4178 4711 0
-4136 4178 4711 0
-4136 -4178 -4711 0
4711 4253 -4377 0
4711 -4253 4377 0
-4711 4253 4377 0
-4711 -4253 -4377 0
4145 4156 -4712 0
4145 -4156 4712 0
-4145 4156 4712 0
-4145 -4156 -4712 0
4712 4167 -4713 0
4712 -4167 4713 0
-4712 4167 4713 0
-4712 -4167 -4713 0
4713 4180 -4714 0
4713 -4180 4714 0
-4713 4180 4714 0
-4713 -4180 -4714 0
4714 4194 -4715 0
4714 -4194 4715 0
-4714 4194 4715 0
-4714 -4194 -4715 0
4715 4198 -4716 0
4715 -4198 4716 0
-4715 4198 4716 0
-4715 -4198 -4716 0
4716 4234 -4378 0
4716 -4234 4378 0
-4716 4234 4378 0
-4716 -4234 -4378 0
4151 4164 -4717 0
4151 -4164 4717 0
-4151 4164 4717 0
-4151 -4164 -4717 0
4717 4218 -4379 0
4717 -4218 4379 0
-4717 4218 4379 0
-4717 -4218 -4379 0
4170 4178 -4718 0
4170 -4178 4718 0
-4170 4178 4718 0
-4170 -4178 -4718 0
4718 4224 -4719 0
4718 -4224 4719 0
-4718 4224 4719 0
-4718 -4224 -4719 0
4719 4239 -4720 0
4719 -4239 4720 0
-4719 4239 4720 0
-4719 -4239 -4720 0
4720 4245 -4721 0
4720 -4245 4721 0
-4720 4245 4721 0
-4720 -4245 -4721 0
4721 4252 -4722 0
4721 -4252 4722 0
-4721 4252 4722 0
-4721 -4252 -4722 0
4722 4256 -4380 0
4722 -4256 4380 0
-4722 4256 4380 0
-4722 -4256 -4380 0
4140 4182 -4723 0
4140 -4182 4723 0
-4140 4182 4723 0
-4140 -4182 -4723 0
4723 4257 -4381 0
4723 -4257 4381 0
-4723 4257 4381 0
-4723 -4257 -4381 0
4149 4160 -4724 0
4149 -4160 4724 0
-4149 4160 4724 0
-4149 -4160 -4724 0
4724 4171 -4725 0
4724 -4171 4725 0
-4724 4171 4725 0
-4724 -4171 -4725 0
4725 4184 -4726 0
4725 -4184 4726 0
-4725 4184 4726 0
-4725 -4184 -4726 0
4726 4198 -4727 0
4726 -4198 4727 0
-4726 4198 4727 0
-4726 -4198 -4727 0
4727 4202 -4728 0
4727 -4202 4728 0
-4727 4202 4728 0
-4727 -4202 -4728 0
4728 4238 -4382 0
4728 -4238 4382 0
-4728 4238 4382 0
-4728 -4238 -4382 0
4155 4168 -4729 0
4155 -4168 4729 0
-4155 4168 4729 0
-4155 -4168 -4729 0
4729 4222 -4383 0
4729 -4222 4383 0
-4729 4222 4383 0
-4729 -4222 -4383 0
4132 4174 -4730 0
4132 -4174 4730 0
-4132 4174 4730 0
-4132 -4174 -4730 0
4730 4182 -4731 0
4730 -4182 4731 0
-4730 4182 4731 0
-4730 -4182 -4731 0
4731 4228 -4732 0
4731 -4228 4732 0
-4731 4228 4732 0
-4731 -4228 -4732 0
4732 4243 -4733 0
4732 -4243 4733 0
-4732 4243 4733 0
-4732 -4243 -4733 0
4733 4249 -4734 0
4733 -4249 4734 0
-4733 4249 4734 0
-4733 -4249 -4734 0
4734 4256 -4384 0
4734 -4256 4384 0
-4734 4256 4384 0
-4734 -4256 -4384 0
4133 4144 -4735 0
4133 -4144 4735 0
-4133 4144 4735 0
-4133 -4144 -4735 0
4735 4186 -4385 0
4735 -4186 4385 0
-4735 4186 4385 0
-4735 -4186 -4385 0
4153 4164 -4736 0
4153 -4164 4736 0
-4153 4164 4736 0
-4153 -4164 -4736 0
4736 4175 -4737 0
4736 -4175 4737 0
-4736 4175 4737 0
-4736 -4175 -4737 0
4737 4188 -4738 0
4737 -4188 4738 0
-4737 4188 4738 0
-4737 -4188 -4738 0
4738 4202 -4739 0
4738 -4202 4739 0
-4738 4202 4739 0
-4738 -4202 -4739 0
4739 4206 -4740 0
4739 -4206 4740 0
-4739 4206 4740 0
-4739 -4206 -4740 0
4740 4242 -4386 0
4740 -4242 4386 0
-4740 4242 4386 0
-4740 -4242 -4386 0
4869 -4741 0
-4869 4741 0
4870 -4742 0
-4870 4742 0
4871 -4743 0
-4871 4743 0
4872 -4744 0
-4872 4744 0
4873 -4745 0
-4873 4745 0
4874 -4746 0
-4874 4746 0
4875 -4747 0
-4875 4747 0
4876 -4748 0
-4876 4748 0
4877 -4749 0
-4877 4749 0
4878 -4750 0
-4878 4750 0
4879 -4751 0
-4879 4751 0
4880 -4752 0
-4880 4752 0
4881 -4753 0
-4881 4753 0
4882 -4754 0
-4882 4754 0
4883 -4755 0
-4883 4755 0
4884 -4756 0
-4884 4756 0
4885 -4757 0
-4885 4757 0
4886 -4758 0
-4886 4758 0
4887 -4759 0
-4887 4759 0
4888 -4760 0
-4888 4760 0
4889 -4761 0
-4889 4761 0
4890 -4762 0
-4890 4762 0
4891 -4763 0
-4891 4763 0
4892 -4764 0
-4892 4764 0
4893 -4765 0
-4893 4765 0
4894 -4766 0
-4894 4766 0
4895 -4767 0
-4895 4767 0
4896 -4768 0
-4896 4768 0
4897 -4769 0
-4897 4769 0
4898 -4770 0
-4898 4770 0
4899 -4771 0
-4899 4771 0
4900 -4772 0
-4900 4772 0
4901 -4773 0
-4901 4773 0
4902 -4774 0
-4902 4774 0
4903 -4775 0
-4903 4775 0
4904 -4776 0
-4904 4776 0
4905 -4777 0
-4905 4777 0
4906 -4778 0
-4906 4778 0
4907 -4779 0
-4907 4779 0
4908 -4780 0
-4908 4780 0
4909 -4781 0
-4909 4781 0
4910 -4782 0
-4910 4782 0
4911 -4783 0
-4911 4783 0
4912 -4784 0
-4912 4784 0
4913 -4785 0
-4913 4785 0
4914 -4786 0
-4914 4786 0
4915 -4787 0
-4915 4787 0
4916 -4788 0
-4916 4788 0
4917 -4789 0
-4917 4789 0
4918 -4790 0
-4918 4790 0
4919 -4791 0
-4919 4791 0
4920 -4792 0
-4920 4792 0
4921 -4793 0
-4921 4793 0
4922 -4794 0
-4922 4794 0
4923 -4795 0
-4923 4795 0
4924 -4796 0
-4924 4796 0
4925 -4797 0
-4925 4797 0
4926 -4798 0
-4926 4798 0
4927 -4799 0
-4927 4799 0
4928 -4800 0
-4928 4800 0
4929 -4801 0
-4929 4801 0
4930 -4802 0
-4930 4802 0
4931 -4803 0
-4931 4803 0
4932 -4804 0
-4932 4804 0
4933 -4805 0
-4933 4805 0
4934 -4806 0
-4934 4806 0
4935 -4807 0
-4935 4807 0
4936 -4808 0
-4936 4808 0
4937 -4809 0
-4937 4809 0
4938 -4810 0
-4938 4810 0
4939 -4811 0
-4939 4811 0
4940 -4812 0
-4940 4812 0
4941 -4813 0
-4941 4813 0
4942 -4814 0
-4942 4814 0
4943 -4815 0
-4943 4815 0
4944 -4816 0
-4944 4816 0
4945 -4817 0
-4945 4817 0
4946 -4818 0
-4946 4818 0
4947 -4819 0
-4947 4819 0
4948 -4820 0
-4948 4820 0
4949 -4821 0
-4949 4821 0
4950 -4822 0
-4950 4822 0
4951 -4823 0
-4951 4823 0
4952 -4824 0
-4952 4824 0
4953 -4825 0
-4953 4825 0
4954 -4826 0
-4954 4826 0
4955 -4827 0
-4955 4827 0
4956 -4828 0
-4956 4828 0
4957 -4829 0
-4957 4829 0
4958 -4830 0
-4958 4830 0
4959 -4831 0
-4959 4831 0
4960 -4832 0
-4960 4832 0
4961 -4833 0
-4961 4833 0
4962 -4834 0
-4962 4834 0
4963 -4835 0
-4963 4835 0
4964 -4836 0
-4964 4836 0
4965 -4837 0
-4965 4837 0
4966 -4838 0
-4966 4838 0
4967 -4839 0
-4967 4839 0
4968 -4840 0
-4968 4840 0
4969 -4841 0
-4969 4841 0
4970 -4842 0
-4970 4842 0
4971 -4843 0
-4971 4843 0
4972 -4844 0
-4972 4844 0
4973 -4845 0
-4973 4845 0
4974 -4846 0
-4974 4846 0
4975 -4847 0
-4975 4847 0
4976 -4848 0
-4976 4848 0
4977 -4849 0
-4977 4849 0
4978 -4850 0
-4978 4850 0
4979 -4851 0
-4979 4851 0
4980 -4852 0
-4980 4852 0
4981 -4853 0
-4981 4853 0
4982 -4854 0
-4982 4854 0
4983 -4855 0
-4983 4855 0
4984 -4856 0
-4984 4856 0
4985 -4857 0
-4985 4857 0
4986 -4858 0
-4986 4858 0
4987 -4859 0
-4987 4859 0
4988 -4860 0
-4988 4860 0
4989 -4861 0
-4989 4861 0
4990 -4862 0
-4990 4862 0
4991 -4863 0
-4991 4863 0
4992 -4864 0
-4992 4864 0
4993 -4865 0
-4993 4865 0
4994 -4866 0
-4994 4866 0
4995 -4867 0
-4995 4867 0
4996 -4868 0
-4996 4868 0
-5381 5253 0
5381 -5253 0
-5382 5254 0
5382 -5254 0
-5383 5255 0
5383 -5255 0
-5384 5256 0
5384 -5256 0
-5385 5257 0
5385 -5257 0
-5386 5258 0
5386 -5258 0
-5387 5259 0
5387 -5259 0
-5388 5260 0
5388 -5260 0
-5389 5261 0
5389 -5261 0
-5390 5262 0
5390 -5262 0
-5391 5263 0
5391 -5263 0
-5392 5264 0
5392 -5264 0
-5393 5265 0
5393 -5265 0
-5394 5266 0
5394 -5266 0
-5395 5267 0
5395 -5267 0
-5396 5268 0
5396 -5268 0
-5397 5269 0
5397 -5269 0
-5398 5270 0
5398 -5270 0
-5399 5271 0
5399 -5271 0
-5400 5272 0
5400 -5272 0
-5401 5273 0
5401 -5273 0
-5402 5274 0
5402 -5274 0
-5403 5275 0
5403 -5275 0
-5404 5276 0
5404 -5276 0
-5405 5277 0
5405 -5277 0
-5406 5278 0
5406 -5278 0
-5407 5279 0
5407 -5279 0
-5408 5280 0
5408 -5280 0
-5409 5281 0
5409 -5281 0
-5410 5282 0
5410 -5282 0
-5411 5283 0
5411 -5283 0
-5412 5284 0
5412 -5284 0
-5413 5285 0
5413 -5285 0
-5414 5286 0
5414 -5286 0
-5415 5287 0
5415 -5287 0
-5416 5288 0
5416 -5288 0
-5417 5289 0
5417 -5289 0
-5418 5290 0
5418 -5290 0
-5419 5291 0
5419 -5291 0
-5420 5292 0
5420 -5292 0
-5421 5293 0
5421 -5293 0
-5422 5294 0
5422 -5294 0
-5423 5295 0
5423 -5295 0
-5424 5296 0
5424 -5296 0
-5425 5297 0
5425 -5297 0
-5426 5298 0
5426 -5298 0
-5427 5299 0
5427 -5299 0
-5428 5300 0
5428 -5300 0
-5429 5301 0
5429 -5301 0
-5430 5302 0
5430 -5302 0
-5431 5303 0
5431 -5303 0
-5432 5304 0
5432 -5304 0
-5433 5305 0
5433 -5305 0
-5434 5306 0
5434 -5306 0
-5435 5307 0
5435 -5307 0
-5436 5308 0
5436 -5308 0
-5437 5309 0
5437 -5309 0
-5438 5310 0
5438 -5310 0
-5439 5311 0
5439 -5311 0
-5440 5312 0
5440 -5312 0
-5441 5313 0
5441 -5313 0
-5442 5314 0
5442 -5314 0
-5443 5315 0
5443 -5315 0
-5444 5316 0
5444 -5316 0
-5445 5317 0
5445 -5317 0
-5446 5318 0
5446 -5318 0
-5447 5319 0
5447 -5319 0
-5448 5320 0
5448 -5320 0
-5449 5321 0
5449 -5321 0
-5450 5322 0
5450 -5322 0
-5451 5323 0
5451 -5323 0
-5452 5324 0
5452 -5324 0
-5453 5325 0
5453 -5325 0
-5454 5326 0
5454 -5326 0
-5455 5327 0
5455 -5327 0
-5456 5328 0
5456 -5328 0
-5457 5329 0
5457 -5329 0
-5458 5330 0
5458 -5330 0
-5459 5331 0
5459 -5331 0
-5460 5332 0
5460 -5332 0
-5461 5333 0
5461 -5333 0
-5462 5334 0
5462 -5334 0
-5463 5335 0
5463 -5335 0
-5464 5336 0
5464 -5336 0
-5465 5337 0
5465 -5337 0
-5466 5338 0
5466 -5338 0
-5467 5339 0
5467 -5339 0
-5468 5340 0
5468 -5340 0
-5469 5341 0
5469 -5341 0
-5470 5342 0
5470 -5342 0
-5471 5343 0
5471 -5343 0
-5472 5344 0
5472 -5344 0
-5473 5345 0
5473 -5345 0
-5474 5346 0
5474 -5346 0
-5475 5347 0
5475 -5347 0
-5476 5348 0
5476 -5348 0
-5477 5349 0
5477 -5349 0
-5478 5350 0
5478 -5350 0
-5479 5351 0
5479 -5351 0
-5480 5352 0
5480 -5352 0
-5481 5353 0
5481 -5353 0
-5482 5354 0
5482 -5354 0
-5483 5355 0
5483 -5355 0
-5484 5356 0
5484 -5356 0
-5485 5357 0
5485 -5357 0
-5486 5358 0
5486 -5358 0
-5487 5359 0
5487 -5359 0
-5488 5360 0
5488 -5360 0
-5489 5361 0
5489 -5361 0
-5490 5362 0
5490 -5362 0
-5491 5363 0
5491 -5363 0
-5492 5364 0
5492 -5364 0
-5493 5365 0
5493 -5365 0
-5494 5366 0
5494 -5366 0
-5495 5367 0
5495 -5367 0
-5496 5368 0
5496 -5368 0
-5497 5369 0
5497 -5369 0
-5498 5370 0
5498 -5370 0
-5499 5371 0
5499 -5371 0
-5500 5372 0
5500 -5372 0
-5501 5373 0
5501 -5373 0
-5502 5374 0
5502 -5374 0
-5503 5375 0
5503 -5375 0
-5504 5376 0
5504 -5376 0
-5505 5377 0
5505 -5377 0
-5506 5378 0
5506 -5378 0
-5507 5379 0
5507 -5379 0
-5508 5380 0
5508 -5380 0
5510 5513 5514 5516 -5518 0
-5510 5511 -5513 -5516 5518 0
5510 -5511 -5513 -5514 5515 -5518 0
5510 5511 5514 5515 5516 -5517 0
-5509 -5511 -5512 -5513 -5514 -5515 5516 0
5509 -5511 -5512 5514 5515 5516 0
5512 -5513 5514 -5515 5518 0
5510 5511 -5514 -5515 5516 5518 0
5510 -5511 -5512 -5514 5515 -5516 0
-5510 5511 -5513 5514 -5515 5518 0
5511 5512 -5513 -5514 -5515 -5518 0
-5509 -5510 -5513 -5514 -5515 -5516 0
-5510 -5511 5514 -5516 -5518 0
5509 5510 5511 -5516 -5518 0
-5510 -5511 -5512 5513 5516 5518 0
5510 -5511 -5513 5514 -5515 5518 0
5509 -5510 -5512 -5513 -5514 -5515 5516 0
5513 5514 5515 -5517 0
-5513 -5514 5515 -5516 5518 0
5509 5511 -5512 5513 5514 5516 0
5510 -5511 5515 5516 -5518 0
5511 -5513 5514 5515 -5516 -5518 0
-5509 -5510 -5512 5514 5515 5516 0
5510 5511 5512 -5515 5516 0
5509 -5512 -5513 5515 -5518 0
5510 -5511 -5512 5514 -5515 -5516 0
5509 5510 5511 -5513 5514 5515 0
-5509 -5510 5512 -5516 5518 0
5512 5513 -5514 -5515 5518 0
-5509 -5510 5512 5516 -5518 0
5509 5510 5512 -5517 0
5509 -5510 -5511 -5516 -5518 0
5511 5513 5514 -5515 -5518 0
5509 -5511 -5515 5516 -5518 0
-5509 -5511 5513 -5514 5515 -5516 0
-5509 -5513 -5514 5516 -5518 0
-5512 5513 -5514 -5515 -5518 0
5510 -5511 5513 -5514 -5515 -5516 0
-5509 -5510 -5512 5513 5515 5516 0
5510 5512 -5513 5514 -5515 -5516 0
5509 -5510 -5511 -5512 5513 5514 0
-5509 5511 -5512 -5513 -5514 -5516 0
5509 -5510 -5512 -5513 5515 -5516 0
5512 5515 5516 -5518 0
-5512 -5513 5514 -5515 -5518 0
-5509 5510 5511 -5512 5513 5515 0
5509 5510 5511 5513 5514 5519 0
-5512 -5513 -5516 -5518 0
5509 5510 5513 5515 5516 5519 0
-5509 5510 -5512 5513 5514 5516 0
-5509 5510 -5511 5512 -5516 0
-5512 -5519 0
5512 -5513 -5514 5515 5518 0
5511 5513 -5514 5515 5517 0
-5509 5510 5511 5512 5516 0
5512 5513 5514 5515 5519 0
-5516 -5519 0
5509 5511 5512 -5517 0
-5511 -5519 0
-5510 -5519 0
-5517 -5518 0
5517 5518 5519 0
-5510 5511 -5514 -5515 -5516 0
5521 5524 5525 5527 -5529 0
-5521 5522 -5524 -5527 5529 0
5521 -5522 -5524 -5525 5526 -5529 0
5521 5522 5525 5526 5527 -5528 0
-5520 -5522 -5523 -5524 -5525 -5526 5527 0
5520 -5522 -5523 5525 5526 5527 0
5523 -5524 5525 -5526 5529 0
5521 5522 -5525 -5526 5527 5529 0
5521 -5522 -5523 -5525 5526 -5527 0
-5521 5522 -5524 5525 -5526 5529 0
5522 5523 -5524 -5525 -5526 -5529 0
-5520 -5521 -5524 -5525 -5526 -5527 0
-5521 -5522 5525 -5527 -5529 0
5520 5521 5522 -5527 -5529 0
-5521 -5522 -5523 5524 5527 5529 0
5521 -5522 -5524 5525 -5526 5529 0
5520 -5521 -5523 -5524 -5525 -5526 5527 0
5524 5525 5526 -5528 0
-5524 -5525 5526 -5527 5529 0
5520 5522 -5523 5524 5525 5527 0
5521 -5522 5526 5527 -5529 0
5522 -5524 5525 5526 -5527 -5529 0
-5520 -5521 -5523 5525 5526 5527 0
5521 5522 5523 -5526 5527 0
5520 -5523 -5524 5526 -5529 0
5521 -5522 -5523 5525 -5526 -5527 0
5520 5521 5522 -5524 5525 5526 0
-5520 -5521 5523 -5527 5529 0
5523 5524 -5525 -5526 5529 0
-5520 -5521 5523 5527 -5529 0
5520 5521 5523 -5528 0
5520 -5521 -5522 -5527 -5529 0
5522 5524 5525 -5526 -5529 0
5520 -5522 -5526 5527 -5529 0
-5520 -5522 5524 -5525 5526 -5527 0
-5520 -5524 -5525 5527 -5529 0
-5523 5524 -5525 -5526 -5529 0
5521 -5522 5524 -5525 -5526 -5527 0
-5520 -5521 -5523 5524 5526 5527 0
5521 5523 -5524 5525 -5526 -5527 0
5520 -5521 -5522 -5523 5524 5525 0
-5520 5522 -5523 -5524 -5525 -5527 0
5520 -5521 -5523 -5524 5526 -5527 0
5523 5526 5527 -5529 0
-5523 -5524 5525 -5526 -5529 0
-5520 5521 5522 -5523 5524 5526 0
5520 5521 5522 5524 5525 5530 0
-5523 -5524 -5527 -5529 0
5520 5521 5524 5526 5527 5530 0
-5520 5521 -5523 5524 5525 5527 0
-5520 5521 -5522 5523 -5527 0
-5523 -5530 0
5523 -5524 -5525 5526 5529 0
5522 5524 -5525 5526 5528 0
-5520 5521 5522 5523 5527 0
5523 5524 5525 5526 5530 0
-5527 -5530 0
5520 5522 5523 -5528 0
-5522 -5530 0
-5521 -5530 0
-5528 -5529 0
5528 5529 5530 0
-5521 5522 -5525 -5526 -5527 0
5532 5535 5536 5538 -5540 0
-5532 5533 -5535 -5538 5540 0
5532 -5533 -5535 -5536 5537 -5540 0
5532 5533 5536 5537 5538 -5539 0
-5531 -5533 -5534 -5535 -5536 -5537 5538 0
5531 -5533 -5534 5536 5537 5538 0
5534 -5535 5536 -5537 5540 0
5532 5533 -5536 -5537 5538 5540 0
5532 -5533 -5534 -5536 5537 -5538 0
-5532 5533 -5535 5536 -5537 5540 0
5533 5534 -5535 -5536 -5537 -5540 0
-5531 -5532 -5535 -5536 -5537 -5538 0
-5532 -5533 5536 -5538 -5540 0
5531 5532 5533 -5538 -5540 0
-5532 -5533 -5534 5535 5538 5540 0
5532 -5533 -5535 5536 -5537 5540 0
5531 -5532 -5534 -5535 -5536 -5537 5538 0
5535 5536 5537 -5539 0
-5535 -5536 5537 -5538 5540 0
5531 5533 -5534 5535 5536 5538 0
5532 -5533 5537 5538 -5540 0
5533 -5535 5536 5537 -5538 -5540 0
-5531 -5532 -5534 5536 5537 5538 0
5532 5533 5534 -5537 5538 0
5531 -5534 -5535 5537 -5540 0
5532 -5533 -5534 5536 -5537 -5538 0
5531 5532 5533 -5535 5536 5537 0
-5531 -5532 5534 -5538 5540 0
5534 5535 -5536 -5537 5540 0
-5531 -5532 5534 5538 -5540 0
5531 5532 5534 -5539 0
5531 -5532 -5533 -5538 -5540 0
5533 5535 5536 -5537 -5540 0
5531 -5533 -5537 5538 -5540 0
-5531 -5533 5535 -5536 5537 -5538 0
-5531 -5535 -5536 5538 -5540 0
-5534 5535 -5536 -5537 -5540 0
5532 -5533 5535 -5536 -5537 -5538 0
-5531 -5532 -5534 5535 5537 5538 0
5532 5534 -5535 5536 -5537 -5538 0
5531 -5532 -5533 -5534 5535 5536 0
-5531 5533 -5534 -5535 -5536 -5538 0
5531 -5532 -5534 -5535 5537 -5538 0
5534 5537 5538 -5540 0
-5534 -5535 5536 -5537 -5540 0
-5531 5532 5533 -5534 5535 5537 0
5531 5532 5533 5535 5536 5541 0
-5534 -5535 -5538 -5540 0
5531 5532 5535 5537 5538 5541 0
-5531 5532 -5534 5535 5536 5538 0
-5531 5532 -5533 5534 -5538 0
-5534 -5541 0
5534 -5535 -5536 5537 5540 0
5533 5535 -5536 5537 5539 0
-5531 5532 5533 5534 5538 0
5534 5535 5536 5537 5541 0
-5538 -5541 0
5531 5533 5534 -5539 0
-5533 -5541 0
-5532 -5541 0
-5539 -5540 0
5539 5540 5541 0
-5532 5533 -5536 -5537 -5538 0
5543 5546 5547 5549 -5551 0
-5543 5544 -5546 -5549 5551 0
5543 -5544 -5546 -5547 5548 -5551 0
5543 5544 5547 5548 5549 -5550 0
-5542 -5544 -5545 -5546 -5547 -5548 5549 0
5542 -5544 -5545 5547 5548 5549 0
5545 -5546 5547 -5548 5551 0
5543 5544 -5547 -5548 5549 5551 0
5543 -5544 -5545 -5547 5548 -5549 0
-5543 5544 -5546 5547 -5548 5551 0
5544 5545 -5546 -5547 -5548 -5551 0
-5542 -5543 -5546 -5547 -5548 -5549 0
-5543 -5544 5547 -5549 -5551 0
5542 5543 5544 -5549 -5551 0
-5543 -5544 -5545 5546 5549 5551 0
5543 -5544 -5546 5547 -5548 5551 0
5542 -5543 -5545 -5546 -5547 -5548 5549 0
5546 5547 5548 -5550 0
-5546 -5547 5548 -5549 5551 0
5542 5544 -5545 5546 5547 5549 0
5543 -5544 5548 5549 -5551 0
5544 -5546 5547 5548 -5549 -5551 0
-5542 -5543 -5545 5547 5548 5549 0
5543 5544 5545 -5548 5549 0
5542 -5545 -5546 5548 -5551 0
5543 -5544 -5545 5547 -5548 -5549 0
5542 5543 5544 -5546 5547 5548 0
-5542 -5543 5545 -5549 5551 0
5545 5546 -5547 -5548 5551 0
-5542 -5543 5545 5549 -5551 0
5542 5543 5545 -5550 0
5542 -5543 -5544 -5549 -5551 0
5544 5546 5547 -5548 -5551 0
5542 -5544 -5548 5549 -5551 0
-5542 -5544 5546 -5547 5548 -5549 0
-5542 -5546 -5547 5549 -5551 0
-5545 5546 -5547 -5548 -5551 0
5543 -5544 5546 -5547 -5548 -5549 0
-5542 -5543 -5545 5546 5548 5549 0
5543 5545 -5546 5547 -5548 -5549 0
5542 -5543 -5544 -5545 5546 5547 0
-5542 5544 -5545 -5546 -5547 -5549 0
5542 -5543 -5545 -5546 5548 -5549 0
5545 5548 5549 -5551 0
-5545 -5546 5547 -5548 -5551 0
-5542 5543 5544 -5545 5546 5548 0
5542 5543 5544 5546 5547 5552 0
-5545 -5546 -5549 -5551 0
5542 5543 5546 5548 5549 5552 0
-5542 5543 -5545 5546 5547 5549 0
-5542 5543 -5544 5545 -5549 0
-5545 -5552 0
5545 -5546 -5547 5548 5551 0
5544 5546 -5547 5548 5550 0
-5542 5543 5544 5545 5549 0
5545 5546 5547 5548 5552 0
-5549 -5552 0
5542 5544 5545 -5550 0
-5544 -5552 0
-5543 -5552 0
-5550 -5551 0
5550 5551 5552 0
-5543 5544 -5547 -5548 -5549 0
5554 5557 5558 5560 -5562 0
-5554 5555 -5557 -5560 5562 0
5554 -5555 -5557 -5558 5559 -5562 0
5554 5555 5558 5559 5560 -5561 0
-5553 -5555 -5556 -5557 -5558 -5559 5560 0
5553 -5555 -5556 5558 5559 5560 0
5556 -5557 5558 -5559 5562 0
5554 5555 -5558 -5559 5560 5562 0
5554 -5555 -5556 -5558 5559 -5560 0
-5554 5555 -5557 5558 -5559 5562 0
5555 5556 -5557 -5558 -5559 -5562 0
-5553 -5554 -5557 -5558 -5559 -5560 0
-5554 -5555 5558 -5560 -5562 0
5553 5554 5555 -5560 -5562 0
-5554 -5555 -5556 5557 5560 5562 0
5554 -5555 -5557 5558 -5559 5562 0
5553 -5554 -5556 -5557 -5558 -5559 5560 0
5557 5558 5559 -5561 0
-5557 -5558 5559 -5560 5562 0
5553 5555 -5556 5557 5558 5560 0
5554 -5555 5559 5560 -5562 0
5555 -5557 5558 5559 -5560 -5562 0
-5553 -5554 -5556 5558 5559 5560 0
5554 5555 5556 -5559 5560 0
5553 -5556 -5557 5559 -5562 0
5554 -5555 -5556 5558 -5559 -5560 0
5553 5554 5555 -5557 5558 5559 0
-5553 -5554 5556 -5560 5562 0
5556 5557 -5558 -5559 5562 0
-5553 -5554 5556 5560 -5562 0
5553 5554 5556 -5561 0
5553 -5554 -5555 -5560 -5562 0
5555 5557 5558 -5559 -5562 0
5553 -5555 -5559 5560 -5562 0
-5553 -5555 5557 -5558 5559 -5560 0
-5553 -5557 -5558 5560 -5562 0
-5556 5557 -5558 -5559 -5562 0
5554 -5555 5557 -5558 -5559 -5560 0
-5553 -5554 -5556 5557 5559 5560 0
5554 5556 -5557 5558 -5559 -5560 0
5553 -5554 -5555 -5556 5557 5558 0
-5553 5555 -5556 -5557 -5558 -5560 0
5553 -5554 -5556 -5557 5559 -5560 0
5556 5559 5560 -5562 0
-5556 -5557 5558 -5559 -5562 0
-5553 5554 5555 -5556 5557 5559 0
5553 5554 5555 5557 5558 5563 0
-5556 -5557 -5560 -5562 0
5553 5554 5557 5559 5560 5563 0
-5553 5554 -5556 5557 5558 5560 0
-5553 5554 -5555 5556 -5560 0
-5556 -5563 0
5556 -5557 -5558 5559 5562 0
5555 5557 -5558 5559 5561 0
-5553 5554 5555 5556 5560 0
5556 5557 5558 5559 5563 0
-5560 -5563 0
5553 5555 5556 -5561 0
-5555 -5563 0
-5554 -5563 0
-5561 -5562 0
5561 5562 5563 0
-5554 5555 -5558 -5559 -5560 0
5565 5568 5569 5571 -5573 0
-5565 5566 -5568 -5571 5573 0
5565 -5566 -5568 -5569 5570 -5573 0
5565 5566 5569 5570 5571 -5572 0
-5564 -5566 -5567 -5568 -5569 -5570 5571 0
5564 -5566 -5567 5569 5570 5571 0
5567 -5568 5569 -5570 5573 0
5565 5566 -5569 -5570 5571 5573 0
5565 -5566 -5567 -5569 5570 -5571 0
-5565 5566 -5568 5569 -5570 5573 0
5566 5567 -5568 -5569 -5570 -5573 0
-5564 -5565 -5568 -5569 -5570 -5571 0
-5565 -5566 5569 -5571 -5573 0
5564 5565 5566 -5571 -5573 0
-5565 -5566 -5567 5568 5571 5573 0
5565 -5566 -5568 5569 -5570 5573 0
5564 -5565 -5567 -5568 -5569 -5570 5571 0
5568 5569 5570 -5572 0
-5568 -5569 5570 -5571 5573 0
5564 5566 -5567 5568 5569 5571 0
5565 -5566 5570 5571 -5573 0
5566 -5568 5569 5570 -5571 -5573 0
-5564 -5565 -5567 5569 5570 5571 0
5565 5566 5567 -5570 5571 0
5564 -5567 -5568 5570 -5573 0
5565 -5566 -5567 5569 -5570 -5571 0
5564 5565 5566 -5568 5569 5570 0
-5564 -5565 5567 -5571 5573 0
5567 5568 -5569 -5570 5573 0
-5564 -5565 5567 5571 -5573 0
5564 5565 5567 -5572 0
5564 -5565 -5566 -5571 -5573 0
5566 5568 5569 -5570 -5573 0
5564 -5566 -5570 5571 -5573 0
-5564 -5566 5568 -5569 5570 -5571 0
-5564 -5568 -5569 5571 -5573 0
-5567 5568 -5569 -5570 -5573 0
5565 -5566 5568 -5569 -5570 -5571 0
-5564 -5565 -5567 5568 5570 5571 0
5565 5567 -5568 5569 -5570 -5571 0
5564 -5565 -5566 -5567 5568 5569 0
-5564 5566 -5567 -5568 -5569 -5571 0
5564 -5565 -5567 -5568 5570 -5571 0
5567 5570 5571 -5573 0
-5567 -5568 5569 -5570 -5573 0
-5564 5565 5566 -5567 5568 5570 0
5564 5565 5566 5568 5569 5574 0
-5567 -5568 -5571 -5573 0
5564 5565 5568 5570 5571 5574 0
-5564 5565 -5567 5568 5569 5571 0
-5564 5565 -5566 5567 -5571 0
-5567 -5574 0
5567 -5568 -5569 5570 5573 0
5566 5568 -5569 5570 5572 0
-5564 5565 5566 5567 5571 0
5567 5568 5569 5570 5574 0
-5571 -5574 0
5564 5566 5567 -5572 0
-5566 -5574 0
-5565 -5574 0
-5572 -5573 0
5572 5573 5574 0
-5565 5566 -5569 -5570 -5571 0
5576 5579 5580 5582 -5584 0
-5576 5577 -5579 -5582 5584 0
5576 -5577 -5579 -5580 5581 -5584 0
5576 5577 5580 5581 5582 -5583 0
-5575 -5577 -5578 -5579 -5580 -5581 5582 0
5575 -5577 -5578 5580 5581 5582 0
5578 -5579 5580 -5581 5584 0
5576 5577 -5580 -5581 5582 5584 0
5576 -5577 -5578 -5580 5581 -5582 0
-5576 5577 -5579 5580 -5581 5584 0
5577 5578 -5579 -5580 -5581 -5584 0
-5575 -5576 -5579 -5580 -5581 -5582 0
-5576 -5577 5580 -5582 -5584 0
5575 5576 5577 -5582 -5584 0
-5576 -5577 -5578 5579 5582 5584 0
5576 -5577 -5579 5580 -5581 5584 0
5575 -5576 -5578 -5579 -5580 -5581 5582 0
5579 5580 5581 -5583 0
-5579 -5580 5581 -5582 5584 0
5575 5577 -5578 5579 5580 5582 0
5576 -5577 5581 5582 -5584 0
5577 -5579 5580 5581 -5582 -5584 0
-5575 -5576 -5578 5580 5581 5582 0
5576 5577 5578 -5581 5582 0
5575 -5578 -5579 5581 -5584 0
5576 -5577 -5578 5580 -5581 -5582 0
5575 5576 5577 -5579 5580 5581 0
-5575 -5576 5578 -5582 5584 0
5578 5579 -5580 -5581 5584 0
-5575 -5576 5578 5582 -5584 0
5575 5576 5578 -5583 0
5575 -5576 -5577 -5582 -5584 0
5577 5579 5580 -5581 -5584 0
5575 -5577 -5581 5582 -5584 0
-5575 -5577 5579 -5580 5581 -5582 0
-5575 -5579 -5580 5582 -5584 0
-5578 5579 -5580 -5581 -5584 0
5576 -5577 5579 -5580 -5581 -5582 0
-5575 -5576 -5578 5579 5581 5582 0
5576 5578 -5579 5580 -5581 -5582 0
5575 -5576 -5577 -5578 5579 5580 0
-5575 5577 -5578 -5579 -5580 -5582 0
5575 -5576 -5578 -5579 5581 -5582 0
5578 5581 5582 -5584 0
-5578 -5579 5580 -5581 -5584 0
-5575 5576 5577 -5578 5579 5581 0
5575 5576 5577 5579 5580 5585 0
-5578 -5579 -5582 -5584 0
5575 5576 5579 5581 5582 5585 0
-5575 5576 -5578 5579 5580 5582 0
-5575 5576 -5577 5578 -5582 0
-5578 -5585 0
5578 -5579 -5580 5581 5584 0
5577 5579 -5580 5581 5583 0
-5575 5576 5577 5578 5582 0
5578 5579 5580 5581 5585 0
-5582 -5585 0
5575 5577 5578 -5583 0
-5577 -5585 0
-5576 -5585 0
-5583 -5584 0
5583 5584 5585 0
-5576 5577 -5580 -5581 -5582 0
5587 5590 5591 5593 -5595 0
-5587 5588 -5590 -5593 5595 0
5587 -5588 -5590 -5591 5592 -5595 0
5587 5588 5591 5592 5593 -5594 0
-5586 -5588 -5589 -5590 -5591 -5592 5593 0
5586 -5588 -5589 5591 5592 5593 0
5589 -5590 5591 -5592 5595 0
5587 5588 -5591 -5592 5593 5595 0
5587 -5588 -5589 -5591 5592 -5593 0
-5587 5588 -5590 5591 -5592 5595 0
5588 5589 -5590 -5591 -5592 -5595 0
-5586 -5587 -5590 -5591 -5592 -5593 0
-5587 -5588 5591 -5593 -5595 0
5586 5587 5588 -5593 -5595 0
-5587 -5588 -5589 5590 5593 5595 0
5587 -5588 -5590 5591 -5592 5595 0
5586 -5587 -5589 -5590 -5591 -5592 5593 0
5590 5591 5592 -5594 0
-5590 -5591 5592 -5593 5595 0
5586 5588 -5589 5590 5591 5593 0
5587 -5588 5592 5593 -5595 0
5588 -5590 5591 5592 -5593 -5595 0
-5586 -5587 -5589 5591 5592 5593 0
5587 5588 5589 -5592 5593 0
5586 -5589 -5590 5592 -5595 0
5587 -5588 -5589 5591 -5592 -5593 0
5586 5587 5588 -5590 5591 5592 0
-5586 -5587 5589 -5593 5595 0
5589 5590 -5591 -5592 5595 0
-5586 -5587 5589 5593 -5595 0
5586 5587 5589 -5594 0
5586 -5587 -5588 -5593 -5595 0
5588 5590 5591 -5592 -5595 0
5586 -5588 -5592 5593 -5595 0
-5586 -5588 5590 -5591 5592 -5593 0
-5586 -5590 -5591 5593 -5595 0
-5589 5590 -5591 -5592 -5595 0
5587 -5588 5590 -5591 -5592 -5593 0
-5586 -5587 -5589 5590 5592 5593 0
5587 5589 -5590 5591 -5592 -5593 0
5586 -5587 -5588 -5589 5590 5591 0
-5586 5588 -5589 -5590 -5591 -5593 0
5586 -5587 -5589 -5590 5592 -5593 0
5589 5592 5593 -5595 0
-5589 -5590 5591 -5592 -5595 0
-5586 5587 5588 -5589 5590 5592 0
5586 5587 5588 5590 5591 5596 0
-5589 -5590 -5593 -5595 0
5586 5587 5590 5592 5593 5596 0
-5586 5587 -5589 5590 5591 5593 0
-5586 5587 -5588 5589 -5593 0
-5589 -5596 0
5589 -5590 -5591 5592 5595 0
5588 5590 -5591 5592 5594 0
-5586 5587 5588 5589 5593 0
5589 5590 5591 5592 5596 0
-5593 -5596 0
5586 5588 5589 -5594 0
-5588 -5596 0
-5587 -5596 0
-5594 -5595 0
5594 5595 5596 0
-5587 5588 -5591 -5592 -5593 0
5598 5601 5602 5604 -5606 0
-5598 5599 -5601 -5604 5606 0
5598 -5599 -5601 -5602 5603 -5606 0
5598 5599 5602 5603 5604 -5605 0
-5597 -5599 -5600 -5601 -5602 -5603 5604 0
5597 -5599 -5600 5602 5603 5604 0
5600 -5601 5602 -5603 5606 0
5598 5599 -5602 -5603 5604 5606 0
5598 -5599 -5600 -5602 5603 -5604 0
-5598 5599 -5601 5602 -5603 5606 0
5599 5600 -5601 -5602 -5603 -5606 0
-5597 -5598 -5601 -5602 -5603 -5604 0
-5598 -5599 5602 -5604 -5606 0
5597 5598 5599 -5604 -5606 0
-5598 -5599 -5600 5601 5604 5606 0
5598 -5599 -5601 5602 -5603 5606 0
5597 -5598 -5600 -5601 -5602 -5603 5604 0
5601 5602 5603 -5605 0
-5601 -5602 5603 -5604 5606 0
5597 5599 -5600 5601 5602 5604 0
5598 -5599 5603 5604 -5606 0
5599 -5601 5602 5603 -5604 -5606 0
-5597 -5598 -5600 5602 5603 5604 0
5598 5599 5600 -5603 5604 0
5597 -5600 -5601 5603 -5606 0
5598 -5599 -5600 5602 -5603 -5604 0
5597 5598 5599 -5601 5602 5603 0
-5597 -5598 5600 -5604 5606 0
5600 5601 -5602 -5603 5606 0
-5597 -5598 5600 5604 -5606 0
5597 5598 5600 -5605 0
5597 -5598 -5599 -5604 -5606 0
5599 5601 5602 -5603 -5606 0
5597 -5599 -5603 5604 -5606 0
-5597 -5599 5601 -5602 5603 -5604 0
-5597 -5601 -5602 5604 -5606 0
-5600 5601 -5602 -5603 -5606 0
5598 -5599 5601 -5602 -5603 -5604 0
-5597 -5598 -5600 5601 5603 5604 0
5598 5600 -5601 5602 -5603 -5604 0
5597 -5598 -5599 -5600 5601 5602 0
-5597 5599 -5600 -5601 -5602 -5604 0
5597 -5598 -5600 -5601 5603 -5604 0
5600 5603 5604 -5606 0
-5600 -5601 5602 -5603 -5606 0
-5597 5598 5599 -5600 5601 5603 0
5597 5598 5599 5601 5602 5607 0
-5600 -5601 -5604 -5606 0
5597 5598 5601 5603 5604 5607 0
-5597 5598 -5600 5601 5602 5604 0
-5597 5598 -5599 5600 -5604 0
-5600 -5607 0
5600 -5601 -5602 5603 5606 0
5599 5601 -5602 5603 5605 0
-5597 5598 5599 5600 5604 0
5600 5601 5602 5603 5607 0
-5604 -5607 0
5597 5599 5600 -5605 0
-5599 -5607 0
-5598 -5607 0
-5605 -5606 0
5605 5606 5607 0
-5598 5599 -5602 -5603 -5604 0
5609 5612 5613 5615 -5617 0
-5609 5610 -5612 -5615 5617 0
5609 -5610 -5612 -5613 5614 -5617 0
5609 5610 5613 5614 5615 -5616 0
-5608 -5610 -5611 -5612 -5613 -5614 5615 0
5608 -5610 -5611 5613 5614 5615 0
5611 -5612 5613 -5614 5617 0
5609 5610 -5613 -5614 5615 5617 0
5609 -5610 -5611 -5613 5614 -5615 0
-5609 5610 -5612 5613 -5614 5617 0
5610 5611 -5612 -5613 -5614 -5617 0
-5608 -5609 -5612 -5613 -5614 -5615 0
-5609 -5610 5613 -5615 -5617 0
5608 5609 5610 -5615 -5617 0
-5609 -5610 -5611 5612 5615 5617 0
5609 -5610 -5612 5613 -5614 5617 0
5608 -5609 -5611 -5612 -5613 -5614 5615 0
5612 5613 5614 -5616 0
-5612 -5613 5614 -5615 5617 0
5608 5610 -5611 5612 5613 5615 0
5609 -5610 5614 5615 -5617 0
5610 -5612 5613 5614 -5615 -5617 0
-5608 -5609 -5611 5613 5614 5615 0
5609 5610 5611 -5614 5615 0
5608 -5611 -5612 5614 -5617 0
5609 -5610 -5611 5613 -5614 -5615 0
5608 5609 5610 -5612 5613 5614 0
-5608 -5609 5611 -5615 5617 0
5611 5612 -5613 -5614 5617 0
-5608 -5609 5611 5615 -5617 0
5608 5609 5611 -5616 0
5608 -5609 -5610 -5615 -5617 0
5610 5612 5613 -5614 -5617 0
5608 -5610 -5614 5615 -5617 0
-5608 -5610 5612 -5613 5614 -5615 0
-5608 -5612 -5613 5615 -5617 0
-5611 5612 -5613 -5614 -5617 0
5609 -5610 5612 -5613 -5614 -5615 0
-5608 -5609 -5611 5612 5614 5615 0
5609 5611 -5612 5613 -5614 -5615 0
5608 -5609 -5610 -5611 5612 5613 0
-5608 5610 -5611 -5612 -5613 -5615 0
5608 -5609 -5611 -5612 5614 -5615 0
5611 5614 5615 -5617 0
-5611 -5612 5613 -5614 -5617 0
-5608 5609 5610 -5611 5612 5614 0
5608 5609 5610 5612 5613 5618 0
-5611 -5612 -5615 -5617 0
5608 5609 5612 5614 5615 5618 0
-5608 5609 -5611 5612 5613 5615 0
-5608 5609 -5610 5611 -5615 0
-5611 -5618 0
5611 -5612 -5613 5614 5617 0
5610 5612 -5613 5614 5616 0
-5608 5609 5610 5611 5615 0
5611 5612 5613 5614 5618 0
-5615 -5618 0
5608 5610 5611 -5616 0
-5610 -5618 0
-5609 -5618 0
-5616 -5617 0
5616 5617 5618 0
-5609 5610 -5613 -5614 -5615 0
5620 5623 5624 5626 -5628 0
-5620 5621 -5623 -5626 5628 0
5620 -5621 -5623 -5624 5625 -5628 0
5620 5621 5624 5625 5626 -5627 0
-5619 -5621 -5622 -5623 -5624 -5625 5626 0
5619 -5621 -5622 5624 5625 5626 0
5622 -5623 5624 -5625 5628 0
5620 5621 -5624 -5625 5626 5628 0
5620 -5621 -5622 -5624 5625 -5626 0
-5620 5621 -5623 5624 -5625 5628 0
5621 5622 -5623 -5624 -5625 -5628 0
-5619 -5620 -5623 -5624 -5625 -5626 0
-5620 -5621 5624 -5626 -5628 0
5619 5620 5621 -5626 -5628 0
-5620 -5621 -5622 5623 5626 5628 0
5620 -5621 -5623 5624 -5625 5628 0
5619 -5620 -5622 -5623 -5624 -5625 5626 0
5623 5624 5625 -5627 0
-5623 -5624 5625 -5626 5628 0
5619 5621 -5622 5623 5624 5626 0
5620 -5621 5625 5626 -5628 0
5621 -5623 5624 5625 -5626 -5628 0
-5619 -5620 -5622 5624 5625 5626 0
5620 5621 5622 -5625 5626 0
5619 -5622 -5623 5625 -5628 0
5620 -5621 -5622 5624 -5625 -5626 0
5619 5620 5621 -5623 5624 5625 0
-5619 -5620 5622 -5626 5628 0
5622 5623 -5624 -5625 5628 0
-5619 -5620 5622 5626 -5628 0
5619 5620 5622 -5627 0
5619 -5620 -5621 -5626 -5628 0
5621 5623 5624 -5625 -5628 0
5619 -5621 -5625 5626 -5628 0
-5619 -5621 5623 -5624 5625 -5626 0
-5619 -5623 -5624 5626 -5628 0
-5622 5623 -5624 -5625 -5628 0
5620 -5621 5623 -5624 -5625 -5626 0
-5619 -5620 -5622 5623 5625 5626 0
5620 5622 -5623 5624 -5625 -5626 0
5619 -5620 -5621 -5622 5623 5624 0
-5619 5621 -5622 -5623 -5624 -5626 0
5619 -5620 -5622 -5623 5625 -5626 0
5622 5625 5626 -5628 0
-5622 -5623 5624 -5625 -5628 0
-5619 5620 5621 -5622 5623 5625 0
5619 5620 5621 5623 5624 5629 0
-5622 -5623 -5626 -5628 0
5619 5620 5623 5625 5626 5629 0
-5619 5620 -5622 5623 5624 5626 0
-5619 5620 -5621 5622 -5626 0
-5622 -5629 0
5622 -5623 -5624 5625 5628 0
5621 5623 -5624 5625 5627 0
-5619 5620 5621 5622 5626 0
5622 5623 5624 5625 5629 0
-5626 -5629 0
5619 5621 5622 -5627 0
-5621 -5629 0
-5620 -5629 0
-5627 -5628 0
5627 5628 5629 0
-5620 5621 -5624 -5625 -5626 0
5631 5634 5635 5637 -5639 0
-5631 5632 -5634 -5637 5639 0
5631 -5632 -5634 -5635 5636 -5639 0
5631 5632 5635 5636 5637 -5638 0
-5630 -5632 -5633 -5634 -5635 -5636 5637 0
5630 -5632 -5633 5635 5636 5637 0
5633 -5634 5635 -5636 5639 0
5631 5632 -5635 -5636 5637 5639 0
5631 -5632 -5633 -5635 5636 -5637 0
-5631 5632 -5634 5635 -5636 5639 0
5632 5633 -5634 -5635 -5636 -5639 0
-5630 -5631 -5634 -5635 -5636 -5637 0
-5631 -5632 5635 -5637 -5639 0
5630 5631 5632 -5637 -5639 0
-5631 -5632 -5633 5634 5637 5639 0
5631 -5632 -5634 5635 -5636 5639 0
5630 -5631 -5633 -5634 -5635 -5636 5637 0
5634 5635 5636 -5638 0
-5634 -5635 5636 -5637 5639 0
5630 5632 -5633 5634 5635 5637 0
5631 -5632 5636 5637 -5639 0
5632 -5634 5635 5636 -5637 -5639 0
-5630 -5631 -5633 5635 5636 5637 0
5631 5632 5633 -5636 5637 0
5630 -5633 -5634 5636 -5639 0
5631 -5632 -5633 5635 -5636 -5637 0
5630 5631 5632 -5634 5635 5636 0
-5630 -5631 5633 -5637 5639 0
5633 5634 -5635 -5636 5639 0
-5630 -5631 5633 5637 -5639 0
5630 5631 5633 -5638 0
5630 -5631 -5632 -5637 -5639 0
5632 5634 5635 -5636 -5639 0
5630 -5632 -5636 5637 -5639 0
-5630 -5632 5634 -5635 5636 -5637 0
-5630 -5634 -5635 5637 -5639 0
-5633 5634 -5635 -5636 -5639 0
5631 -5632 5634 -5635 -5636 -5637 0
-5630 -5631 -5633 5634 5636 5637 0
5631 5633 -5634 5635 -5636 -5637 0
5630 -5631 -5632 -5633 5634 5635 0
-5630 5632 -5633 -5634 -5635 -5637 0
5630 -5631 -5633 -5634 5636 -5637 0
5633 5636 5637 -5639 0
-5633 -5634 5635 -5636 -5639 0
-5630 5631 5632 -5633 5634 5636 0
5630 5631 5632 5634 5635 5640 0
-5633 -5634 -5637 -5639 0
5630 5631 5634 5636 5637 5640 0
-5630 5631 -5633 5634 5635 5637 0
-5630 5631 -5632 5633 -5637 0
-5633 -5640 0
5633 -5634 -5635 5636 5639 0
5632 5634 -5635 5636 5638 0
-5630 5631 5632 5633 5637 0
5633 5634 5635 5636 5640 0
-5637 -5640 0
5630 5632 5633 -5638 0
-5632 -5640 0
-5631 -5640 0
-5638 -5639 0
5638 5639 5640 0
-5631 5632 -5635 -5636 -5637 0
5642 5645 5646 5648 -5650 0
-5642 5643 -5645 -5648 5650 0
5642 -5643 -5645 -5646 5647 -5650 0
5642 5643 5646 5647 5648 -5649 0
-5641 -5643 -5644 -5645 -5646 -5647 5648 0
5641 -5643 -5644 5646 5647 5648 0
5644 -5645 5646 -5647 5650 0
5642 5643 -5646 -5647 5648 5650 0
5642 -5643 -5644 -5646 5647 -5648 0
-5642 5643 -5645 5646 -5647 5650 0
5643 5644 -5645 -5646 -5647 -5650 0
-5641 -5642 -5645 -5646 -5647 -5648 0
-5642 -5643 5646 -5648 -5650 0
5641 5642 5643 -5648 -5650 0
-5642 -5643 -5644 5645 5648 5650 0
5642 -5643 -5645 5646 -5647 5650 0
5641 -5642 -5644 -5645 -5646 -5647 5648 0
5645 5646 5647 -5649 0
-5645 -5646 5647 -5648 5650 0
5641 5643 -5644 5645 5646 5648 0
5642 -5643 5647 5648 -5650 0
5643 -5645 5646 5647 -5648 -5650 0
-5641 -5642 -5644 5646 5647 5648 0
5642 5643 5644 -5647 5648 0
5641 -5644 -5645 5647 -5650 0
5642 -5643 -5644 5646 -5647 -5648 0
5641 5642 5643 -5645 5646 5647 0
-5641 -5642 5644 -5648 5650 0
5644 5645 -5646 -5647 5650 0
-5641 -5642 5644 5648 -5650 0
5641 5642 5644 -5649 0
5641 -5642 -5643 -5648 -5650 0
5643 5645 5646 -5647 -5650 0
5641 -5643 -5647 5648 -5650 0
-5641 -5643 5645 -5646 5647 -5648 0
-5641 -5645 -5646 5648 -5650 0
-5644 5645 -5646 -5647 -5650 0
5642 -5643 5645 -5646 -5647 -5648 0
-5641 -5642 -5644 5645 5647 5648 0
5642 5644 -5645 5646 -5647 -5648 0
5641 -5642 -5643 -5644 5645 5646 0
-5641 5643 -5644 -5645 -5646 -5648 0
5641 -5642 -5644 -5645 5647 -5648 0
5644 5647 5648 -5650 0
-5644 -5645 5646 -5647 -5650 0
-5641 5642 5643 -5644 5645 5647 0
5641 5642 5643 5645 5646 5651 0
-5644 -5645 -5648 -5650 0
5641 5642 5645 5647 5648 5651 0
-5641 5642 -5644 5645 5646 5648 0
-5641 5642 -5643 5644 -5648 0
-5644 -5651 0
5644 -5645 -5646 5647 5650 0
5643 5645 -5646 5647 5649 0
-5641 5642 5643 5644 5648 0
5644 5645 5646 5647 5651 0
-5648 -5651 0
5641 5643 5644 -5649 0
-5643 -5651 0
-5642 -5651 0
-5649 -5650 0
5649 5650 5651 0
-5642 5643 -5646 -5647 -5648 0
5653 5656 5657 5659 -5661 0
-5653 5654 -5656 -5659 5661 0
5653 -5654 -5656 -5657 5658 -5661 0
5653 5654 5657 5658 5659 -5660 0
-5652 -5654 -5655 -5656 -5657 -5658 5659 0
5652 -5654 -5655 5657 5658 5659 0
5655 -5656 5657 -5658 5661 0
5653 5654 -5657 -5658 5659 5661 0
5653 -5654 -5655 -5657 5658 -5659 0
-5653 5654 -5656 5657 -5658 5661 0
5654 5655 -5656 -5657 -5658 -5661 0
-5652 -5653 -5656 -5657 -5658 -5659 0
-5653 -5654 5657 -5659 -5661 0
5652 5653 5654 -5659 -5661 0
-5653 -5654 -5655 5656 5659 5661 0
5653 -5654 -5656 5657 -5658 5661 0
5652 -5653 -5655 -5656 -5657 -5658 5659 0
5656 5657 5658 -5660 0
-5656 -5657 5658 -5659 5661 0
5652 5654 -5655 5656 5657 5659 0
5653 -5654 5658 5659 -5661 0
5654 -5656 5657 5658 -5659 -5661 0
-5652 -5653 -5655 5657 5658 5659 0
5653 5654 5655 -5658 5659 0
5652 -5655 -5656 5658 -5661 0
5653 -5654 -5655 5657 -5658 -5659 0
5652 5653 5654 -5656 5657 5658 0
-5652 -5653 5655 -5659 5661 0
5655 5656 -5657 -5658 5661 0
-5652 -5653 5655 5659 -5661 0
5652 5653 5655 -5660 0
5652 -5653 -5654 -5659 -5661 0
5654 5656 5657 -5658 -5661 0
5652 -5654 -5658 5659 -5661 0
-5652 -5654 5656 -5657 5658 -5659 0
-5652 -5656 -5657 5659 -5661 0
-5655 5656 -5657 -5658 -5661 0
5653 -5654 5656 -5657 -5658 -5659 0
-5652 -5653 -5655 5656 5658 5659 0
5653 5655 -5656 5657 -5658 -5659 0
5652 -5653 -5654 -5655 5656 5657 0
-5652 5654 -5655 -5656 -5657 -5659 0
5652 -5653 -5655 -5656 5658 -5659 0
5655 5658 5659 -5661 0
-5655 -5656 5657 -5658 -5661 0
-5652 5653 5654 -5655 5656 5658 0
5652 5653 5654 5656 5657 5662 0
-5655 -5656 -5659 -5661 0
5652 5653 5656 5658 5659 5662 0
-5652 5653 -5655 5656 5657 5659 0
-5652 5653 -5654 5655 -5659 0
-5655 -5662 0
5655 -5656 -5657 5658 5661 0
5654 5656 -5657 5658 5660 0
-5652 5653 5654 5655 5659 0
5655 5656 5657 5658 5662 0
-5659 -5662 0
5652 5654 5655 -5660 0
-5654 -5662 0
-5653 -5662 0
-5660 -5661 0
5660 5661 5662 0
-5653 5654 -5657 -5658 -5659 0
5664 5667 5668 5670 -5672 0
-5664 5665 -5667 -5670 5672 0
5664 -5665 -5667 -5668 5669 -5672 0
5664 5665 5668 5669 5670 -5671 0
-5663 -5665 -5666 -5667 -5668 -5669 5670 0
5663 -5665 -5666 5668 5669 5670 0
5666 -5667 5668 -5669 5672 0
5664 5665 -5668 -5669 5670 5672 0
5664 -5665 -5666 -5668 5669 -5670 0
-5664 5665 -5667 5668 -5669 5672 0
5665 5666 -5667 -5668 -5669 -5672 0
-5663 -5664 -5667 -5668 -5669 -5670 0
-5664 -5665 5668 -5670 -5672 0
5663 5664 5665 -5670 -5672 0
-5664 -5665 -5666 5667 5670 5672 0
5664 -5665 -5667 5668 -5669 5672 0
5663 -5664 -5666 -5667 -5668 -5669 5670 0
5667 5668 5669 -5671 0
-5667 -5668 5669 -5670 5672 0
5663 5665 -5666 5667 5668 5670 0
5664 -5665 5669 5670 -5672 0
5665 -5667 5668 5669 -5670 -5672 0
-5663 -5664 -5666 5668 5669 5670 0
5664 5665 5666 -5669 5670 0
5663 -5666 -5667 5669 -5672 0
5664 -5665 -5666 5668 -5669 -5670 0
5663 5664 5665 -5667 5668 5669 0
-5663 -5664 5666 -5670 5672 0
5666 5667 -5668 -5669 5672 0
-5663 -5664 5666 5670 -5672 0
5663 5664 5666 -5671 0
5663 -5664 -5665 -5670 -5672 0
5665 5667 5668 -5669 -5672 0
5663 -5665 -5669 5670 -5672 0
-5663 -5665 5667 -5668 5669 -5670 0
-5663 -5667 -5668 5670 -5672 0
-5666 5667 -5668 -5669 -5672 0
5664 -5665 5667 -5668 -5669 -5670 0
-5663 -5664 -5666 5667 5669 5670 0
5664 5666 -5667 5668 -5669 -5670 0
5663 -5664 -5665 -5666 5667 5668 0
-5663 5665 -5666 -5667 -5668 -5670 0
5663 -5664 -5666 -5667 5669 -5670 0
5666 5669 5670 -5672 0
-5666 -5667 5668 -5669 -5672 0
-5663 5664 5665 -5666 5667 5669 0
5663 5664 5665 5667 5668 5673 0
-5666 -5667 -5670 -5672 0
5663 5664 5667 5669 5670 5673 0
-5663 5664 -5666 5667 5668 5670 0
-5663 5664 -5665 5666 -5670 0
-5666 -5673 0
5666 -5667 -5668 5669 5672 0
5665 5667 -5668 5669 5671 0
-5663 5664 5665 5666 5670 0
5666 5667 5668 5669 5673 0
-5670 -5673 0
5663 5665 5666 -5671 0
-5665 -5673 0
-5664 -5673 0
-5671 -5672 0
5671 5672 5673 0
-5664 5665 -5668 -5669 -5670 0
5675 5678 5679 5681 -5683 0
-5675 5676 -5678 -5681 5683 0
5675 -5676 -5678 -5679 5680 -5683 0
5675 5676 5679 5680 5681 -5682 0
-5674 -5676 -5677 -5678 -5679 -5680 5681 0
5674 -5676 -5677 5679 5680 5681 0
5677 -5678 5679 -5680 5683 0
5675 5676 -5679 -5680 5681 5683 0
5675 -5676 -5677 -5679 5680 -5681 0
-5675 5676 -5678 5679 -5680 5683 0
5676 5677 -5678 -5679 -5680 -5683 0
-5674 -5675 -5678 -5679 -5680 -5681 0
-5675 -5676 5679 -5681 -5683 0
5674 5675 5676 -5681 -5683 0
-5675 -5676 -5677 5678 5681 5683 0
5675 -5676 -5678 5679 -5680 5683 0
5674 -5675 -5677 -5678 -5679 -5680 5681 0
5678 5679 5680 -5682 0
-5678 -5679 5680 -5681 5683 0
5674 5676 -5677 5678 5679 5681 0
5675 -5676 5680 5681 -5683 0
5676 -5678 5679 5680 -5681 -5683 0
-5674 -5675 -5677 5679 5680 5681 0
5675 5676 5677 -5680 5681 0
5674 -5677 -5678 5680 -5683 0
5675 -5676 -5677 5679 -5680 -5681 0
5674 5675 5676 -5678 5679 5680 0
-5674 -5675 5677 -5681 5683 0
5677 5678 -5679 -5680 5683 0
-5674 -5675 5677 5681 -5683 0
5674 5675 5677 -5682 0
5674 -5675 -5676 -5681 -5683 0
5676 5678 5679 -5680 -5683 0
5674 -5676 -5680 5681 -5683 0
-5674 -5676 5678 -5679 5680 -5681 0
-5674 -5678 -5679 5681 -5683 0
-5677 5678 -5679 -5680 -5683 0
5675 -5676 5678 -5679 -5680 -5681 0
-5674 -5675 -5677 5678 5680 5681 0
5675 5677 -5678 5679 -5680 -5681 0
5674 -5675 -5676 -5677 5678 5679 0
-5674 5676 -5677 -5678 -5679 -5681 0
5674 -5675 -5677 -5678 5680 -5681 0
5677 5680 5681 -5683 0
-5677 -5678 5679 -5680 -5683 0
-5674 5675 5676 -5677 5678 5680 0
5674 5675 5676 5678 5679 5684 0
-5677 -5678 -5681 -5683 0
5674 5675 5678 5680 5681 5684 0
-5674 5675 -5677 5678 5679 5681 0
-5674 5675 -5676 5677 -5681 0
-5677 -5684 0
5677 -5678 -5679 5680 5683 0
5676 5678 -5679 5680 5682 0
-5674 5675 5676 5677 5681 0
5677 5678 5679 5680 5684 0
-5681 -5684 0
5674 5676 5677 -5682 0
-5676 -5684 0
-5675 -5684 0
-5682 -5683 0
5682 5683 5684 0
-5675 5676 -5679 -5680 -5681 0
5686 5689 5690 5692 -5694 0
-5686 5687 -5689 -5692 5694 0
5686 -5687 -5689 -5690 5691 -5694 0
5686 5687 5690 5691 5692 -5693 0
-5685 -5687 -5688 -5689 -5690 -5691 5692 0
5685 -5687 -5688 5690 5691 5692 0
5688 -5689 5690 -5691 5694 0
5686 5687 -5690 -5691 5692 5694 0
5686 -5687 -5688 -5690 5691 -5692 0
-5686 5687 -5689 5690 -5691 5694 0
5687 5688 -5689 -5690 -5691 -5694 0
-5685 -5686 -5689 -5690 -5691 -5692 0
-5686 -5687 5690 -5692 -5694 0
5685 5686 5687 -5692 -5694 0
-5686 -5687 -5688 5689 5692 5694 0
5686 -5687 -5689 5690 -5691 5694 0
5685 -5686 -5688 -5689 -5690 -5691 5692 0
5689 5690 5691 -5693 0
-5689 -5690 5691 -5692 5694 0
5685 5687 -5688 5689 5690 5692 0
5686 -5687 5691 5692 -5694 0
5687 -5689 5690 5691 -5692 -5694 0
-5685 -5686 -5688 5690 5691 5692 0
5686 5687 5688 -5691 5692 0
5685 -5688 -5689 5691 -5694 0
5686 -5687 -5688 5690 -5691 -5692 0
5685 5686 5687 -5689 5690 5691 0
-5685 -5686 5688 -5692 5694 0
5688 5689 -5690 -5691 5694 0
-5685 -5686 5688 5692 -5694 0
5685 5686 5688 -5693 0
5685 -5686 -5687 -5692 -5694 0
5687 5689 5690 -5691 -5694 0
5685 -5687 -5691 5692 -5694 0
-5685 -5687 5689 -5690 5691 -5692 0
-5685 -5689 -5690 5692 -5694 0
-5688 5689 -5690 -5691 -5694 0
5686 -5687 5689 -5690 -5691 -5692 0
-5685 -5686 -5688 5689 5691 5692 0
5686 5688 -5689 5690 -5691 -5692 0
5685 -5686 -5687 -5688 5689 5690 0
-5685 5687 -5688 -5689 -5690 -5692 0
5685 -5686 -5688 -5689 5691 -5692 0
5688 5691 5692 -5694 0
-5688 -5689 5690 -5691 -5694 0
-5685 5686 5687 -5688 5689 5691 0
5685 5686 5687 5689 5690 5695 0
-5688 -5689 -5692 -5694 0
5685 5686 5689 5691 5692 5695 0
-5685 5686 -5688 5689 5690 5692 0
-5685 5686 -5687 5688 -5692 0
-5688 -5695 0
5688 -5689 -5690 5691 5694 0
5687 5689 -5690 5691 5693 0
-5685 5686 5687 5688 5692 0
5688 5689 5690 5691 5695 0
-5692 -5695 0
5685 5687 5688 -5693 0
-5687 -5695 0
-5686 -5695 0
-5693 -5694 0
5693 5694 5695 0
-5686 5687 -5690 -5691 -5692 0
5697 5700 5701 5703 -5705 0
-5697 5698 -5700 -5703 5705 0
5697 -5698 -5700 -5701 5702 -5705 0
5697 5698 5701 5702 5703 -5704 0
-5696 -5698 -5699 -5700 -5701 -5702 5703 0
5696 -5698 -5699 5701 5702 5703 0
5699 -5700 5701 -5702 5705 0
5697 5698 -5701 -5702 5703 5705 0
5697 -5698 -5699 -5701 5702 -5703 0
-5697 5698 -5700 5701 -5702 5705 0
5698 5699 -5700 -5701 -5702 -5705 0
-5696 -5697 -5700 -5701 -5702 -5703 0
-5697 -5698 5701 -5703 -5705 0
5696 5697 5698 -5703 -5705 0
-5697 -5698 -5699 5700 5703 5705 0
5697 -5698 -5700 5701 -5702 5705 0
5696 -5697 -5699 -5700 -5701 -5702 5703 0
5700 5701 5702 -5704 0
-5700 -5701 5702 -5703 5705 0
5696 5698 -5699 5700 5701 5703 0
5697 -5698 5702 5703 -5705 0
5698 -5700 5701 5702 -5703 -5705 0
-5696 -5697 -5699 5701 5702 5703 0
5697 5698 5699 -5702 5703 0
5696 -5699 -5700 5702 -5705 0
5697 -5698 -5699 5701 -5702 -5703 0
5696 5697 5698 -5700 5701 5702 0
-5696 -5697 5699 -5703 5705 0
5699 5700 -5701 -5702 5705 0
-5696 -5697 5699 5703 -5705 0
5696 5697 5699 -5704 0
5696 -5697 -5698 -5703 -5705 0
5698 5700 5701 -5702 -5705 0
5696 -5698 -5702 5703 -5705 0
-5696 -5698 5700 -5701 5702 -5703 0
-5696 -5700 -5701 5703 -5705 0
-5699 5700 -5701 -5702 -5705 0
5697 -5698 5700 -5701 -5702 -5703 0
-5696 -5697 -5699 5700 5702 5703 0
5697 5699 -5700 5701 -5702 -5703 0
5696 -5697 -5698 -5699 5700 5701 0
-5696 5698 -5699 -5700 -5701 -5703 0
5696 -5697 -5699 -5700 5702 -5703 0
5699 5702 5703 -5705 0
-5699 -5700 5701 -5702 -5705 0
-5696 5697 5698 -5699 5700 5702 0
5696 5697 5698 5700 5701 5706 0
-5699 -5700 -5703 -5705 0
5696 5697 5700 5702 5703 5706 0
-5696 5697 -5699 5700 5701 5703 0
-5696 5697 -5698 5699 -5703 0
-5699 -5706 0
5699 -5700 -5701 5702 5705 0
5698 5700 -5701 5702 5704 0
-5696 5697 5698 5699 5703 0
5699 5700 5701 5702 5706 0
-5703 -5706 0
5696 5698 5699 -5704 0
-5698 -5706 0
-5697 -5706 0
-5704 -5705 0
5704 5705 5706 0
-5697 5698 -5701 -5702 -5703 0
5708 5711 5712 5714 -5716 0
-5708 5709 -5711 -5714 5716 0
5708 -5709 -5711 -5712 5713 -5716 0
5708 5709 5712 5713 5714 -5715 0
-5707 -5709 -5710 -5711 -5712 -5713 5714 0
5707 -5709 -5710 5712 5713 5714 0
5710 -5711 5712 -5713 5716 0
5708 5709 -5712 -5713 5714 5716 0
5708 -5709 -5710 -5712 5713 -5714 0
-5708 5709 -5711 5712 -5713 5716 0
5709 5710 -5711 -5712 -5713 -5716 0
-5707 -5708 -5711 -5712 -5713 -5714 0
-5708 -5709 5712 -5714 -5716 0
5707 5708 5709 -5714 -5716 0
-5708 -5709 -5710 5711 5714 5716 0
5708 -5709 -5711 5712 -5713 5716 0
5707 -5708 -5710 -5711 -5712 -5713 5714 0
5711 5712 5713 -5715 0
-5711 -5712 5713 -5714 5716 0
5707 5709 -5710 5711 5712 5714 0
5708 -5709 5713 5714 -5716 0
5709 -5711 5712 5713 -5714 -5716 0
-5707 -5708 -5710 5712 5713 5714 0
5708 5709 5710 -5713 5714 0
5707 -5710 -5711 5713 -5716 0
5708 -5709 -5710 5712 -5713 -5714 0
5707 5708 5709 -5711 5712 5713 0
-5707 -5708 5710 -5714 5716 0
5710 5711 -5712 -5713 5716 0
-5707 -5708 5710 5714 -5716 0
5707 5708 5710 -5715 0
5707 -5708 -5709 -5714 -5716 0
5709 5711 5712 -5713 -5716 0
5707 -5709 -5713 5714 -5716 0
-5707 -5709 5711 -5712 5713 -5714 0
-5707 -5711 -5712 5714 -5716 0
-5710 5711 -5712 -5713 -5716 0
5708 -5709 5711 -5712 -5713 -5714 0
-5707 -5708 -5710 5711 5713 5714 0
5708 5710 -5711 5712 -5713 -5714 0
5707 -5708 -5709 -5710 5711 5712 0
-5707 5709 -5710 -5711 -5712 -5714 0
5707 -5708 -5710 -5711 5713 -5714 0
5710 5713 5714 -5716 0
-5710 -5711 5712 -5713 -5716 0
-5707 5708 5709 -5710 5711 5713 0
5707 5708 5709 5711 5712 5717 0
-5710 -5711 -5714 -5716 0
5707 5708 5711 5713 5714 5717 0
-5707 5708 -5710 5711 5712 5714 0
-5707 5708 -5709 5710 -5714 0
-5710 -5717 0
5710 -5711 -5712 5713 5716 0
5709 5711 -5712 5713 5715 0
-5707 5708 5709 5710 5714 0
5710 5711 5712 5713 5717 0
-5714 -5717 0
5707 5709 5710 -5715 0
-5709 -5717 0
-5708 -5717 0
-5715 -5716 0
5715 5716 5717 0
-5708 5709 -5712 -5713 -5714 0
5719 5722 5723 5725 -5727 0
-5719 5720 -5722 -5725 5727 0
5719 -5720 -5722 -5723 5724 -5727 0
5719 5720 5723 5724 5725 -5726 0
-5718 -5720 -5721 -5722 -5723 -5724 5725 0
5718 -5720 -5721 5723 5724 5725 0
5721 -5722 5723 -5724 5727 0
5719 5720 -5723 -5724 5725 5727 0
5719 -5720 -5721 -5723 5724 -5725 0
-5719 5720 -5722 5723 -5724 5727 0
5720 5721 -5722 -5723 -5724 -5727 0
-5718 -5719 -5722 -5723 -5724 -5725 0
-5719 -5720 5723 -5725 -5727 0
5718 5719 5720 -5725 -5727 0
-5719 -5720 -5721 5722 5725 5727 0
5719 -5720 -5722 5723 -5724 5727 0
5718 -5719 -5721 -5722 -5723 -5724 5725 0
5722 5723 5724 -5726 0
-5722 -5723 5724 -5725 5727 0
5718 5720 -5721 5722 5723 5725 0
5719 -5720 5724 5725 -5727 0
5720 -5722 5723 5724 -5725 -5727 0
-5718 -5719 -5721 5723 5724 5725 0
5719 5720 5721 -5724 5725 0
5718 -5721 -5722 5724 -5727 0
5719 -5720 -5721 5723 -5724 -5725 0
5718 5719 5720 -5722 5723 5724 0
-5718 -5719 5721 -5725 5727 0
5721 5722 -5723 -5724 5727 0
-5718 -5719 5721 5725 -5727 0
5718 5719 5721 -5726 0
5718 -5719 -5720 -5725 -5727 0
5720 5722 5723 -5724 -5727 0
5718 -5720 -5724 5725 -5727 0
-5718 -5720 5722 -5723 5724 -5725 0
-5718 -5722 -5723 5725 -5727 0
-5721 5722 -5723 -5724 -5727 0
5719 -5720 5722 -5723 -5724 -5725 0
-5718 -5719 -5721 5722 5724 5725 0
5719 5721 -5722 5723 -5724 -5725 0
5718 -5719 -5720 -5721 5722 5723 0
-5718 5720 -5721 -5722 -5723 -5725 0
5718 -5719 -5721 -5722 5724 -5725 0
5721 5724 5725 -5727 0
-5721 -5722 5723 -5724 -5727 0
-5718 5719 5720 -5721 5722 5724 0
5718 5719 5720 5722 5723 5728 0
-5721 -5722 -5725 -5727 0
5718 5719 5722 5724 5725 5728 0
-5718 5719 -5721 5722 5723 5725 0
-5718 5719 -5720 5721 -5725 0
-5721 -5728 0
5721 -5722 -5723 5724 5727 0
5720 5722 -5723 5724 5726 0
-5718 5719 5720 5721 5725 0
5721 5722 5723 5724 5728 0
-5725 -5728 0
5718 5720 5721 -5726 0
-5720 -5728 0
-5719 -5728 0
-5726 -5727 0
5726 5727 5728 0
-5719 5720 -5723 -5724 -5725 0
5730 5733 5734 5736 -5738 0
-5730 5731 -5733 -5736 5738 0
5730 -5731 -5733 -5734 5735 -5738 0
5730 5731 5734 5735 5736 -5737 0
-5729 -5731 -5732 -5733 -5734 -5735 5736 0
5729 -5731 -5732 5734 5735 5736 0
5732 -5733 5734 -5735 5738 0
5730 5731 -5734 -5735 5736 5738 0
5730 -5731 -5732 -5734 5735 -5736 0
-5730 5731 -5733 5734 -5735 5738 0
5731 5732 -5733 -5734 -5735 -5738 0
-5729 -5730 -5733 -5734 -5735 -5736 0
-5730 -5731 5734 -5736 -5738 0
5729 5730 5731 -5736 -5738 0
-5730 -5731 -5732 5733 5736 5738 0
5730 -5731 -5733 5734 -5735 5738 0
5729 -5730 -5732 -5733 -5734 -5735 5736 0
5733 5734 5735 -5737 0
-5733 -5734 5735 -5736 5738 0
5729 5731 -5732 5733 5734 5736 0
5730 -5731 5735 5736 -5738 0
5731 -5733 5734 5735 -5736 -5738 0
-5729 -5730 -5732 5734 5735 5736 0
5730 5731 5732 -5735 5736 0
5729 -5732 -5733 5735 -5738 0
5730 -5731 -5732 5734 -5735 -5736 0
5729 5730 5731 -5733 5734 5735 0
-5729 -5730 5732 -5736 5738 0
5732 5733 -5734 -5735 5738 0
-5729 -5730 5732 5736 -5738 0
5729 5730 5732 -5737 0
5729 -5730 -5731 -5736 -5738 0
5731 5733 5734 -5735 -5738 0
5729 -5731 -5735 5736 -5738 0
-5729 -5731 5733 -5734 5735 -5736 0
-5729 -5733 -5734 5736 -5738 0
-5732 5733 -5734 -5735 -5738 0
5730 -5731 5733 -5734 -5735 -5736 0
-5729 -5730 -5732 5733 5735 5736 0
5730 5732 -5733 5734 -5735 -5736 0
5729 -5730 -5731 -5732 5733 5734 0
-5729 5731 -5732 -5733 -5734 -5736 0
5729 -5730 -5732 -5733 5735 -5736 0
5732 5735 5736 -5738 0
-5732 -5733 5734 -5735 -5738 0
-5729 5730 5731 -5732 5733 5735 0
5729 5730 5731 5733 5734 5739 0
-5732 -5733 -5736 -5738 0
5729 5730 5733 5735 5736 5739 0
-5729 5730 -5732 5733 5734 5736 0
-5729 5730 -5731 5732 -5736 0
-5732 -5739 0
5732 -5733 -5734 5735 5738 0
5731 5733 -5734 5735 5737 0
-5729 5730 5731 5732 5736 0
5732 5733 5734 5735 5739 0
-5736 -5739 0
5729 5731 5732 -5737 0
-5731 -5739 0
-5730 -5739 0
-5737 -5738 0
5737 5738 5739 0
-5730 5731 -5734 -5735 -5736 0
5741 5744 5745 5747 -5749 0
-5741 5742 -5744 -5747 5749 0
5741 -5742 -5744 -5745 5746 -5749 0
5741 5742 5745 5746 5747 -5748 0
-5740 -5742 -5743 -5744 -5745 -5746 5747 0
5740 -5742 -5743 5745 5746 5747 0
5743 -5744 5745 -5746 5749 0
5741 5742 -5745 -5746 5747 5749 0
5741 -5742 -5743 -5745 5746 -5747 0
-5741 5742 -5744 5745 -5746 5749 0
5742 5743 -5744 -5745 -5746 -5749 0
-5740 -5741 -5744 -5745 -5746 -5747 0
-5741 -5742 5745 -5747 -5749 0
5740 5741 5742 -5747 -5749 0
-5741 -5742 -5743 5744 5747 5749 0
5741 -5742 -5744 5745 -5746 5749 0
5740 -5741 -5743 -5744 -5745 -5746 5747 0
5744 5745 5746 -5748 0
-5744 -5745 5746 -5747 5749 0
5740 5742 -5743 5744 5745 5747 0
5741 -5742 5746 5747 -5749 0
5742 -5744 5745 5746 -5747 -5749 0
-5740 -5741 -5743 5745 5746 5747 0
5741 5742 5743 -5746 5747 0
5740 -5743 -5744 5746 -5749 0
5741 -5742 -5743 5745 -5746 -5747 0
5740 5741 5742 -5744 5745 5746 0
-5740 -5741 5743 -5747 5749 0
5743 5744 -5745 -5746 5749 0
-5740 -5741 5743 5747 -5749 0
5740 5741 5743 -5748 0
5740 -5741 -5742 -5747 -5749 0
5742 5744 5745 -5746 -5749 0
5740 -5742 -5746 5747 -5749 0
-5740 -5742 5744 -5745 5746 -5747 0
-5740 -5744 -5745 5747 -5749 0
-5743 5744 -5745 -5746 -5749 0
5741 -5742 5744 -5745 -5746 -5747 0
-5740 -5741 -5743 5744 5746 5747 0
5741 5743 -5744 5745 -5746 -5747 0
5740 -5741 -5742 -5743 5744 5745 0
-5740 5742 -5743 -5744 -5745 -5747 0
5740 -5741 -5743 -5744 5746 -5747 0
5743 5746 5747 -5749 0
-5743 -5744 5745 -5746 -5749 0
-5740 5741 5742 -5743 5744 5746 0
5740 5741 5742 5744 5745 5750 0
-5743 -5744 -5747 -5749 0
5740 5741 5744 5746 5747 5750 0
-5740 5741 -5743 5744 5745 5747 0
-5740 5741 -5742 5743 -5747 0
-5743 -5750 0
5743 -5744 -5745 5746 5749 0
5742 5744 -5745 5746 5748 0
-5740 5741 5742 5743 5747 0
5743 5744 5745 5746 5750 0
-5747 -5750 0
5740 5742 5743 -5748 0
-5742 -5750 0
-5741 -5750 0
-5748 -5749 0
5748 5749 5750 0
-5741 5742 -5745 -5746 -5747 0
5752 5755 5756 5758 -5760 0
-5752 5753 -5755 -5758 5760 0
5752 -5753 -5755 -5756 5757 -5760 0
5752 5753 5756 5757 5758 -5759 0
-5751 -5753 -5754 -5755 -5756 -5757 5758 0
5751 -5753 -5754 5756 5757 5758 0
5754 -5755 5756 -5757 5760 0
5752 5753 -5756 -5757 5758 5760 0
5752 -5753 -5754 -5756 5757 -5758 0
-5752 5753 -5755 5756 -5757 5760 0
5753 5754 -5755 -5756 -5757 -5760 0
-5751 -5752 -5755 -5756 -5757 -5758 0
-5752 -5753 5756 -5758 -5760 0
5751 5752 5753 -5758 -5760 0
-5752 -5753 -5754 5755 5758 5760 0
5752 -5753 -5755 5756 -5757 5760 0
5751 -5752 -5754 -5755 -5756 -5757 5758 0
5755 5756 5757 -5759 0
-5755 -5756 5757 -5758 5760 0
5751 5753 -5754 5755 5756 5758 0
5752 -5753 5757 5758 -5760 0
5753 -5755 5756 5757 -5758 -5760 0
-5751 -5752 -5754 5756 5757 5758 0
5752 5753 5754 -5757 5758 0
5751 -5754 -5755 5757 -5760 0
5752 -5753 -5754 5756 -5757 -5758 0
5751 5752 5753 -5755 5756 5757 0
-5751 -5752 5754 -5758 5760 0
5754 5755 -5756 -5757 5760 0
-5751 -5752 5754 5758 -5760 0
5751 5752 5754 -5759 0
5751 -5752 -5753 -5758 -5760 0
5753 5755 5756 -5757 -5760 0
5751 -5753 -5757 5758 -5760 0
-5751 -5753 5755 -5756 5757 -5758 0
-5751 -5755 -5756 5758 -5760 0
-5754 5755 -5756 -5757 -5760 0
5752 -5753 5755 -5756 -5757 -5758 0
-5751 -5752 -5754 5755 5757 5758 0
5752 5754 -5755 5756 -5757 -5758 0
5751 -5752 -5753 -5754 5755 5756 0
-5751 5753 -5754 -5755 -5756 -5758 0
5751 -5752 -5754 -5755 5757 -5758 0
5754 5757 5758 -5760 0
-5754 -5755 5756 -5757 -5760 0
-5751 5752 5753 -5754 5755 5757 0
5751 5752 5753 5755 5756 5761 0
-5754 -5755 -5758 -5760 0
5751 5752 5755 5757 5758 5761 0
-5751 5752 -5754 5755 5756 5758 0
-5751 5752 -5753 5754 -5758 0
-5754 -5761 0
5754 -5755 -5756 5757 5760 0
5753 5755 -5756 5757 5759 0
-5751 5752 5753 5754 5758 0
5754 5755 5756 5757 5761 0
-5758 -5761 0
5751 5753 5754 -5759 0
-5753 -5761 0
-5752 -5761 0
-5759 -5760 0
5759 5760 5761 0
-5752 5753 -5756 -5757 -5758 0
5763 5766 5767 5769 -5771 0
-5763 5764 -5766 -5769 5771 0
5763 -5764 -5766 -5767 5768 -5771 0
5763 5764 5767 5768 5769 -5770 0
-5762 -5764 -5765 -5766 -5767 -5768 5769 0
5762 -5764 -5765 5767 5768 5769 0
5765 -5766 5767 -5768 5771 0
5763 5764 -5767 -5768 5769 5771 0
5763 -5764 -5765 -5767 5768 -5769 0
-5763 5764 -5766 5767 -5768 5771 0
5764 5765 -5766 -5767 -5768 -5771 0
-5762 -5763 -5766 -5767 -5768 -5769 0
-5763 -5764 5767 -5769 -5771 0
5762 5763 5764 -5769 -5771 0
-5763 -5764 -5765 5766 5769 5771 0
5763 -5764 -5766 5767 -5768 5771 0
5762 -5763 -5765 -5766 -5767 -5768 5769 0
5766 5767 5768 -5770 0
-5766 -5767 5768 -5769 5771 0
5762 5764 -5765 5766 5767 5769 0
5763 -5764 5768 5769 -5771 0
5764 -5766 5767 5768 -5769 -5771 0
-5762 -5763 -5765 5767 5768 5769 0
5763 5764 5765 -5768 5769 0
5762 -5765 -5766 5768 -5771 0
5763 -5764 -5765 5767 -5768 -5769 0
5762 5763 5764 -5766 5767 5768 0
-5762 -5763 5765 -5769 5771 0
5765 5766 -5767 -5768 5771 0
-5762 -5763 5765 5769 -5771 0
5762 5763 5765 -5770 0
5762 -5763 -5764 -5769 -5771 0
5764 5766 5767 -5768 -5771 0
5762 -5764 -5768 5769 -5771 0
-5762 -5764 5766 -5767 5768 -5769 0
-5762 -5766 -5767 5769 -5771 0
-5765 5766 -5767 -5768 -5771 0
5763 -5764 5766 -5767 -5768 -5769 0
-5762 -5763 -5765 5766 5768 5769 0
5763 5765 -5766 5767 -5768 -5769 0
5762 -5763 -5764 -5765 5766 5767 0
-5762 5764 -5765 -5766 -5767 -5769 0
5762 -5763 -5765 -5766 5768 -5769 0
5765 5768 5769 -5771 0
-5765 -5766 5767 -5768 -5771 0
-5762 5763 5764 -5765 5766 5768 0
5762 5763 5764 5766 5767 5772 0
-5765 -5766 -5769 -5771 0
5762 5763 5766 5768 5769 5772 0
-5762 5763 -5765 5766 5767 5769 0
-5762 5763 -5764 5765 -5769 0
-5765 -5772 0
5765 -5766 -5767 5768 5771 0
5764 5766 -5767 5768 5770 0
-5762 5763 5764 5765 5769 0
5765 5766 5767 5768 5772 0
-5769 -5772 0
5762 5764 5765 -5770 0
-5764 -5772 0
-5763 -5772 0
-5770 -5771 0
5770 5771 5772 0
-5763 5764 -5767 -5768 -5769 0
5774 5777 5778 5780 -5782 0
-5774 5775 -5777 -5780 5782 0
5774 -5775 -5777 -5778 5779 -5782 0
5774 5775 5778 5779 5780 -5781 0
-5773 -5775 -5776 -5777 -5778 -5779 5780 0
5773 -5775 -5776 5778 5779 5780 0
5776 -5777 5778 -5779 5782 0
5774 5775 -5778 -5779 5780 5782 0
5774 -5775 -5776 -5778 5779 -5780 0
-5774 5775 -5777 5778 -5779 5782 0
5775 5776 -5777 -5778 -5779 -5782 0
-5773 -5774 -5777 -5778 -5779 -5780 0
-5774 -5775 5778 -5780 -5782 0
5773 5774 5775 -5780 -5782 0
-5774 -5775 -5776 5777 5780 5782 0
5774 -5775 -5777 5778 -5779 5782 0
5773 -5774 -5776 -5777 -5778 -5779 5780 0
5777 5778 5779 -5781 0
-5777 -5778 5779 -5780 5782 0
5773 5775 -5776 5777 5778 5780 0
5774 -5775 5779 5780 -5782 0
5775 -5777 5778 5779 -5780 -5782 0
-5773 -5774 -5776 5778 5779 5780 0
5774 5775 5776 -5779 5780 0
5773 -5776 -5777 5779 -5782 0
5774 -5775 -5776 5778 -5779 -5780 0
5773 5774 5775 -5777 5778 5779 0
-5773 -5774 5776 -5780 5782 0
5776 5777 -5778 -5779 5782 0
-5773 -5774 5776 5780 -5782 0
5773 5774 5776 -5781 0
5773 -5774 -5775 -5780 -5782 0
5775 5777 5778 -5779 -5782 0
5773 -5775 -5779 5780 -5782 0
-5773 -5775 5777 -5778 5779 -5780 0
-5773 -5777 -5778 5780 -5782 0
-5776 5777 -5778 -5779 -5782 0
5774 -5775 5777 -5778 -5779 -5780 0
-5773 -5774 -5776 5777 5779 5780 0
5774 5776 -5777 5778 -5779 -5780 0
5773 -5774 -5775 -5776 5777 5778 0
-5773 5775 -5776 -5777 -5778 -5780 0
5773 -5774 -5776 -5777 5779 -5780 0
5776 5779 5780 -5782 0
-5776 -5777 5778 -5779 -5782 0
-5773 5774 5775 -5776 5777 5779 0
5773 5774 5775 5777 5778 5783 0
-5776 -5777 -5780 -5782 0
5773 5774 5777 5779 5780 5783 0
-5773 5774 -5776 5777 5778 5780 0
-5773 5774 -5775 5776 -5780 0
-5776 -5783 0
5776 -5777 -5778 5779 5782 0
5775 5777 -5778 5779 5781 0
-5773 5774 5775 5776 5780 0
5776 5777 5778 5779 5783 0
-5780 -5783 0
5773 5775 5776 -5781 0
-5775 -5783 0
-5774 -5783 0
-5781 -5782 0
5781 5782 5783 0
-5774 5775 -5778 -5779 -5780 0
5785 5788 5789 5791 -5793 0
-5785 5786 -5788 -5791 5793 0
5785 -5786 -5788 -5789 5790 -5793 0
5785 5786 5789 5790 5791 -5792 0
-5784 -5786 -5787 -5788 -5789 -5790 5791 0
5784 -5786 -5787 5789 5790 5791 0
5787 -5788 5789 -5790 5793 0
5785 5786 -5789 -5790 5791 5793 0
5785 -5786 -5787 -5789 5790 -5791 0
-5785 5786 -5788 5789 -5790 5793 0
5786 5787 -5788 -5789 -5790 -5793 0
-5784 -5785 -5788 -5789 -5790 -5791 0
-5785 -5786 5789 -5791 -5793 0
5784 5785 5786 -5791 -5793 0
-5785 -5786 -5787 5788 5791 5793 0
5785 -5786 -5788 5789 -5790 5793 0
5784 -5785 -5787 -5788 -5789 -5790 5791 0
5788 5789 5790 -5792 0
-5788 -5789 5790 -5791 5793 0
5784 5786 -5787 5788 5789 5791 0
5785 -5786 5790 5791 -5793 0
5786 -5788 5789 5790 -5791 -5793 0
-5784 -5785 -5787 5789 5790 5791 0
5785 5786 5787 -5790 5791 0
5784 -5787 -5788 5790 -5793 0
5785 -5786 -5787 5789 -5790 -5791 0
5784 5785 5786 -5788 5789 5790 0
-5784 -5785 5787 -5791 5793 0
5787 5788 -5789 -5790 5793 0
-5784 -5785 5787 5791 -5793 0
5784 5785 5787 -5792 0
5784 -5785 -5786 -5791 -5793 0
5786 5788 5789 -5790 -5793 0
5784 -5786 -5790 5791 -5793 0
-5784 -5786 5788 -5789 5790 -5791 0
-5784 -5788 -5789 5791 -5793 0
-5787 5788 -5789 -5790 -5793 0
5785 -5786 5788 -5789 -5790 -5791 0
-5784 -5785 -5787 5788 5790 5791 0
5785 5787 -5788 5789 -5790 -5791 0
5784 -5785 -5786 -5787 5788 5789 0
-5784 5786 -5787 -5788 -5789 -5791 0
5784 -5785 -5787 -5788 5790 -5791 0
5787 5790 5791 -5793 0
-5787 -5788 5789 -5790 -5793 0
-5784 5785 5786 -5787 5788 5790 0
5784 5785 5786 5788 5789 5794 0
-5787 -5788 -5791 -5793 0
5784 5785 5788 5790 5791 5794 0
-5784 5785 -5787 5788 5789 5791 0
-5784 5785 -5786 5787 -5791 0
-5787 -5794 0
5787 -5788 -5789 5790 5793 0
5786 5788 -5789 5790 5792 0
-5784 5785 5786 5787 5791 0
5787 5788 5789 5790 5794 0
-5791 -5794 0
5784 5786 5787 -5792 0
-5786 -5794 0
-5785 -5794 0
-5792 -5793 0
5792 5793 5794 0
-5785 5786 -5789 -5790 -5791 0
5796 5799 5800 5802 -5804 0
-5796 5797 -5799 -5802 5804 0
5796 -5797 -5799 -5800 5801 -5804 0
5796 5797 5800 5801 5802 -5803 0
-5795 -5797 -5798 -5799 -5800 -5801 5802 0
5795 -5797 -5798 5800 5801 5802 0
5798 -5799 5800 -5801 5804 0
5796 5797 -5800 -5801 5802 5804 0
5796 -5797 -5798 -5800 5801 -5802 0
-5796 5797 -5799 5800 -5801 5804 0
5797 5798 -5799 -5800 -5801 -5804 0
-5795 -5796 -5799 -5800 -5801 -5802 0
-5796 -5797 5800 -5802 -5804 0
5795 5796 5797 -5802 -5804 0
-5796 -5797 -5798 5799 5802 5804 0
5796 -5797 -5799 5800 -5801 5804 0
5795 -5796 -5798 -5799 -5800 -5801 5802 0
5799 5800 5801 -5803 0
-5799 -5800 5801 -5802 5804 0
5795 5797 -5798 5799 5800 5802 0
5796 -5797 5801 5802 -5804 0
5797 -5799 5800 5801 -5802 -5804 0
-5795 -5796 -5798 5800 5801 5802 0
5796 5797 5798 -5801 5802 0
5795 -5798 -5799 5801 -5804 0
5796 -5797 -5798 5800 -5801 -5802 0
5795 5796 5797 -5799 5800 5801 0
-5795 -5796 5798 -5802 5804 0
5798 5799 -5800 -5801 5804 0
-5795 -5796 5798 5802 -5804 0
5795 5796 5798 -5803 0
5795 -5796 -5797 -5802 -5804 0
5797 5799 5800 -5801 -5804 0
5795 -5797 -5801 5802 -5804 0
-5795 -5797 5799 -5800 5801 -5802 0
-5795 -5799 -5800 5802 -5804 0
-5798 5799 -5800 -5801 -5804 0
5796 -5797 5799 -5800 -5801 -5802 0
-5795 -5796 -5798 5799 5801 5802 0
5796 5798 -5799 5800 -5801 -5802 0
5795 -5796 -5797 -5798 5799 5800 0
-5795 5797 -5798 -5799 -5800 -5802 0
5795 -5796 -5798 -5799 5801 -5802 0
5798 5801 5802 -5804 0
-5798 -5799 5800 -5801 -5804 0
-5795 5796 5797 -5798 5799 5801 0
5795 5796 5797 5799 5800 5805 0
-5798 -5799 -5802 -5804 0
5795 5796 5799 5801 5802 5805 0
-5795 5796 -5798 5799 5800 5802 0
-5795 5796 -5797 5798 -5802 0
-5798 -5805 0
5798 -5799 -5800 5801 5804 0
5797 5799 -5800 5801 5803 0
-5795 5796 5797 5798 5802 0
5798 5799 5800 5801 5805 0
-5802 -5805 0
5795 5797 5798 -5803 0
-5797 -5805 0
-5796 -5805 0
-5803 -5804 0
5803 5804 5805 0
-5796 5797 -5800 -5801 -5802 0
5807 5810 5811 5813 -5815 0
-5807 5808 -5810 -5813 5815 0
5807 -5808 -5810 -5811 5812 -5815 0
5807 5808 5811 5812 5813 -5814 0
-5806 -5808 -5809 -5810 -5811 -5812 5813 0
5806 -5808 -5809 5811 5812 5813 0
5809 -5810 5811 -5812 5815 0
5807 5808 -5811 -5812 5813 5815 0
5807 -5808 -5809 -5811 5812 -5813 0
-5807 5808 -5810 5811 -5812 5815 0
5808 5809 -5810 -5811 -5812 -5815 0
-5806 -5807 -5810 -5811 -5812 -5813 0
-5807 -5808 5811 -5813 -5815 0
5806 5807 5808 -5813 -5815 0
-5807 -5808 -5809 5810 5813 5815 0
5807 -5808 -5810 5811 -5812 5815 0
5806 -5807 -5809 -5810 -5811 -5812 5813 0
5810 5811 5812 -5814 0
-5810 -5811 5812 -5813 5815 0
5806 5808 -5809 5810 5811 5813 0
5807 -5808 5812 5813 -5815 0
5808 -5810 5811 5812 -5813 -5815 0
-5806 -5807 -5809 5811 5812 5813 0
5807 5808 5809 -5812 5813 0
5806 -5809 -5810 5812 -5815 0
5807 -5808 -5809 5811 -5812 -5813 0
5806 5807 5808 -5810 5811 5812 0
-5806 -5807 5809 -5813 5815 0
5809 5810 -5811 -5812 5815 0
-5806 -5807 5809 5813 -5815 0
5806 5807 5809 -5814 0
5806 -5807 -5808 -5813 -5815 0
5808 5810 5811 -5812 -5815 0
5806 -5808 -5812 5813 -5815 0
-5806 -5808 5810 -5811 5812 -5813 0
-5806 -5810 -5811 5813 -5815 0
-5809 5810 -5811 -5812 -5815 0
5807 -5808 5810 -5811 -5812 -5813 0
-5806 -5807 -5809 5810 5812 5813 0
5807 5809 -5810 5811 -5812 -5813 0
5806 -5807 -5808 -5809 5810 5811 0
-5806 5808 -5809 -5810 -5811 -5813 0
5806 -5807 -5809 -5810 5812 -5813 0
5809 5812 5813 -5815 0
-5809 -5810 5811 -5812 -5815 0
-5806 5807 5808 -5809 5810 5812 0
5806 5807 5808 5810 5811 5816 0
-5809 -5810 -5813 -5815 0
5806 5807 5810 5812 5813 5816 0
-5806 5807 -5809 5810 5811 5813 0
-5806 5807 -5808 5809 -5813 0
-5809 -5816 0
5809 -5810 -5811 5812 5815 0
5808 5810 -5811 5812 5814 0
-5806 5807 5808 5809 5813 0
5809 5810 5811 5812 5816 0
-5813 -5816 0
5806 5808 5809 -5814 0
-5808 -5816 0
-5807 -5816 0
-5814 -5815 0
5814 5815 5816 0
-5807 5808 -5811 -5812 -5813 0
5818 5821 5822 5824 -5826 0
-5818 5819 -5821 -5824 5826 0
5818 -5819 -5821 -5822 5823 -5826 0
5818 5819 5822 5823 5824 -5825 0
-5817 -5819 -5820 -5821 -5822 -5823 5824 0
5817 -5819 -5820 5822 5823 5824 0
5820 -5821 5822 -5823 5826 0
5818 5819 -5822 -5823 5824 5826 0
5818 -5819 -5820 -5822 5823 -5824 0
-5818 5819 -5821 5822 -5823 5826 0
5819 5820 -5821 -5822 -5823 -5826 0
-5817 -5818 -5821 -5822 -5823 -5824 0
-5818 -5819 5822 -5824 -5826 0
5817 5818 5819 -5824 -5826 0
-5818 -5819 -5820 5821 5824 5826 0
5818 -5819 -5821 5822 -5823 5826 0
5817 -5818 -5820 -5821 -5822 -5823 5824 0
5821 5822 5823 -5825 0
-5821 -5822 5823 -5824 5826 0
5817 5819 -5820 5821 5822 5824 0
5818 -5819 5823 5824 -5826 0
5819 -5821 5822 5823 -5824 -5826 0
-5817 -5818 -5820 5822 5823 5824 0
5818 5819 5820 -5823 5824 0
5817 -5820 -5821 5823 -5826 0
5818 -5819 -5820 5822 -5823 -5824 0
5817 5818 5819 -5821 5822 5823 0
-5817 -5818 5820 -5824 5826 0
5820 5821 -5822 -5823 5826 0
-5817 -5818 5820 5824 -5826 0
5817 5818 5820 -5825 0
5817 -5818 -5819 -5824 -5826 0
5819 5821 5822 -5823 -5826 0
5817 -5819 -5823 5824 -5826 0
-5817 -5819 5821 -5822 5823 -5824 0
-5817 -5821 -5822 5824 -5826 0
-5820 5821 -5822 -5823 -5826 0
5818 -5819 5821 -5822 -5823 -5824 0
-5817 -5818 -5820 5821 5823 5824 0
5818 5820 -5821 5822 -5823 -5824 0
5817 -5818 -5819 -5820 5821 5822 0
-5817 5819 -5820 -5821 -5822 -5824 0
5817 -5818 -5820 -5821 5823 -5824 0
5820 5823 5824 -5826 0
-5820 -5821 5822 -5823 -5826 0
-5817 5818 5819 -5820 5821 5823 0
5817 5818 5819 5821 5822 5827 0
-5820 -5821 -5824 -5826 0
5817 5818 5821 5823 5824 5827 0
-5817 5818 -5820 5821 5822 5824 0
-5817 5818 -5819 5820 -5824 0
-5820 -5827 0
5820 -5821 -5822 5823 5826 0
5819 5821 -5822 5823 5825 0
-5817 5818 5819 5820 5824 0
5820 5821 5822 5823 5827 0
-5824 -5827 0
5817 5819 5820 -5825 0
-5819 -5827 0
-5818 -5827 0
-5825 -5826 0
5825 5826 5827 0
-5818 5819 -5822 -5823 -5824 0
5829 5832 5833 5835 -5837 0
-5829 5830 -5832 -5835 5837 0
5829 -5830 -5832 -5833 5834 -5837 0
5829 5830 5833 5834 5835 -5836 0
-5828 -5830 -5831 -5832 -5833 -5834 5835 0
5828 -5830 -5831 5833 5834 5835 0
5831 -5832 5833 -5834 5837 0
5829 5830 -5833 -5834 5835 5837 0
5829 -5830 -5831 -5833 5834 -5835 0
-5829 5830 -5832 5833 -5834 5837 0
5830 5831 -5832 -5833 -5834 -5837 0
-5828 -5829 -5832 -5833 -5834 -5835 0
-5829 -5830 5833 -5835 -5837 0
5828 5829 5830 -5835 -5837 0
-5829 -5830 -5831 5832 5835 5837 0
5829 -5830 -5832 5833 -5834 5837 0
5828 -5829 -5831 -5832 -5833 -5834 5835 0
5832 5833 5834 -5836 0
-5832 -5833 5834 -5835 5837 0
5828 5830 -5831 5832 5833 5835 0
5829 -5830 5834 5835 -5837 0
5830 -5832 5833 5834 -5835 -5837 0
-5828 -5829 -5831 5833 5834 5835 0
5829 5830 5831 -5834 5835 0
5828 -5831 -5832 5834 -5837 0
5829 -5830 -5831 5833 -5834 -5835 0
5828 5829 5830 -5832 5833 5834 0
-5828 -5829 5831 -5835 5837 0
5831 5832 -5833 -5834 5837 0
-5828 -5829 5831 5835 -5837 0
5828 5829 5831 -5836 0
5828 -5829 -5830 -5835 -5837 0
5830 5832 5833 -5834 -5837 0
5828 -5830 -5834 5835 -5837 0
-5828 -5830 5832 -5833 5834 -5835 0
-5828 -5832 -5833 5835 -5837 0
-5831 5832 -5833 -5834 -5837 0
5829 -5830 5832 -5833 -5834 -5835 0
-5828 -5829 -5831 5832 5834 5835 0
5829 5831 -5832 5833 -5834 -5835 0
5828 -5829 -5830 -5831 5832 5833 0
-5828 5830 -5831 -5832 -5833 -5835 0
5828 -5829 -5831 -5832 5834 -5835 0
5831 5834 5835 -5837 0
-5831 -5832 5833 -5834 -5837 0
-5828 5829 5830 -5831 5832 5834 0
5828 5829 5830 5832 5833 5838 0
-5831 -5832 -5835 -5837 0
5828 5829 5832 5834 5835 5838 0
-5828 5829 -5831 5832 5833 5835 0
-5828 5829 -5830 5831 -5835 0
-5831 -5838 0
5831 -5832 -5833 5834 5837 0
5830 5832 -5833 5834 5836 0
-5828 5829 5830 5831 5835 0
5831 5832 5833 5834 5838 0
-5835 -5838 0
5828 5830 5831 -5836 0
-5830 -5838 0
-5829 -5838 0
-5836 -5837 0
5836 5837 5838 0
-5829 5830 -5833 -5834 -5835 0
5840 5843 5844 5846 -5848 0
-5840 5841 -5843 -5846 5848 0
5840 -5841 -5843 -5844 5845 -5848 0
5840 5841 5844 5845 5846 -5847 0
-5839 -5841 -5842 -5843 -5844 -5845 5846 0
5839 -5841 -5842 5844 5845 5846 0
5842 -5843 5844 -5845 5848 0
5840 5841 -5844 -5845 5846 5848 0
5840 -5841 -5842 -5844 5845 -5846 0
-5840 5841 -5843 5844 -5845 5848 0
5841 5842 -5843 -5844 -5845 -5848 0
-5839 -5840 -5843 -5844 -5845 -5846 0
-5840 -5841 5844 -5846 -5848 0
5839 5840 5841 -5846 -5848 0
-5840 -5841 -5842 5843 5846 5848 0
5840 -5841 -5843 5844 -5845 5848 0
5839 -5840 -5842 -5843 -5844 -5845 5846 0
5843 5844 5845 -5847 0
-5843 -5844 5845 -5846 5848 0
5839 5841 -5842 5843 5844 5846 0
5840 -5841 5845 5846 -5848 0
5841 -5843 5844 5845 -5846 -5848 0
-5839 -5840 -5842 5844 5845 5846 0
5840 5841 5842 -5845 5846 0
5839 -5842 -5843 5845 -5848 0
5840 -5841 -5842 5844 -5845 -5846 0
5839 5840 5841 -5843 5844 5845 0
-5839 -5840 5842 -5846 5848 0
5842 5843 -5844 -5845 5848 0
-5839 -5840 5842 5846 -5848 0
5839 5840 5842 -5847 0
5839 -5840 -5841 -5846 -5848 0
5841 5843 5844 -5845 -5848 0
5839 -5841 -5845 5846 -5848 0
-5839 -5841 5843 -5844 5845 -5846 0
-5839 -5843 -5844 5846 -5848 0
-5842 5843 -5844 -5845 -5848 0
5840 -5841 5843 -5844 -5845 -5846 0
-5839 -5840 -5842 5843 5845 5846 0
5840 5842 -5843 5844 -5845 -5846 0
5839 -5840 -5841 -5842 5843 5844 0
-5839 5841 -5842 -5843 -5844 -5846 0
5839 -5840 -5842 -5843 5845 -5846 0
5842 5845 5846 -5848 0
-5842 -5843 5844 -5845 -5848 0
-5839 5840 5841 -5842 5843 5845 0
5839 5840 5841 5843 5844 5849 0
-5842 -5843 -5846 -5848 0
5839 5840 5843 5845 5846 5849 0
-5839 5840 -5842 5843 5844 5846 0
-5839 5840 -5841 5842 -5846 0
-5842 -5849 0
5842 -5843 -5844 5845 5848 0
5841 5843 -5844 5845 5847 0
-5839 5840 5841 5842 5846 0
5842 5843 5844 5845 5849 0
-5846 -5849 0
5839 5841 5842 -5847 0
-5841 -5849 0
-5840 -5849 0
-5847 -5848 0
5847 5848 5849 0
-5840 5841 -5844 -5845 -5846 0
5851 5854 5855 5857 -5859 0
-5851 5852 -5854 -5857 5859 0
5851 -5852 -5854 -5855 5856 -5859 0
5851 5852 5855 5856 5857 -5858 0
-5850 -5852 -5853 -5854 -5855 -5856 5857 0
5850 -5852 -5853 5855 5856 5857 0
5853 -5854 5855 -5856 5859 0
5851 5852 -5855 -5856 5857 5859 0
5851 -5852 -5853 -5855 5856 -5857 0
-5851 5852 -5854 5855 -5856 5859 0
5852 5853 -5854 -5855 -5856 -5859 0
-5850 -5851 -5854 -5855 -5856 -5857 0
-5851 -5852 5855 -5857 -5859 0
5850 5851 5852 -5857 -5859 0
-5851 -5852 -5853 5854 5857 5859 0
5851 -5852 -5854 5855 -5856 5859 0
5850 -5851 -5853 -5854 -5855 -5856 5857 0
5854 5855 5856 -5858 0
-5854 -5855 5856 -5857 5859 0
5850 5852 -5853 5854 5855 5857 0
5851 -5852 5856 5857 -5859 0
5852 -5854 5855 5856 -5857 -5859 0
-5850 -5851 -5853 5855 5856 5857 0
5851 5852 5853 -5856 5857 0
5850 -5853 -5854 5856 -5859 0
5851 -5852 -5853 5855 -5856 -5857 0
5850 5851 5852 -5854 5855 5856 0
-5850 -5851 5853 -5857 5859 0
5853 5854 -5855 -5856 5859 0
-5850 -5851 5853 5857 -5859 0
5850 5851 5853 -5858 0
5850 -5851 -5852 -5857 -5859 0
5852 5854 5855 -5856 -5859 0
5850 -5852 -5856 5857 -5859 0
-5850 -5852 5854 -5855 5856 -5857 0
-5850 -5854 -5855 5857 -5859 0
-5853 5854 -5855 -5856 -5859 0
5851 -5852 5854 -5855 -5856 -5857 0
-5850 -5851 -5853 5854 5856 5857 0
5851 5853 -5854 5855 -5856 -5857 0
5850 -5851 -5852 -5853 5854 5855 0
-5850 5852 -5853 -5854 -5855 -5857 0
5850 -5851 -5853 -5854 5856 -5857 0
5853 5856 5857 -5859 0
-5853 -5854 5855 -5856 -5859 0
-5850 5851 5852 -5853 5854 5856 0
5850 5851 5852 5854 5855 5860 0
-5853 -5854 -5857 -5859 0
5850 5851 5854 5856 5857 5860 0
-5850 5851 -5853 5854 5855 5857 0
-5850 5851 -5852 5853 -5857 0
-5853 -5860 0
5853 -5854 -5855 5856 5859 0
5852 5854 -5855 5856 5858 0
-5850 5851 5852 5853 5857 0
5853 5854 5855 5856 5860 0
-5857 -5860 0
5850 5852 5853 -5858 0
-5852 -5860 0
-5851 -5860 0
-5858 -5859 0
5858 5859 5860 0
-5851 5852 -5855 -5856 -5857 0
-5989 5861 0
5989 -5861 0
-5990 5862 0
5990 -5862 0
-5991 5863 0
5991 -5863 0
-5992 5864 0
5992 -5864 0
-5993 5865 0
5993 -5865 0
-5994 5866 0
5994 -5866 0
-5995 5867 0
5995 -5867 0
-5996 5868 0
5996 -5868 0
-5997 5869 0
5997 -5869 0
-5998 5870 0
5998 -5870 0
-5999 5871 0
5999 -5871 0
-6000 5872 0
6000 -5872 0
-6001 5873 0
6001 -5873 0
-6002 5874 0
6002 -5874 0
-6003 5875 0
6003 -5875 0
-6004 5876 0
6004 -5876 0
-6005 5877 0
6005 -5877 0
-6006 5878 0
6006 -5878 0
-6007 5879 0
6007 -5879 0
-6008 5880 0
6008 -5880 0
-6009 5881 0
6009 -5881 0
-6010 5882 0
6010 -5882 0
-6011 5883 0
6011 -5883 0
-6012 5884 0
6012 -5884 0
-6013 5885 0
6013 -5885 0
-6014 5886 0
6014 -5886 0
-6015 5887 0
6015 -5887 0
-6016 5888 0
6016 -5888 0
-6017 5889 0
6017 -5889 0
-6018 5890 0
6018 -5890 0
-6019 5891 0
6019 -5891 0
-6020 5892 0
6020 -5892 0
-6021 5893 0
6021 -5893 0
-6022 5894 0
6022 -5894 0
-6023 5895 0
6023 -5895 0
-6024 5896 0
6024 -5896 0
-6025 5897 0
6025 -5897 0
-6026 5898 0
6026 -5898 0
-6027 5899 0
6027 -5899 0
-6028 5900 0
6028 -5900 0
-6029 5901 0
6029 -5901 0
-6030 5902 0
6030 -5902 0
-6031 5903 0
6031 -5903 0
-6032 5904 0
6032 -5904 0
-6033 5905 0
6033 -5905 0
-6034 5906 0
6034 -5906 0
-6035 5907 0
6035 -5907 0
-6036 5908 0
6036 -5908 0
-6037 5909 0
6037 -5909 0
-6038 5910 0
6038 -5910 0
-6039 5911 0
6039 -5911 0
-6040 5912 0
6040 -5912 0
-6041 5913 0
6041 -5913 0
-6042 5914 0
6042 -5914 0
-6043 5915 0
6043 -5915 0
-6044 5916 0
6044 -5916 0
-6045 5917 0
6045 -5917 0
-6046 5918 0
6046 -5918 0
-6047 5919 0
6047 -5919 0
-6048 5920 0
6048 -5920 0
-6049 5921 0
6049 -5921 0
-6050 5922 0
6050 -5922 0
-6051 5923 0
6051 -5923 0
-6052 5924 0
6052 -5924 0
-6053 5925 0
6053 -5925 0
-6054 5926 0
6054 -5926 0
-6055 5927 0
6055 -5927 0
-6056 5928 0
6056 -5928 0
-6057 5929 0
6057 -5929 0
-6058 5930 0
6058 -5930 0
-6059 5931 0
6059 -5931 0
-6060 5932 0
6060 -5932 0
-6061 5933 0
6061 -5933 0
-6062 5934 0
6062 -5934 0
-6063 5935 0
6063 -5935 0
-6064 5936 0
6064 -5936 0
-6065 5937 0
6065 -5937 0
-6066 5938 0
6066 -5938 0
-6067 5939 0
6067 -5939 0
-6068 5940 0
6068 -5940 0
-6069 5941 0
6069 -5941 0
-6070 5942 0
6070 -5942 0
-6071 5943 0
6071 -5943 0
-6072 5944 0
6072 -5944 0
-6073 5945 0
6073 -5945 0
-6074 5946 0
6074 -5946 0
-6075 5947 0
6075 -5947 0
-6076 5948 0
6076 -5948 0
-6077 5949 0
6077 -5949 0
-6078 5950 0
6078 -5950 0
-6079 5951 0
6079 -5951 0
-6080 5952 0
6080 -5952 0
-6081 5953 0
6081 -5953 0
-6082 5954 0
6082 -5954 0
-6083 5955 0
6083 -5955 0
-6084 5956 0
6084 -5956 0
-6085 5957 0
6085 -5957 0
-6086 5958 0
6086 -5958 0
-6087 5959 0
6087 -5959 0
-6088 5960 0
6088 -5960 0
-6089 5961 0
6089 -5961 0
-6090 5962 0
6090 -5962 0
-6091 5963 0
6091 -5963 0
-6092 5964 0
6092 -5964 0
-6093 5965 0
6093 -5965 0
-6094 5966 0
6094 -5966 0
-6095 5967 0
6095 -5967 0
-6096 5968 0
6096 -5968 0
-6097 5969 0
6097 -5969 0
-6098 5970 0
6098 -5970 0
-6099 5971 0
6099 -5971 0
-6100 5972 0
6100 -5972 0
-6101 5973 0
6101 -5973 0
-6102 5974 0
6102 -5974 0
-6103 5975 0
6103 -5975 0
-6104 5976 0
6104 -5976 0
-6105 5977 0
6105 -5977 0
-6106 5978 0
6106 -5978 0
-6107 5979 0
6107 -5979 0
-6108 5980 0
6108 -5980 0
-6109 5981 0
6109 -5981 0
-6110 5982 0
6110 -5982 0
-6111 5983 0
6111 -5983 0
-6112 5984 0
6112 -5984 0
-6113 5985 0
6113 -5985 0
-6114 5986 0
6114 -5986 0
-6115 5987 0
6115 -5987 0
-6116 5988 0
6116 -5988 0
4997 -5253 0
-4997 5253 0
4998 -5254 0
-4998 5254 0
4999 -5255 0
-4999 5255 0
5000 -5256 0
-5000 5256 0
5001 -5257 0
-5001 5257 0
5002 -5258 0
-5002 5258 0
5003 -5259 0
-5003 5259 0
5004 -5260 0
-5004 5260 0
5005 -5261 0
-5005 5261 0
5006 -5262 0
-5006 5262 0
5007 -5263 0
-5007 5263 0
5008 -5264 0
-5008 5264 0
5009 -5265 0
-5009 5265 0
5010 -5266 0
-5010 5266 0
5011 -5267 0
-5011 5267 0
5012 -5268 0
-5012 5268 0
5013 -5269 0
-5013 5269 0
5014 -5270 0
-5014 5270 0
5015 -5271 0
-5015 5271 0
5016 -5272 0
-5016 5272 0
5017 -5273 0
-5017 5273 0
5018 -5274 0
-5018 5274 0
5019 -5275 0
-5019 5275 0
5020 -5276 0
-5020 5276 0
5021 -5277 0
-5021 5277 0
5022 -5278 0
-5022 5278 0
5023 -5279 0
-5023 5279 0
5024 -5280 0
-5024 5280 0
5025 -5281 0
-5025 5281 0
5026 -5282 0
-5026 5282 0
5027 -5283 0
-5027 5283 0
5028 -5284 0
-5028 5284 0
5029 -5285 0
-5029 5285 0
5030 -5286 0
-5030 5286 0
5031 -5287 0
-5031 5287 0
5032 -5288 0
-5032 5288 0
5033 -5289 0
-5033 5289 0
5034 -5290 0
-5034 5290 0
5035 -5291 0
-5035 5291 0
5036 -5292 0
-5036 5292 0
5037 -5293 0
-5037 5293 0
5038 -5294 0
-5038 5294 0
5039 -5295 0
-5039 5295 0
5040 -5296 0
-5040 5296 0
5041 -5297 0
-5041 5297 0
5042 -5298 0
-5042 5298 0
5043 -5299 0
-5043 5299 0
5044 -5300 0
-5044 5300 0
5045 -5301 0
-5045 5301 0
5046 -5302 0
-5046 5302 0
5047 -5303 0
-5047 5303 0
5048 -5304 0
-5048 5304 0
5049 -5305 0
-5049 5305 0
5050 -5306 0
-5050 5306 0
5051 -5307 0
-5051 5307 0
5052 -5308 0
-5052 5308 0
5053 -5309 0
-5053 5309 0
5054 -5310 0
-5054 5310 0
5055 -5311 0
-5055 5311 0
5056 -5312 0
-5056 5312 0
5057 -5313 0
-5057 5313 0
5058 -5314 0
-5058 5314 0
5059 -5315 0
-5059 5315 0
5060 -5316 0
-5060 5316 0
5061 -5317 0
-5061 5317 0
5062 -5318 0
-5062 5318 0
5063 -5319 0
-5063 5319 0
5064 -5320 0
-5064 5320 0
5065 -5321 0
-5065 5321 0
5066 -5322 0
-5066 5322 0
5067 -5323 0
-5067 5323 0
5068 -5324 0
-5068 5324 0
5069 -5325 0
-5069 5325 0
5070 -5326 0
-5070 5326 0
5071 -5327 0
-5071 5327 0
5072 -5328 0
-5072 5328 0
5073 -5329 0
-5073 5329 0
5074 -5330 0
-5074 5330 0
5075 -5331 0
-5075 5331 0
5076 -5332 0
-5076 5332 0
5077 -5333 0
-5077 5333 0
5078 -5334 0
-5078 5334 0
5079 -5335 0
-5079 5335 0
5080 -5336 0
-5080 5336 0
5081 -5337 0
-5081 5337 0
5082 -5338 0
-5082 5338 0
5083 -5339 0
-5083 5339 0
5084 -5340 0
-5084 5340 0
5085 -5341 0
-5085 5341 0
5086 -5342 0
-5086 5342 0
5087 -5343 0
-5087 5343 0
5088 -5344 0
-5088 5344 0
5089 -5345 0
-5089 5345 0
5090 -5346 0
-5090 5346 0
5091 -5347 0
-5091 5347 0
5092 -5348 0
-5092 5348 0
5093 -5349 0
-5093 5349 0
5094 -5350 0
-5094 5350 0
5095 -5351 0
-5095 5351 0
5096 -5352 0
-5096 5352 0
5097 -5353 0
-5097 5353 0
5098 -5354 0
-5098 5354 0
5099 -5355 0
-5099 5355 0
5100 -5356 0
-5100 5356 0
5101 -5357 0
-5101 5357 0
5102 -5358 0
-5102 5358 0
5103 -5359 0
-5103 5359 0
5104 -5360 0
-5104 5360 0
5105 -5361 0
-5105 5361 0
5106 -5362 0
-5106 5362 0
5107 -5363 0
-5107 5363 0
5108 -5364 0
-5108 5364 0
5109 -5365 0
-5109 5365 0
5110 -5366 0
-5110 5366 0
5111 -5367 0
-5111 5367 0
5112 -5368 0
-5112 5368 0
5113 -5369 0
-5113 5369 0
5114 -5370 0
-5114 5370 0
5115 -5371 0
-5115 5371 0
5116 -5372 0
-5116 5372 0
5117 -5373 0
-5117 5373 0
5118 -5374 0
-5118 5374 0
5119 -5375 0
-5119 5375 0
5120 -5376 0
-5120 5376 0
5121 -5377 0
-5121 5377 0
5122 -5378 0
-5122 5378 0
5123 -5379 0
-5123 5379 0
5124 -5380 0
-5124 5380 0
5989 -5125 0
-5989 5125 0
5990 -5126 0
-5990 5126 0
5991 -5127 0
-5991 5127 0
5992 -5128 0
-5992 5128 0
5993 -5129 0
-5993 5129 0
5994 -5130 0
-5994 5130 0
5995 -5131 0
-5995 5131 0
5996 -5132 0
-5996 5132 0
5997 -5133 0
-5997 5133 0
5998 -5134 0
-5998 5134 0
5999 -5135 0
-5999 5135 0
6000 -5136 0
-6000 5136 0
6001 -5137 0
-6001 5137 0
6002 -5138 0
-6002 5138 0
6003 -5139 0
-6003 5139 0
6004 -5140 0
-6004 5140 0
6005 -5141 0
-6005 5141 0
6006 -5142 0
-6006 5142 0
6007 -5143 0
-6007 5143 0
6008 -5144 0
-6008 5144 0
6009 -5145 0
-6009 5145 0
6010 -5146 0
-6010 5146 0
6011 -5147 0
-6011 5147 0
6012 -5148 0
-6012 5148 0
6013 -5149 0
-6013 5149 0
6014 -5150 0
-6014 5150 0
6015 -5151 0
-6015 5151 0
6016 -5152 0
-6016 5152 0
6017 -5153 0
-6017 5153 0
6018 -5154 0
-6018 5154 0
6019 -5155 0
-6019 5155 0
6020 -5156 0
-6020 5156 0
6021 -5157 0
-6021 5157 0
6022 -5158 0
-6022 5158 0
6023 -5159 0
-6023 5159 0
6024 -5160 0
-6024 5160 0
6025 -5161 0
-6025 5161 0
6026 -5162 0
-6026 5162 0
6027 -5163 0
-6027 5163 0
6028 -5164 0
-6028 5164 0
6029 -5165 0
-6029 5165 0
6030 -5166 0
-6030 5166 0
6031 -5167 0
-6031 5167 0
6032 -5168 0
-6032 5168 0
6033 -5169 0
-6033 5169 0
6034 -5170 0
-6034 5170 0
6035 -5171 0
-6035 5171 0
6036 -5172 0
-6036 5172 0
6037 -5173 0
-6037 5173 0
6038 -5174 0
-6038 5174 0
6039 -5175 0
-6039 5175 0
6040 -5176 0
-6040 5176 0
6041 -5177 0
-6041 5177 0
6042 -5178 0
-6042 5178 0
6043 -5179 0
-6043 5179 0
6044 -5180 0
-6044 5180 0
6045 -5181 0
-6045 5181 0
6046 -5182 0
-6046 5182 0
6047 -5183 0
-6047 5183 0
6048 -5184 0
-6048 5184 0
6049 -5185 0
-6049 5185 0
6050 -5186 0
-6050 5186 0
6051 -5187 0
-6051 5187 0
6052 -5188 0
-6052 5188 0
6053 -5189 0
-6053 5189 0
6054 -5190 0
-6054 5190 0
6055 -5191 0
-6055 5191 0
6056 -5192 0
-6056 5192 0
6057 -5193 0
-6057 5193 0
6058 -5194 0
-6058 5194 0
6059 -5195 0
-6059 5195 0
6060 -5196 0
-6060 5196 0
6061 -5197 0
-6061 5197 0
6062 -5198 0
-6062 5198 0
6063 -5199 0
-6063 5199 0
6064 -5200 0
-6064 5200 0
6065 -5201 0
-6065 5201 0
6066 -5202 0
-6066 5202 0
6067 -5203 0
-6067 5203 0
6068 -5204 0
-6068 5204 0
6069 -5205 0
-6069 5205 0
6070 -5206 0
-6070 5206 0
6071 -5207 0
-6071 5207 0
6072 -5208 0
-6072 5208 0
6073 -5209 0
-6073 5209 0
6074 -5210 0
-6074 5210 0
6075 -5211 0
-6075 5211 0
6076 -5212 0
-6076 5212 0
6077 -5213 0
-6077 5213 0
6078 -5214 0
-6078 5214 0
6079 -5215 0
-6079 5215 0
6080 -5216 0
-6080 5216 0
6081 -5217 0
-6081 5217 0
6082 -5218 0
-6082 5218 0
6083 -5219 0
-6083 5219 0
6084 -5220 0
-6084 5220 0
6085 -5221 0
-6085 5221 0
6086 -5222 0
-6086 5222 0
6087 -5223 0
-6087 5223 0
6088 -5224 0
-6088 5224 0
6089 -5225 0
-6089 5225 0
6090 -5226 0
-6090 5226 0
6091 -5227 0
-6091 5227 0
6092 -5228 0
-6092 5228 0
6093 -5229 0
-6093 5229 0
6094 -5230 0
-6094 5230 0
6095 -5231 0
-6095 5231 0
6096 -5232 0
-6096 5232 0
6097 -5233 0
-6097 5233 0
6098 -5234 0
-6098 5234 0
6099 -5235 0
-6099 5235 0
6100 -5236 0
-6100 5236 0
6101 -5237 0
-6101 5237 0
6102 -5238 0
-6102 5238 0
6103 -5239 0
-6103 5239 0
6104 -5240 0
-6104 5240 0
6105 -5241 0
-6105 5241 0
6106 -5242 0
-6106 5242 0
6107 -5243 0
-6107 5243 0
6108 -5244 0
-6108 5244 0
6109 -5245 0
-6109 5245 0
6110 -5246 0
-6110 5246 0
6111 -5247 0
-6111 5247 0
6112 -5248 0
-6112 5248 0
6113 -5249 0
-6113 5249 0
6114 -5250 0
-6114 5250 0
6115 -5251 0
-6115 5251 0
6116 -5252 0
-6116 5252 0
-5505 5509 0
5505 -5509 0
-5506 5510 0
5506 -5510 0
-5507 5511 0
5507 -5511 0
-5508 5512 0
5508 -5512 0
-5501 5520 0
5501 -5520 0
-5502 5521 0
5502 -5521 0
-5503 5522 0
5503 -5522 0
-5504 5523 0
5504 -5523 0
-5497 5531 0
5497 -5531 0
-5498 5532 0
5498 -5532 0
-5499 5533 0
5499 -5533 0
-5500 5534 0
5500 -5534 0
-5493 5542 0
5493 -5542 0
-5494 5543 0
5494 -5543 0
-5495 5544 0
5495 -5544 0
-5496 5545 0
5496 -5545 0
-5489 5553 0
5489 -5553 0
-5490 5554 0
5490 -5554 0
-5491 5555 0
5491 -5555 0
-5492 5556 0
5492 -5556 0
-5485 5564 0
5485 -5564 0
-5486 5565 0
5486 -5565 0
-5487 5566 0
5487 -5566 0
-5488 5567 0
5488 -5567 0
-5481 5575 0
5481 -5575 0
-5482 5576 0
5482 -5576 0
-5483 5577 0
5483 -5577 0
-5484 5578 0
5484 -5578 0
-5477 5586 0
5477 -5586 0
-5478 5587 0
5478 -5587 0
-5479 5588 0
5479 -5588 0
-5480 5589 0
5480 -5589 0
-5473 5597 0
5473 -5597 0
-5474 5598 0
5474 -5598 0
-5475 5599 0
5475 -5599 0
-5476 5600 0
5476 -5600 0
-5469 5608 0
5469 -5608 0
-5470 5609 0
5470 -5609 0
-5471 5610 0
5471 -5610 0
-5472 5611 0
5472 -5611 0
-5465 5619 0
5465 -5619 0
-5466 5620 0
5466 -5620 0
-5467 5621 0
5467 -5621 0
-5468 5622 0
5468 -5622 0
-5461 5630 0
5461 -5630 0
-5462 5631 0
5462 -5631 0
-5463 5632 0
5463 -5632 0
-5464 5633 0
5464 -5633 0
-5457 5641 0
5457 -5641 0
-5458 5642 0
5458 -5642 0
-5459 5643 0
5459 -5643 0
-5460 5644 0
5460 -5644 0
-5453 5652 0
5453 -5652 0
-5454 5653 0
5454 -5653 0
-5455 5654 0
5455 -5654 0
-5456 5655 0
5456 -5655 0
-5449 5663 0
5449 -5663 0
-5450 5664 0
5450 -5664 0
-5451 5665 0
5451 -5665 0
-5452 5666 0
5452 -5666 0
-5445 5674 0
5445 -5674 0
-5446 5675 0
5446 -5675 0
-5447 5676 0
5447 -5676 0
-5448 5677 0
5448 -5677 0
-5441 5685 0
5441 -5685 0
-5442 5686 0
5442 -5686 0
-5443 5687 0
5443 -5687 0
-5444 5688 0
5444 -5688 0
-5437 5696 0
5437 -5696 0
-5438 5697 0
5438 -5697 0
-5439 5698 0
5439 -5698 0
-5440 5699 0
5440 -5699 0
-5433 5707 0
5433 -5707 0
-5434 5708 0
5434 -5708 0
-5435 5709 0
5435 -5709 0
-5436 5710 0
5436 -5710 0
-5429 5718 0
5429 -5718 0
-5430 5719 0
5430 -5719 0
-5431 5720 0
5431 -5720 0
-5432 5721 0
5432 -5721 0
-5425 5729 0
5425 -5729 0
-5426 5730 0
5426 -5730 0
-5427 5731 0
5427 -5731 0
-5428 5732 0
5428 -5732 0
-5421 5740 0
5421 -5740 0
-5422 5741 0
5422 -5741 0
-5423 5742 0
5423 -5742 0
-5424 5743 0
5424 -5743 0
-5417 5751 0
5417 -5751 0
-5418 5752 0
5418 -5752 0
-5419 5753 0
5419 -5753 0
-5420 5754 0
5420 -5754 0
-5413 5762 0
5413 -5762 0
-5414 5763 0
5414 -5763 0
-5415 5764 0
5415 -5764 0
-5416 5765 0
5416 -5765 0
-5409 5773 0
5409 -5773 0
-5410 5774 0
5410 -5774 0
-5411 5775 0
5411 -5775 0
-5412 5776 0
5412 -5776 0
-5405 5784 0
5405 -5784 0
-5406 5785 0
5406 -5785 0
-5407 5786 0
5407 -5786 0
-5408 5787 0
5408 -5787 0
-5401 5795 0
5401 -5795 0
-5402 5796 0
5402 -5796 0
-5403 5797 0
5403 -5797 0
-5404 5798 0
5404 -5798 0
-5397 5806 0
5397 -5806 0
-5398 5807 0
5398 -5807 0
-5399 5808 0
5399 -5808 0
-5400 5809 0
5400 -5809 0
-5393 5817 0
5393 -5817 0
-5394 5818 0
5394 -5818 0
-5395 5819 0
5395 -5819 0
-5396 5820 0
5396 -5820 0
-5389 5828 0
5389 -5828 0
-5390 5829 0
5390 -5829 0
-5391 5830 0
5391 -5830 0
-5392 5831 0
5392 -5831 0
-5385 5839 0
5385 -5839 0
-5386 5840 0
5386 -5840 0
-5387 5841 0
5387 -5841 0
-5388 5842 0
5388 -5842 0
-5381 5850 0
5381 -5850 0
-5382 5851 0
5382 -5851 0
-5383 5852 0
5383 -5852 0
-5384 5853 0
5384 -5853 0
-5854 5861 0
5854 -5861 0
-5855 5862 0
5855 -5862 0
-5856 5863 0
5856 -5863 0
-5857 5864 0
5857 -5864 0
-5843 5865 0
5843 -5865 0
-5844 5866 0
5844 -5866 0
-5845 5867 0
5845 -5867 0
-5846 5868 0
5846 -5868 0
-5832 5869 0
5832 -5869 0
-5833 5870 0
5833 -5870 0
-5834 5871 0
5834 -5871 0
-5835 5872 0
5835 -5872 0
-5821 5873 0
5821 -5873 0
-5822 5874 0
5822 -5874 0
-5823 5875 0
5823 -5875 0
-5824 5876 0
5824 -5876 0
-5810 5877 0
5810 -5877 0
-5811 5878 0
5811 -5878 0
-5812 5879 0
5812 -5879 0
-5813 5880 0
5813 -5880 0
-5799 5881 0
5799 -5881 0
-5800 5882 0
5800 -5882 0
-5801 5883 0
5801 -5883 0
-5802 5884 0
5802 -5884 0
-5788 5885 0
5788 -5885 0
-5789 5886 0
5789 -5886 0
-5790 5887 0
5790 -5887 0
-5791 5888 0
5791 -5888 0
-5777 5889 0
5777 -5889 0
-5778 5890 0
5778 -5890 0
-5779 5891 0
5779 -5891 0
-5780 5892 0
5780 -5892 0
-5766 5893 0
5766 -5893 0
-5767 5894 0
5767 -5894 0
-5768 5895 0
5768 -5895 0
-5769 5896 0
5769 -5896 0
-5755 5897 0
5755 -5897 0
-5756 5898 0
5756 -5898 0
-5757 5899 0
5757 -5899 0
-5758 5900 0
5758 -5900 0
-5744 5901 0
5744 -5901 0
-5745 5902 0
5745 -5902 0
-5746 5903 0
5746 -5903 0
-5747 5904 0
5747 -5904 0
-5733 5905 0
5733 -5905 0
-5734 5906 0
5734 -5906 0
-5735 5907 0
5735 -5907 0
-5736 5908 0
5736 -5908 0
-5722 5909 0
5722 -5909 0
-5723 5910 0
5723 -5910 0
-5724 5911 0
5724 -5911 0
-5725 5912 0
5725 -5912 0
-5711 5913 0
5711 -5913 0
-5712 5914 0
5712 -5914 0
-5713 5915 0
5713 -5915 0
-5714 5916 0
5714 -5916 0
-5700 5917 0
5700 -5917 0
-5701 5918 0
5701 -5918 0
-5702 5919 0
5702 -5919 0
-5703 5920 0
5703 -5920 0
-5689 5921 0
5689 -5921 0
-5690 5922 0
5690 -5922 0
-5691 5923 0
5691 -5923 0
-5692 5924 0
5692 -5924 0
-5678 5925 0
5678 -5925 0
-5679 5926 0
5679 -5926 0
-5680 5927 0
5680 -5927 0
-5681 5928 0
5681 -5928 0
-5667 5929 0
5667 -5929 0
-5668 5930 0
5668 -5930 0
-5669 5931 0
5669 -5931 0
-5670 5932 0
5670 -5932 0
-5656 5933 0
5656 -5933 0
-5657 5934 0
5657 -5934 0
-5658 5935 0
5658 -5935 0
-5659 5936 0
5659 -5936 0
-5645 5937 0
5645 -5937 0
-5646 5938 0
5646 -5938 0
-5647 5939 0
5647 -5939 0
-5648 5940 0
5648 -5940 0
-5634 5941 0
5634 -5941 0
-5635 5942 0
5635 -5942 0
-5636 5943 0
5636 -5943 0
-5637 5944 0
5637 -5944 0
-5623 5945 0
5623 -5945 0
-5624 5946 0
5624 -5946 0
-5625 5947 0
5625 -5947 0
-5626 5948 0
5626 -5948 0
-5612 5949 0
5612 -5949 0
-5613 5950 0
5613 -5950 0
-5614 5951 0
5614 -5951 0
-5615 5952 0
5615 -5952 0
-5601 5953 0
5601 -5953 0
-5602 5954 0
5602 -5954 0
-5603 5955 0
5603 -5955 0
-5604 5956 0
5604 -5956 0
-5590 5957 0
5590 -5957 0
-5591 5958 0
5591 -5958 0
-5592 5959 0
5592 -5959 0
-5593 5960 0
5593 -5960 0
-5579 5961 0
5579 -5961 0
-5580 5962 0
5580 -5962 0
-5581 5963 0
5581 -5963 0
-5582 5964 0
5582 -5964 0
-5568 5965 0
5568 -5965 0
-5569 5966 0
5569 -5966 0
-5570 5967 0
5570 -5967 0
-5571 5968 0
5571 -5968 0
-5557 5969 0
5557 -5969 0
-5558 5970 0
5558 -5970 0
-5559 5971 0
5559 -5971 0
-5560 5972 0
5560 -5972 0
-5546 5973 0
5546 -5973 0
-5547 5974 0
5547 -5974 0
-5548 5975 0
5548 -5975 0
-5549 5976 0
5549 -5976 0
-5535 5977 0
5535 -5977 0
-5536 5978 0
5536 -5978 0
-5537 5979 0
5537 -5979 0
-5538 5980 0
5538 -5980 0
-5524 5981 0
5524 -5981 0
-5525 5982 0
5525 -5982 0
-5526 5983 0
5526 -5983 0
-5527 5984 0
5527 -5984 0
-5513 5985 0
5513 -5985 0
-5514 5986 0
5514 -5986 0
-5515 5987 0
5515 -5987 0
-5516 5988 0
5516 -5988 0
6245 -6117 0
-6245 6117 0
6246 -6118 0
-6246 6118 0
6247 -6119 0
-6247 6119 0
6248 -6120 0
-6248 6120 0
6249 -6121 0
-6249 6121 0
6250 -6122 0
-6250 6122 0
6251 -6123 0
-6251 6123 0
6252 -6124 0
-6252 6124 0
6253 -6125 0
-6253 6125 0
6254 -6126 0
-6254 6126 0
6255 -6127 0
-6255 6127 0
6256 -6128 0
-6256 6128 0
6257 -6129 0
-6257 6129 0
6258 -6130 0
-6258 6130 0
6259 -6131 0
-6259 6131 0
6260 -6132 0
-6260 6132 0
6261 -6133 0
-6261 6133 0
6262 -6134 0
-6262 6134 0
6263 -6135 0
-6263 6135 0
6264 -6136 0
-6264 6136 0
6265 -6137 0
-6265 6137 0
6266 -6138 0
-6266 6138 0
6267 -6139 0
-6267 6139 0
6268 -6140 0
-6268 6140 0
6269 -6141 0
-6269 6141 0
6270 -6142 0
-6270 6142 0
6271 -6143 0
-6271 6143 0
6272 -6144 0
-6272 6144 0
6273 -6145 0
-6273 6145 0
6274 -6146 0
-6274 6146 0
6275 -6147 0
-6275 6147 0
6276 -6148 0
-6276 6148 0
6277 -6149 0
-6277 6149 0
6278 -6150 0
-6278 6150 0
6279 -6151 0
-6279 6151 0
6280 -6152 0
-6280 6152 0
6281 -6153 0
-6281 6153 0
6282 -6154 0
-6282 6154 0
6283 -6155 0
-6283 6155 0
6284 -6156 0
-6284 6156 0
6285 -6157 0
-6285 6157 0
6286 -6158 0
-6286 6158 0
6287 -6159 0
-6287 6159 0
6288 -6160 0
-6288 6160 0
6289 -6161 0
-6289 6161 0
6290 -6162 0
-6290 6162 0
6291 -6163 0
-6291 6163 0
6292 -6164 0
-6292 6164 0
6293 -6165 0
-6293 6165 0
6294 -6166 0
-6294 6166 0
6295 -6167 0
-6295 6167 0
6296 -6168 0
-6296 6168 0
6297 -6169 0
-6297 6169 0
6298 -6170 0
-6298 6170 0
6299 -6171 0
-6299 6171 0
6300 -6172 0
-6300 6172 0
6301 -6173 0
-6301 6173 0
6302 -6174 0
-6302 6174 0
6303 -6175 0
-6303 6175 0
6304 -6176 0
-6304 6176 0
6305 -6177 0
-6305 6177 0
6306 -6178 0
-6306 6178 0
6307 -6179 0
-6307 6179 0
6308 -6180 0
-6308 6180 0
6309 -6181 0
-6309 6181 0
6310 -6182 0
-6310 6182 0
6311 -6183 0
-6311 6183 0
6312 -6184 0
-6312 6184 0
6313 -6185 0
-6313 6185 0
6314 -6186 0
-6314 6186 0
6315 -6187 0
-6315 6187 0
6316 -6188 0
-6316 6188 0
6317 -6189 0
-6317 6189 0
6318 -6190 0
-6318 6190 0
6319 -6191 0
-6319 6191 0
6320 -6192 0
-6320 6192 0
6321 -6193 0
-6321 6193 0
6322 -6194 0
-6322 6194 0
6323 -6195 0
-6323 6195 0
6324 -6196 0
-6324 6196 0
6325 -6197 0
-6325 6197 0
6326 -6198 0
-6326 6198 0
6327 -6199 0
-6327 6199 0
6328 -6200 0
-6328 6200 0
6329 -6201 0
-6329 6201 0
6330 -6202 0
-6330 6202 0
6331 -6203 0
-6331 6203 0
6332 -6204 0
-6332 6204 0
6333 -6205 0
-6333 6205 0
6334 -6206 0
-6334 6206 0
6335 -6207 0
-6335 6207 0
6336 -6208 0
-6336 6208 0
6337 -6209 0
-6337 6209 0
6338 -6210 0
-6338 6210 0
6339 -6211 0
-6339 6211 0
6340 -6212 0
-6340 6212 0
6341 -6213 0
-6341 6213 0
6342 -6214 0
-6342 6214 0
6343 -6215 0
-6343 6215 0
6344 -6216 0
-6344 6216 0
6345 -6217 0
-6345 6217 0
6346 -6218 0
-6346 6218 0
6347 -6219 0
-6347 6219 0
6348 -6220 0
-6348 6220 0
6349 -6221 0
-6349 6221 0
6350 -6222 0
-6350 6222 0
6351 -6223 0
-6351 6223 0
6352 -6224 0
-6352 6224 0
6353 -6225 0
-6353 6225 0
6354 -6226 0
-6354 6226 0
6355 -6227 0
-6355 6227 0
6356 -6228 0
-6356 6228 0
6357 -6229 0
-6357 6229 0
6358 -6230 0
-6358 6230 0
6359 -6231 0
-6359 6231 0
6360 -6232 0
-6360 6232 0
6361 -6233 0
-6361 6233 0
6362 -6234 0
-6362 6234 0
6363 -6235 0
-6363 6235 0
6364 -6236 0
-6364 6236 0
6365 -6237 0
-6365 6237 0
6366 -6238 0
-6366 6238 0
6367 -6239 0
-6367 6239 0
6368 -6240 0
-6368 6240 0
6369 -6241 0
-6369 6241 0
6370 -6242 0
-6370 6242 0
6371 -6243 0
-6371 6243 0
6372 -6244 0
-6372 6244 0
6501 -6373 0
-6501 6373 0
6533 -6374 0
-6533 6374 0
6565 -6375 0
-6565 6375 0
6597 -6376 0
-6597 6376 0
6502 -6377 0
-6502 6377 0
6534 -6378 0
-6534 6378 0
6566 -6379 0
-6566 6379 0
6598 -6380 0
-6598 6380 0
6503 -6381 0
-6503 6381 0
6535 -6382 0
-6535 6382 0
6567 -6383 0
-6567 6383 0
6599 -6384 0
-6599 6384 0
6504 -6385 0
-6504 6385 0
6536 -6386 0
-6536 6386 0
6568 -6387 0
-6568 6387 0
6600 -6388 0
-6600 6388 0
6505 -6389 0
-6505 6389 0
6537 -6390 0
-6537 6390 0
6569 -6391 0
-6569 6391 0
6601 -6392 0
-6601 6392 0
6506 -6393 0
-6506 6393 0
6538 -6394 0
-6538 6394 0
6570 -6395 0
-6570 6395 0
6602 -6396 0
-6602 6396 0
6507 -6397 0
-6507 6397 0
6539 -6398 0
-6539 6398 0
6571 -6399 0
-6571 6399 0
6603 -6400 0
-6603 6400 0
6508 -6401 0
-6508 6401 0
6540 -6402 0
-6540 6402 0
6572 -6403 0
-6572 6403 0
6604 -6404 0
-6604 6404 0
6509 -6405 0
-6509 6405 0
6541 -6406 0
-6541 6406 0
6573 -6407 0
-6573 6407 0
6605 -6408 0
-6605 6408 0
6510 -6409 0
-6510 6409 0
6542 -6410 0
-6542 6410 0
6574 -6411 0
-6574 6411 0
6606 -6412 0
-6606 6412 0
6511 -6413 0
-6511 6413 0
6543 -6414 0
-6543 6414 0
6575 -6415 0
-6575 6415 0
6607 -6416 0
-6607 6416 0
6512 -6417 0
-6512 6417 0
6544 -6418 0
-6544 6418 0
6576 -6419 0
-6576 6419 0
6608 -6420 0
-6608 6420 0
6513 -6421 0
-6513 6421 0
6545 -6422 0
-6545 6422 0
6577 -6423 0
-6577 6423 0
6609 -6424 0
-6609 6424 0
6514 -6425 0
-6514 6425 0
6546 -6426 0
-6546 6426 0
6578 -6427 0
-6578 6427 0
6610 -6428 0
-6610 6428 0
6515 -6429 0
-6515 6429 0
6547 -6430 0
-6547 6430 0
6579 -6431 0
-6579 6431 0
6611 -6432 0
-6611 6432 0
6516 -6433 0
-6516 6433 0
6548 -6434 0
-6548 6434 0
6580 -6435 0
-6580 6435 0
6612 -6436 0
-6612 6436 0
6517 -6437 0
-6517 6437 0
6549 -6438 0
-6549 6438 0
6581 -6439 0
-6581 6439 0
6613 -6440 0
-6613 6440 0
6518 -6441 0
-6518 6441 0
6550 -6442 0
-6550 6442 0
6582 -6443 0
-6582 6443 0
6614 -6444 0
-6614 6444 0
6519 -6445 0
-6519 6445 0
6551 -6446 0
-6551 6446 0
6583 -6447 0
-6583 6447 0
6615 -6448 0
-6615 6448 0
6520 -6449 0
-6520 6449 0
6552 -6450 0
-6552 6450 0
6584 -6451 0
-6584 6451 0
6616 -6452 0
-6616 6452 0
6521 -6453 0
-6521 6453 0
6553 -6454 0
-6553 6454 0
6585 -6455 0
-6585 6455 0
6617 -6456 0
-6617 6456 0
6522 -6457 0
-6522 6457 0
6554 -6458 0
-6554 6458 0
6586 -6459 0
-6586 6459 0
6618 -6460 0
-6618 6460 0
6523 -6461 0
-6523 6461 0
6555 -6462 0
-6555 6462 0
6587 -6463 0
-6587 6463 0
6619 -6464 0
-6619 6464 0
6524 -6465 0
-6524 6465 0
6556 -6466 0
-6556 6466 0
6588 -6467 0
-6588 6467 0
6620 -6468 0
-6620 6468 0
6525 -6469 0
-6525 6469 0
6557 -6470 0
-6557 6470 0
6589 -6471 0
-6589 6471 0
6621 -6472 0
-6621 6472 0
6526 -6473 0
-6526 6473 0
6558 -6474 0
-6558 6474 0
6590 -6475 0
-6590 6475 0
6622 -6476 0
-6622 6476 0
6527 -6477 0
-6527 6477 0
6559 -6478 0
-6559 6478 0
6591 -6479 0
-6591 6479 0
6623 -6480 0
-6623 6480 0
6528 -6481 0
-6528 6481 0
6560 -6482 0
-6560 6482 0
6592 -6483 0
-6592 6483 0
6624 -6484 0
-6624 6484 0
6529 -6485 0
-6529 6485 0
6561 -6486 0
-6561 6486 0
6593 -6487 0
-6593 6487 0
6625 -6488 0
-6625 6488 0
6530 -6489 0
-6530 6489 0
6562 -6490 0
-6562 6490 0
6594 -6491 0
-6594 6491 0
6626 -6492 0
-6626 6492 0
6531 -6493 0
-6531 6493 0
6563 -6494 0
-6563 6494 0
6595 -6495 0
-6595 6495 0
6627 -6496 0
-6627 6496 0
6532 -6497 0
-6532 6497 0
6564 -6498 0
-6564 6498 0
6596 -6499 0
-6596 6499 0
6628 -6500 0
-6628 6500 0
-6757 6629 0
6757 -6629 0
-6758 6630 0
6758 -6630 0
-6759 6631 0
6759 -6631 0
-6760 6632 0
6760 -6632 0
-6761 6633 0
6761 -6633 0
-6762 6634 0
6762 -6634 0
-6763 6635 0
6763 -6635 0
-6764 6636 0
6764 -6636 0
-6765 6637 0
6765 -6637 0
-6766 6638 0
6766 -6638 0
-6767 6639 0
6767 -6639 0
-6768 6640 0
6768 -6640 0
-6769 6641 0
6769 -6641 0
-6770 6642 0
6770 -6642 0
-6771 6643 0
6771 -6643 0
-6772 6644 0
6772 -6644 0
-6773 6645 0
6773 -6645 0
-6774 6646 0
6774 -6646 0
-6775 6647 0
6775 -6647 0
-6776 6648 0
6776 -6648 0
-6777 6649 0
6777 -6649 0
-6778 6650 0
6778 -6650 0
-6779 6651 0
6779 -6651 0
-6780 6652 0
6780 -6652 0
-6781 6653 0
6781 -6653 0
-6782 6654 0
6782 -6654 0
-6783 6655 0
6783 -6655 0
-6784 6656 0
6784 -6656 0
-6785 6657 0
6785 -6657 0
-6786 6658 0
6786 -6658 0
-6787 6659 0
6787 -6659 0
-6788 6660 0
6788 -6660 0
-6789 6661 0
6789 -6661 0
-6790 6662 0
6790 -6662 0
-6791 6663 0
6791 -6663 0
-6792 6664 0
6792 -6664 0
-6793 6665 0
6793 -6665 0
-6794 6666 0
6794 -6666 0
-6795 6667 0
6795 -6667 0
-6796 6668 0
6796 -6668 0
-6797 6669 0
6797 -6669 0
-6798 6670 0
6798 -6670 0
-6799 6671 0
6799 -6671 0
-6800 6672 0
6800 -6672 0
-6801 6673 0
6801 -6673 0
-6802 6674 0
6802 -6674 0
-6803 6675 0
6803 -6675 0
-6804 6676 0
6804 -6676 0
-6805 6677 0
6805 -6677 0
-6806 6678 0
6806 -6678 0
-6807 6679 0
6807 -6679 0
-6808 6680 0
6808 -6680 0
-6809 6681 0
6809 -6681 0
-6810 6682 0
6810 -6682 0
-6811 6683 0
6811 -6683 0
-6812 6684 0
6812 -6684 0
-6813 6685 0
6813 -6685 0
-6814 6686 0
6814 -6686 0
-6815 6687 0
6815 -6687 0
-6816 6688 0
6816 -6688 0
-6817 6689 0
6817 -6689 0
-6818 6690 0
6818 -6690 0
-6819 6691 0
6819 -6691 0
-6820 6692 0
6820 -6692 0
-6821 6693 0
6821 -6693 0
-6822 6694 0
6822 -6694 0
-6823 6695 0
6823 -6695 0
-6824 6696 0
6824 -6696 0
-6825 6697 0
6825 -6697 0
-6826 6698 0
6826 -6698 0
-6827 6699 0
6827 -6699 0
-6828 6700 0
6828 -6700 0
-6829 6701 0
6829 -6701 0
-6830 6702 0
6830 -6702 0
-6831 6703 0
6831 -6703 0
-6832 6704 0
6832 -6704 0
-6833 6705 0
6833 -6705 0
-6834 6706 0
6834 -6706 0
-6835 6707 0
6835 -6707 0
-6836 6708 0
6836 -6708 0
-6837 6709 0
6837 -6709 0
-6838 6710 0
6838 -6710 0
-6839 6711 0
6839 -6711 0
-6840 6712 0
6840 -6712 0
-6841 6713 0
6841 -6713 0
-6842 6714 0
6842 -6714 0
-6843 6715 0
6843 -6715 0
-6844 6716 0
6844 -6716 0
-6845 6717 0
6845 -6717 0
-6846 6718 0
6846 -6718 0
-6847 6719 0
6847 -6719 0
-6848 6720 0
6848 -6720 0
-6849 6721 0
6849 -6721 0
-6850 6722 0
6850 -6722 0
-6851 6723 0
6851 -6723 0
-6852 6724 0
6852 -6724 0
-6853 6725 0
6853 -6725 0
-6854 6726 0
6854 -6726 0
-6855 6727 0
6855 -6727 0
-6856 6728 0
6856 -6728 0
-6857 6729 0
6857 -6729 0
-6858 6730 0
6858 -6730 0
-6859 6731 0
6859 -6731 0
-6860 6732 0
6860 -6732 0
-6861 6733 0
6861 -6733 0
-6862 6734 0
6862 -6734 0
-6863 6735 0
6863 -6735 0
-6864 6736 0
6864 -6736 0
-6865 6737 0
6865 -6737 0
-6866 6738 0
6866 -6738 0
-6867 6739 0
6867 -6739 0
-6868 6740 0
6868 -6740 0
-6869 6741 0
6869 -6741 0
-6870 6742 0
6870 -6742 0
-6871 6743 0
6871 -6743 0
-6872 6744 0
6872 -6744 0
-6873 6745 0
6873 -6745 0
-6874 6746 0
6874 -6746 0
-6875 6747 0
6875 -6747 0
-6876 6748 0
6876 -6748 0
-6877 6749 0
6877 -6749 0
-6878 6750 0
6878 -6750 0
-6879 6751 0
6879 -6751 0
-6880 6752 0
6880 -6752 0
-6881 6753 0
6881 -6753 0
-6882 6754 0
6882 -6754 0
-6883 6755 0
6883 -6755 0
-6884 6756 0
6884 -6756 0
1 -257 0
-1 257 0
2 -258 0
-2 258 0
3 -259 0
-3 259 0
4 -260 0
-4 260 0
5 -261 0
-5 261 0
6 -262 0
-6 262 0
7 -263 0
-7 263 0
8 -264 0
-8 264 0
9 -265 0
-9 265 0
10 -266 0
-10 266 0
11 -267 0
-11 267 0
12 -268 0
-12 268 0
13 -269 0
-13 269 0
14 -270 0
-14 270 0
15 -271 0
-15 271 0
16 -272 0
-16 272 0
17 -273 0
-17 273 0
18 -274 0
-18 274 0
19 -275 0
-19 275 0
20 -276 0
-20 276 0
21 -277 0
-21 277 0
22 -278 0
-22 278 0
23 -279 0
-23 279 0
24 -280 0
-24 280 0
25 -281 0
-25 281 0
26 -282 0
-26 282 0
27 -283 0
-27 283 0
28 -284 0
-28 284 0
29 -285 0
-29 285 0
30 -286 0
-30 286 0
31 -287 0
-31 287 0
32 -288 0
-32 288 0
33 -289 0
-33 289 0
34 -290 0
-34 290 0
35 -291 0
-35 291 0
36 -292 0
-36 292 0
37 -293 0
-37 293 0
38 -294 0
-38 294 0
39 -295 0
-39 295 0
40 -296 0
-40 296 0
41 -297 0
-41 297 0
42 -298 0
-42 298 0
43 -299 0
-43 299 0
44 -300 0
-44 300 0
45 -301 0
-45 301 0
46 -302 0
-46 302 0
47 -303 0
-47 303 0
48 -304 0
-48 304 0
49 -305 0
-49 305 0
50 -306 0
-50 306 0
51 -307 0
-51 307 0
52 -308 0
-52 308 0
53 -309 0
-53 309 0
54 -310 0
-54 310 0
55 -311 0
-55 311 0
56 -312 0
-56 312 0
57 -313 0
-57 313 0
58 -314 0
-58 314 0
59 -315 0
-59 315 0
60 -316 0
-60 316 0
61 -317 0
-61 317 0
62 -318 0
-62 318 0
63 -319 0
-63 319 0
64 -320 0
-64 320 0
65 -321 0
-65 321 0
66 -322 0
-66 322 0
67 -323 0
-67 323 0
68 -324 0
-68 324 0
69 -325 0
-69 325 0
70 -326 0
-70 326 0
71 -327 0
-71 327 0
72 -328 0
-72 328 0
73 -329 0
-73 329 0
74 -330 0
-74 330 0
75 -331 0
-75 331 0
76 -332 0
-76 332 0
77 -333 0
-77 333 0
78 -334 0
-78 334 0
79 -335 0
-79 335 0
80 -336 0
-80 336 0
81 -337 0
-81 337 0
82 -338 0
-82 338 0
83 -339 0
-83 339 0
84 -340 0
-84 340 0
85 -341 0
-85 341 0
86 -342 0
-86 342 0
87 -343 0
-87 343 0
88 -344 0
-88 344 0
89 -345 0
-89 345 0
90 -346 0
-90 346 0
91 -347 0
-91 347 0
92 -348 0
-92 348 0
93 -349 0
-93 349 0
94 -350 0
-94 350 0
95 -351 0
-95 351 0
96 -352 0
-96 352 0
97 -353 0
-97 353 0
98 -354 0
-98 354 0
99 -355 0
-99 355 0
100 -356 0
-100 356 0
101 -357 0
-101 357 0
102 -358 0
-102 358 0
103 -359 0
-103 359 0
104 -360 0
-104 360 0
105 -361 0
-105 361 0
106 -362 0
-106 362 0
107 -363 0
-107 363 0
108 -364 0
-108 364 0
109 -365 0
-109 365 0
110 -366 0
-110 366 0
111 -367 0
-111 367 0
112 -368 0
-112 368 0
113 -369 0
-113 369 0
114 -370 0
-114 370 0
115 -371 0
-115 371 0
116 -372 0
-116 372 0
117 -373 0
-117 373 0
118 -374 0
-118 374 0
119 -375 0
-119 375 0
120 -376 0
-120 376 0
121 -377 0
-121 377 0
122 -378 0
-122 378 0
123 -379 0
-123 379 0
124 -380 0
-124 380 0
125 -381 0
-125 381 0
126 -382 0
-126 382 0
127 -383 0
-127 383 0
128 -384 0
-128 384 0
6757 -129 0
-6757 129 0
6758 -130 0
-6758 130 0
6759 -131 0
-6759 131 0
6760 -132 0
-6760 132 0
6761 -133 0
-6761 133 0
6762 -134 0
-6762 134 0
6763 -135 0
-6763 135 0
6764 -136 0
-6764 136 0
6765 -137 0
-6765 137 0
6766 -138 0
-6766 138 0
6767 -139 0
-6767 139 0
6768 -140 0
-6768 140 0
6769 -141 0
-6769 141 0
6770 -142 0
-6770 142 0
6771 -143 0
-6771 143 0
6772 -144 0
-6772 144 0
6773 -145 0
-6773 145 0
6774 -146 0
-6774 146 0
6775 -147 0
-6775 147 0
6776 -148 0
-6776 148 0
6777 -149 0
-6777 149 0
6778 -150 0
-6778 150 0
6779 -151 0
-6779 151 0
6780 -152 0
-6780 152 0
6781 -153 0
-6781 153 0
6782 -154 0
-6782 154 0
6783 -155 0
-6783 155 0
6784 -156 0
-6784 156 0
6785 -157 0
-6785 157 0
6786 -158 0
-6786 158 0
6787 -159 0
-6787 159 0
6788 -160 0
-6788 160 0
6789 -161 0
-6789 161 0
6790 -162 0
-6790 162 0
6791 -163 0
-6791 163 0
6792 -164 0
-6792 164 0
6793 -165 0
-6793 165 0
6794 -166 0
-6794 166 0
6795 -167 0
-6795 167 0
6796 -168 0
-6796 168 0
6797 -169 0
-6797 169 0
6798 -170 0
-6798 170 0
6799 -171 0
-6799 171 0
6800 -172 0
-6800 172 0
6801 -173 0
-6801 173 0
6802 -174 0
-6802 174 0
6803 -175 0
-6803 175 0
6804 -176 0
-6804 176 0
6805 -177 0
-6805 177 0
6806 -178 0
-6806 178 0
6807 -179 0
-6807 179 0
6808 -180 0
-6808 180 0
6809 -181 0
-6809 181 0
6810 -182 0
-6810 182 0
6811 -183 0
-6811 183 0
6812 -184 0
-6812 184 0
6813 -185 0
-6813 185 0
6814 -186 0
-6814 186 0
6815 -187 0
-6815 187 0
6816 -188 0
-6816 188 0
6817 -189 0
-6817 189 0
6818 -190 0
-6818 190 0
6819 -191 0
-6819 191 0
6820 -192 0
-6820 192 0
6821 -193 0
-6821 193 0
6822 -194 0
-6822 194 0
6823 -195 0
-6823 195 0
6824 -196 0
-6824 196 0
6825 -197 0
-6825 197 0
6826 -198 0
-6826 198 0
6827 -199 0
-6827 199 0
6828 -200 0
-6828 200 0
6829 -201 0
-6829 201 0
6830 -202 0
-6830 202 0
6831 -203 0
-6831 203 0
6832 -204 0
-6832 204 0
6833 -205 0
-6833 205 0
6834 -206 0
-6834 206 0
6835 -207 0
-6835 207 0
6836 -208 0
-6836 208 0
6837 -209 0
-6837 209 0
6838 -210 0
-6838 210 0
6839 -211 0
-6839 211 0
6840 -212 0
-6840 212 0
6841 -213 0
-6841 213 0
6842 -214 0
-6842 214 0
6843 -215 0
-6843 215 0
6844 -216 0
-6844 216 0
6845 -217 0
-6845 217 0
6846 -218 0
-6846 218 0
6847 -219 0
-6847 219 0
6848 -220 0
-6848 220 0
6849 -221 0
-6849 221 0
6850 -222 0
-6850 222 0
6851 -223 0
-6851 223 0
6852 -224 0
-6852 224 0
6853 -225 0
-6853 225 0
6854 -226 0
-6854 226 0
6855 -227 0
-6855 227 0
6856 -228 0
-6856 228 0
6857 -229 0
-6857 229 0
6858 -230 0
-6858 230 0
6859 -231 0
-6859 231 0
6860 -232 0
-6860 232 0
6861 -233 0
-6861 233 0
6862 -234 0
-6862 234 0
6863 -235 0
-6863 235 0
6864 -236 0
-6864 236 0
6865 -237 0
-6865 237 0
6866 -238 0
-6866 238 0
6867 -239 0
-6867 239 0
6868 -240 0
-6868 240 0
6869 -241 0
-6869 241 0
6870 -242 0
-6870 242 0
6871 -243 0
-6871 243 0
6872 -244 0
-6872 244 0
6873 -245 0
-6873 245 0
6874 -246 0
-6874 246 0
6875 -247 0
-6875 247 0
6876 -248 0
-6876 248 0
6877 -249 0
-6877 249 0
6878 -250 0
-6878 250 0
6879 -251 0
-6879 251 0
6880 -252 0
-6880 252 0
6881 -253 0
-6881 253 0
6882 -254 0
-6882 254 0
6883 -255 0
-6883 255 0
6884 -256 0
-6884 256 0
-385 513 0
385 -513 0
-386 514 0
386 -514 0
-387 515 0
387 -515 0
-388 516 0
388 -516 0
-389 517 0
389 -517 0
-390 518 0
390 -518 0
-391 519 0
391 -519 0
-392 520 0
392 -520 0
-393 521 0
393 -521 0
-394 522 0
394 -522 0
-395 523 0
395 -523 0
-396 524 0
396 -524 0
-397 525 0
397 -525 0
-398 526 0
398 -526 0
-399 527 0
399 -527 0
-400 528 0
400 -528 0
-401 529 0
401 -529 0
-402 530 0
402 -530 0
-403 531 0
403 -531 0
-404 532 0
404 -532 0
-405 533 0
405 -533 0
-406 534 0
406 -534 0
-407 535 0
407 -535 0
-408 536 0
408 -536 0
-409 537 0
409 -537 0
-410 538 0
410 -538 0
-411 539 0
411 -539 0
-412 540 0
412 -540 0
-413 541 0
413 -541 0
-414 542 0
414 -542 0
-415 543 0
415 -543 0
-416 544 0
416 -544 0
-417 545 0
417 -545 0
-418 546 0
418 -546 0
-419 547 0
419 -547 0
-420 548 0
420 -548 0
-421 549 0
421 -549 0
-422 550 0
422 -550 0
-423 551 0
423 -551 0
-424 552 0
424 -552 0
-425 553 0
425 -553 0
-426 554 0
426 -554 0
-427 555 0
427 -555 0
-428 556 0
428 -556 0
-429 557 0
429 -557 0
-430 558 0
430 -558 0
-431 559 0
431 -559 0
-432 560 0
432 -560 0
-433 561 0
433 -561 0
-434 562 0
434 -562 0
-435 563 0
435 -563 0
-436 564 0
436 -564 0
-437 565 0
437 -565 0
-438 566 0
438 -566 0
-439 567 0
439 -567 0
-440 568 0
440 -568 0
-441 569 0
441 -569 0
-442 570 0
442 -570 0
-443 571 0
443 -571 0
-444 572 0
444 -572 0
-445 573 0
445 -573 0
-446 574 0
446 -574 0
-447 575 0
447 -575 0
-448 576 0
448 -576 0
-449 577 0
449 -577 0
-450 578 0
450 -578 0
-451 579 0
451 -579 0
-452 580 0
452 -580 0
-453 581 0
453 -581 0
-454 582 0
454 -582 0
-455 583 0
455 -583 0
-456 584 0
456 -584 0
-457 585 0
457 -585 0
-458 586 0
458 -586 0
-459 587 0
459 -587 0
-460 588 0
460 -588 0
-461 589 0
461 -589 0
-462 590 0
462 -590 0
-463 591 0
463 -591 0
-464 592 0
464 -592 0
-465 593 0
465 -593 0
-466 594 0
466 -594 0
-467 595 0
467 -595 0
-468 596 0
468 -596 0
-469 597 0
469 -597 0
-470 598 0
470 -598 0
-471 599 0
471 -599 0
-472 600 0
472 -600 0
-473 601 0
473 -601 0
-474 602 0
474 -602 0
-475 603 0
475 -603 0
-476 604 0
476 -604 0
-477 605 0
477 -605 0
-478 606 0
478 -606 0
-479 607 0
479 -607 0
-480 608 0
480 -608 0
-481 609 0
481 -609 0
-482 610 0
482 -610 0
-483 611 0
483 -611 0
-484 612 0
484 -612 0
-485 613 0
485 -613 0
-486 614 0
486 -614 0
-487 615 0
487 -615 0
-488 616 0
488 -616 0
-489 617 0
489 -617 0
-490 618 0
490 -618 0
-491 619 0
491 -619 0
-492 620 0
492 -620 0
-493 621 0
493 -621 0
-494 622 0
494 -622 0
-495 623 0
495 -623 0
-496 624 0
496 -624 0
-497 625 0
497 -625 0
-498 626 0
498 -626 0
-499 627 0
499 -627 0
-500 628 0
500 -628 0
-501 629 0
501 -629 0
-502 630 0
502 -630 0
-503 631 0
503 -631 0
-504 632 0
504 -632 0
-505 633 0
505 -633 0
-506 634 0
506 -634 0
-507 635 0
507 -635 0
-508 636 0
508 -636 0
-509 637 0
509 -637 0
-510 638 0
510 -638 0
-511 639 0
511 -639 0
-512 640 0
512 -640 0
-641 769 0
641 -769 0
-642 770 0
642 -770 0
-643 771 0
643 -771 0
-644 772 0
644 -772 0
-645 773 0
645 -773 0
-646 774 0
646 -774 0
-647 775 0
647 -775 0
-648 776 0
648 -776 0
-649 777 0
649 -777 0
-650 778 0
650 -778 0
-651 779 0
651 -779 0
-652 780 0
652 -780 0
-653 781 0
653 -781 0
-654 782 0
654 -782 0
-655 783 0
655 -783 0
-656 784 0
656 -784 0
-657 785 0
657 -785 0
-658 786 0
658 -786 0
-659 787 0
659 -787 0
-660 788 0
660 -788 0
-661 789 0
661 -789 0
-662 790 0
662 -790 0
-663 791 0
663 -791 0
-664 792 0
664 -792 0
-665 793 0
665 -793 0
-666 794 0
666 -794 0
-667 795 0
667 -795 0
-668 796 0
668 -796 0
-669 797 0
669 -797 0
-670 798 0
670 -798 0
-671 799 0
671 -799 0
-672 800 0
672 -800 0
-673 801 0
673 -801 0
-674 802 0
674 -802 0
-675 803 0
675 -803 0
-676 804 0
676 -804 0
-677 805 0
677 -805 0
-678 806 0
678 -806 0
-679 807 0
679 -807 0
-680 808 0
680 -808 0
-681 809 0
681 -809 0
-682 810 0
682 -810 0
-683 811 0
683 -811 0
-684 812 0
684 -812 0
-685 813 0
685 -813 0
-686 814 0
686 -814 0
-687 815 0
687 -815 0
-688 816 0
688 -816 0
-689 817 0
689 -817 0
-690 818 0
690 -818 0
-691 819 0
691 -819 0
-692 820 0
692 -820 0
-693 821 0
693 -821 0
-694 822 0
694 -822 0
-695 823 0
695 -823 0
-696 824 0
696 -824 0
-697 825 0
697 -825 0
-698 826 0
698 -826 0
-699 827 0
699 -827 0
-700 828 0
700 -828 0
-701 829 0
701 -829 0
-702 830 0
702 -830 0
-703 831 0
703 -831 0
-704 832 0
704 -832 0
-705 833 0
705 -833 0
-706 834 0
706 -834 0
-707 835 0
707 -835 0
-708 836 0
708 -836 0
-709 837 0
709 -837 0
-710 838 0
710 -838 0
-711 839 0
711 -839 0
-712 840 0
712 -840 0
-713 841 0
713 -841 0
-714 842 0
714 -842 0
-715 843 0
715 -843 0
-716 844 0
716 -844 0
-717 845 0
717 -845 0
-718 846 0
718 -846 0
-719 847 0
719 -847 0
-720 848 0
720 -848 0
-721 849 0
721 -849 0
-722 850 0
722 -850 0
-723 851 0
723 -851 0
-724 852 0
724 -852 0
-725 853 0
725 -853 0
-726 854 0
726 -854 0
-727 855 0
727 -855 0
-728 856 0
728 -856 0
-729 857 0
729 -857 0
-730 858 0
730 -858 0
-731 859 0
731 -859 0
-732 860 0
732 -860 0
-733 861 0
733 -861 0
-734 862 0
734 -862 0
-735 863 0
735 -863 0
-736 864 0
736 -864 0
-737 865 0
737 -865 0
-738 866 0
738 -866 0
-739 867 0
739 -867 0
-740 868 0
740 -868 0
-741 869 0
741 -869 0
-742 870 0
742 -870 0
-743 871 0
743 -871 0
-744 872 0
744 -872 0
-745 873 0
745 -873 0
-746 874 0
746 -874 0
-747 875 0
747 -875 0
-748 876 0
748 -876 0
-749 877 0
749 -877 0
-750 878 0
750 -878 0
-751 879 0
751 -879 0
-752 880 0
752 -880 0
-753 881 0
753 -881 0
-754 882 0
754 -882 0
-755 883 0
755 -883 0
-756 884 0
756 -884 0
-757 885 0
757 -885 0
-758 886 0
758 -886 0
-759 887 0
759 -887 0
-760 888 0
760 -888 0
-761 889 0
761 -889 0
-762 890 0
762 -890 0
-763 891 0
763 -891 0
-764 892 0
764 -892 0
-765 893 0
765 -893 0
-766 894 0
766 -894 0
-767 895 0
767 -895 0
-768 896 0
768 -896 0
-897 1025 0
897 -1025 0
-898 1026 0
898 -1026 0
-899 1027 0
899 -1027 0
-900 1028 0
900 -1028 0
-901 1029 0
901 -1029 0
-902 1030 0
902 -1030 0
-903 1031 0
903 -1031 0
-904 1032 0
904 -1032 0
-905 1033 0
905 -1033 0
-906 1034 0
906 -1034 0
-907 1035 0
907 -1035 0
-908 1036 0
908 -1036 0
-909 1037 0
909 -1037 0
-910 1038 0
910 -1038 0
-911 1039 0
911 -1039 0
-912 1040 0
912 -1040 0
-913 1041 0
913 -1041 0
-914 1042 0
914 -1042 0
-915 1043 0
915 -1043 0
-916 1044 0
916 -1044 0
-917 1045 0
917 -1045 0
-918 1046 0
918 -1046 0
-919 1047 0
919 -1047 0
-920 1048 0
920 -1048 0
-921 1049 0
921 -1049 0
-922 1050 0
922 -1050 0
-923 1051 0
923 -1051 0
-924 1052 0
924 -1052 0
-925 1053 0
925 -1053 0
-926 1054 0
926 -1054 0
-927 1055 0
927 -1055 0
-928 1056 0
928 -1056 0
-929 1057 0
929 -1057 0
-930 1058 0
930 -1058 0
-931 1059 0
931 -1059 0
-932 1060 0
932 -1060 0
-933 1061 0
933 -1061 0
-934 1062 0
934 -1062 0
-935 1063 0
935 -1063 0
-936 1064 0
936 -1064 0
-937 1065 0
937 -1065 0
-938 1066 0
938 -1066 0
-939 1067 0
939 -1067 0
-940 1068 0
940 -1068 0
-941 1069 0
941 -1069 0
-942 1070 0
942 -1070 0
-943 1071 0
943 -1071 0
-944 1072 0
944 -1072 0
-945 1073 0
945 -1073 0
-946 1074 0
946 -1074 0
-947 1075 0
947 -1075 0
-948 1076 0
948 -1076 0
-949 1077 0
949 -1077 0
-950 1078 0
950 -1078 0
-951 1079 0
951 -1079 0
-952 1080 0
952 -1080 0
-953 1081 0
953 -1081 0
-954 1082 0
954 -1082 0
-955 1083 0
955 -1083 0
-956 1084 0
956 -1084 0
-957 1085 0
957 -1085 0
-958 1086 0
958 -1086 0
-959 1087 0
959 -1087 0
-960 1088 0
960 -1088 0
-961 1089 0
961 -1089 0
-962 1090 0
962 -1090 0
-963 1091 0
963 -1091 0
-964 1092 0
964 -1092 0
-965 1093 0
965 -1093 0
-966 1094 0
966 -1094 0
-967 1095 0
967 -1095 0
-968 1096 0
968 -1096 0
-969 1097 0
969 -1097 0
-970 1098 0
970 -1098 0
-971 1099 0
971 -1099 0
-972 1100 0
972 -1100 0
-973 1101 0
973 -1101 0
-974 1102 0
974 -1102 0
-975 1103 0
975 -1103 0
-976 1104 0
976 -1104 0
-977 1105 0
977 -1105 0
-978 1106 0
978 -1106 0
-979 1107 0
979 -1107 0
-980 1108 0
980 -1108 0
-981 1109 0
981 -1109 0
-982 1110 0
982 -1110 0
-983 1111 0
983 -1111 0
-984 1112 0
984 -1112 0
-985 1113 0
985 -1113 0
-986 1114 0
986 -1114 0
-987 1115 0
987 -1115 0
-988 1116 0
988 -1116 0
-989 1117 0
989 -1117 0
-990 1118 0
990 -1118 0
-991 1119 0
991 -1119 0
-992 1120 0
992 -1120 0
-993 1121 0
993 -1121 0
-994 1122 0
994 -1122 0
-995 1123 0
995 -1123 0
-996 1124 0
996 -1124 0
-997 1125 0
997 -1125 0
-998 1126 0
998 -1126 0
-999 1127 0
999 -1127 0
-1000 1128 0
1000 -1128 0
-1001 1129 0
1001 -1129 0
-1002 1130 0
1002 -1130 0
-1003 1131 0
1003 -1131 0
-1004 1132 0
1004 -1132 0
-1005 1133 0
1005 -1133 0
-1006 1134 0
1006 -1134 0
-1007 1135 0
1007 -1135 0
-1008 1136 0
1008 -1136 0
-1009 1137 0
1009 -1137 0
-1010 1138 0
1010 -1138 0
-1011 1139 0
1011 -1139 0
-1012 1140 0
1012 -1140 0
-1013 1141 0
1013 -1141 0
-1014 1142 0
1014 -1142 0
-1015 1143 0
1015 -1143 0
-1016 1144 0
1016 -1144 0
-1017 1145 0
1017 -1145 0
-1018 1146 0
1018 -1146 0
-1019 1147 0
1019 -1147 0
-1020 1148 0
1020 -1148 0
-1021 1149 0
1021 -1149 0
-1022 1150 0
1022 -1150 0
-1023 1151 0
1023 -1151 0
-1024 1152 0
1024 -1152 0
-1153 2145 0
1153 -2145 0
-1154 2146 0
1154 -2146 0
-1155 2147 0
1155 -2147 0
-1156 2148 0
1156 -2148 0
-1157 2149 0
1157 -2149 0
-1158 2150 0
1158 -2150 0
-1159 2151 0
1159 -2151 0
-1160 2152 0
1160 -2152 0
-1161 2153 0
1161 -2153 0
-1162 2154 0
1162 -2154 0
-1163 2155 0
1163 -2155 0
-1164 2156 0
1164 -2156 0
-1165 2157 0
1165 -2157 0
-1166 2158 0
1166 -2158 0
-1167 2159 0
1167 -2159 0
-1168 2160 0
1168 -2160 0
-1169 2161 0
1169 -2161 0
-1170 2162 0
1170 -2162 0
-1171 2163 0
1171 -2163 0
-1172 2164 0
1172 -2164 0
-1173 2165 0
1173 -2165 0
-1174 2166 0
1174 -2166 0
-1175 2167 0
1175 -2167 0
-1176 2168 0
1176 -2168 0
-1177 2169 0
1177 -2169 0
-1178 2170 0
1178 -2170 0
-1179 2171 0
1179 -2171 0
-1180 2172 0
1180 -2172 0
-1181 2173 0
1181 -2173 0
-1182 2174 0
1182 -2174 0
-1183 2175 0
1183 -2175 0
-1184 2176 0
1184 -2176 0
-1185 2177 0
1185 -2177 0
-1186 2178 0
1186 -2178 0
-1187 2179 0
1187 -2179 0
-1188 2180 0
1188 -2180 0
-1189 2181 0
1189 -2181 0
-1190 2182 0
1190 -2182 0
-1191 2183 0
1191 -2183 0
-1192 2184 0
1192 -2184 0
-1193 2185 0
1193 -2185 0
-1194 2186 0
1194 -2186 0
-1195 2187 0
1195 -2187 0
-1196 2188 0
1196 -2188 0
-1197 2189 0
1197 -2189 0
-1198 2190 0
1198 -2190 0
-1199 2191 0
1199 -2191 0
-1200 2192 0
1200 -2192 0
-1201 2193 0
1201 -2193 0
-1202 2194 0
1202 -2194 0
-1203 2195 0
1203 -2195 0
-1204 2196 0
1204 -2196 0
-1205 2197 0
1205 -2197 0
-1206 2198 0
1206 -2198 0
-1207 2199 0
1207 -2199 0
-1208 2200 0
1208 -2200 0
-1209 2201 0
1209 -2201 0
-1210 2202 0
1210 -2202 0
-1211 2203 0
1211 -2203 0
-1212 2204 0
1212 -2204 0
-1213 2205 0
1213 -2205 0
-1214 2206 0
1214 -2206 0
-1215 2207 0
1215 -2207 0
-1216 2208 0
1216 -2208 0
-1217 2209 0
1217 -2209 0
-1218 2210 0
1218 -2210 0
-1219 2211 0
1219 -2211 0
-1220 2212 0
1220 -2212 0
-1221 2213 0
1221 -2213 0
-1222 2214 0
1222 -2214 0
-1223 2215 0
1223 -2215 0
-1224 2216 0
1224 -2216 0
-1225 2217 0
1225 -2217 0
-1226 2218 0
1226 -2218 0
-1227 2219 0
1227 -2219 0
-1228 2220 0
1228 -2220 0
-1229 2221 0
1229 -2221 0
-1230 2222 0
1230 -2222 0
-1231 2223 0
1231 -2223 0
-1232 2224 0
1232 -2224 0
-1233 2225 0
1233 -2225 0
-1234 2226 0
1234 -2226 0
-1235 2227 0
1235 -2227 0
-1236 2228 0
1236 -2228 0
-1237 2229 0
1237 -2229 0
-1238 2230 0
1238 -2230 0
-1239 2231 0
1239 -2231 0
-1240 2232 0
1240 -2232 0
-1241 2233 0
1241 -2233 0
-1242 2234 0
1242 -2234 0
-1243 2235 0
1243 -2235 0
-1244 2236 0
1244 -2236 0
-1245 2237 0
1245 -2237 0
-1246 2238 0
1246 -2238 0
-1247 2239 0
1247 -2239 0
-1248 2240 0
1248 -2240 0
-1249 2241 0
1249 -2241 0
-1250 2242 0
1250 -2242 0
-1251 2243 0
1251 -2243 0
-1252 2244 0
1252 -2244 0
-1253 2245 0
1253 -2245 0
-1254 2246 0
1254 -2246 0
-1255 2247 0
1255 -2247 0
-1256 2248 0
1256 -2248 0
-1257 2249 0
1257 -2249 0
-1258 2250 0
1258 -2250 0
-1259 2251 0
1259 -2251 0
-1260 2252 0
1260 -2252 0
-1261 2253 0
1261 -2253 0
-1262 2254 0
1262 -2254 0
-1263 2255 0
1263 -2255 0
-1264 2256 0
1264 -2256 0
-1265 2257 0
1265 -2257 0
-1266 2258 0
1266 -2258 0
-1267 2259 0
1267 -2259 0
-1268 2260 0
1268 -2260 0
-1269 2261 0
1269 -2261 0
-1270 2262 0
1270 -2262 0
-1271 2263 0
1271 -2263 0
-1272 2264 0
1272 -2264 0
-1273 2265 0
1273 -2265 0
-1274 2266 0
1274 -2266 0
-1275 2267 0
1275 -2267 0
-1276 2268 0
1276 -2268 0
-1277 2269 0
1277 -2269 0
-1278 2270 0
1278 -2270 0
-1279 2271 0
1279 -2271 0
-1280 2272 0
1280 -2272 0
-2273 2755 0
2273 -2755 0
-2274 2756 0
2274 -2756 0
-2275 2757 0
2275 -2757 0
-2276 2758 0
2276 -2758 0
-2277 2759 0
2277 -2759 0
-2278 2760 0
2278 -2760 0
-2279 2761 0
2279 -2761 0
-2280 2762 0
2280 -2762 0
-2281 2763 0
2281 -2763 0
-2282 2764 0
2282 -2764 0
-2283 2765 0
2283 -2765 0
-2284 2766 0
2284 -2766 0
-2285 2767 0
2285 -2767 0
-2286 2768 0
2286 -2768 0
-2287 2769 0
2287 -2769 0
-2288 2770 0
2288 -2770 0
-2289 2771 0
2289 -2771 0
-2290 2772 0
2290 -2772 0
-2291 2773 0
2291 -2773 0
-2292 2774 0
2292 -2774 0
-2293 2775 0
2293 -2775 0
-2294 2776 0
2294 -2776 0
-2295 2777 0
2295 -2777 0
-2296 2778 0
2296 -2778 0
-2297 2779 0
2297 -2779 0
-2298 2780 0
2298 -2780 0
-2299 2781 0
2299 -2781 0
-2300 2782 0
2300 -2782 0
-2301 2783 0
2301 -2783 0
-2302 2784 0
2302 -2784 0
-2303 2785 0
2303 -2785 0
-2304 2786 0
2304 -2786 0
-2305 2787 0
2305 -2787 0
-2306 2788 0
2306 -2788 0
-2307 2789 0
2307 -2789 0
-2308 2790 0
2308 -2790 0
-2309 2791 0
2309 -2791 0
-2310 2792 0
2310 -2792 0
-2311 2793 0
2311 -2793 0
-2312 2794 0
2312 -2794 0
-2313 2795 0
2313 -2795 0
-2314 2796 0
2314 -2796 0
-2315 2797 0
2315 -2797 0
-2316 2798 0
2316 -2798 0
-2317 2799 0
2317 -2799 0
-2318 2800 0
2318 -2800 0
-2319 2801 0
2319 -2801 0
-2320 2802 0
2320 -2802 0
-2321 2803 0
2321 -2803 0
-2322 2804 0
2322 -2804 0
-2323 2805 0
2323 -2805 0
-2324 2806 0
2324 -2806 0
-2325 2807 0
2325 -2807 0
-2326 2808 0
2326 -2808 0
-2327 2809 0
2327 -2809 0
-2328 2810 0
2328 -2810 0
-2329 2811 0
2329 -2811 0
-2330 2812 0
2330 -2812 0
-2331 2813 0
2331 -2813 0
-2332 2814 0
2332 -2814 0
-2333 2815 0
2333 -2815 0
-2334 2816 0
2334 -2816 0
-2335 2817 0
2335 -2817 0
-2336 2818 0
2336 -2818 0
-2337 2819 0
2337 -2819 0
-2338 2820 0
2338 -2820 0
-2339 2821 0
2339 -2821 0
-2340 2822 0
2340 -2822 0
-2341 2823 0
2341 -2823 0
-2342 2824 0
2342 -2824 0
-2343 2825 0
2343 -2825 0
-2344 2826 0
2344 -2826 0
-2345 2827 0
2345 -2827 0
-2346 2828 0
2346 -2828 0
-2347 2829 0
2347 -2829 0
-2348 2830 0
2348 -2830 0
-2349 2831 0
2349 -2831 0
-2350 2832 0
2350 -2832 0
-2351 2833 0
2351 -2833 0
-2352 2834 0
2352 -2834 0
-2353 2835 0
2353 -2835 0
-2354 2836 0
2354 -2836 0
-2355 2837 0
2355 -2837 0
-2356 2838 0
2356 -2838 0
-2357 2839 0
2357 -2839 0
-2358 2840 0
2358 -2840 0
-2359 2841 0
2359 -2841 0
-2360 2842 0
2360 -2842 0
-2361 2843 0
2361 -2843 0
-2362 2844 0
2362 -2844 0
-2363 2845 0
2363 -2845 0
-2364 2846 0
2364 -2846 0
-2365 2847 0
2365 -2847 0
-2366 2848 0
2366 -2848 0
-2367 2849 0
2367 -2849 0
-2368 2850 0
2368 -2850 0
-2369 2851 0
2369 -2851 0
-2370 2852 0
2370 -2852 0
-2371 2853 0
2371 -2853 0
-2372 2854 0
2372 -2854 0
-2373 2855 0
2373 -2855 0
-2374 2856 0
2374 -2856 0
-2375 2857 0
2375 -2857 0
-2376 2858 0
2376 -2858 0
-2377 2859 0
2377 -2859 0
-2378 2860 0
2378 -2860 0
-2379 2861 0
2379 -2861 0
-2380 2862 0
2380 -2862 0
-2381 2863 0
2381 -2863 0
-2382 2864 0
2382 -2864 0
-2383 2865 0
2383 -2865 0
-2384 2866 0
2384 -2866 0
-2385 2867 0
2385 -2867 0
-2386 2868 0
2386 -2868 0
-2387 2869 0
2387 -2869 0
-2388 2870 0
2388 -2870 0
-2389 2871 0
2389 -2871 0
-2390 2872 0
2390 -2872 0
-2391 2873 0
2391 -2873 0
-2392 2874 0
2392 -2874 0
-2393 2875 0
2393 -2875 0
-2394 2876 0
2394 -2876 0
-2395 2877 0
2395 -2877 0
-2396 2878 0
2396 -2878 0
-2397 2879 0
2397 -2879 0
-2398 2880 0
2398 -2880 0
-2399 2881 0
2399 -2881 0
-2400 2882 0
2400 -2882 0
-2883 3011 0
2883 -3011 0
-2884 3012 0
2884 -3012 0
-2885 3013 0
2885 -3013 0
-2886 3014 0
2886 -3014 0
-2887 3015 0
2887 -3015 0
-2888 3016 0
2888 -3016 0
-2889 3017 0
2889 -3017 0
-2890 3018 0
2890 -3018 0
-2891 3019 0
2891 -3019 0
-2892 3020 0
2892 -3020 0
-2893 3021 0
2893 -3021 0
-2894 3022 0
2894 -3022 0
-2895 3023 0
2895 -3023 0
-2896 3024 0
2896 -3024 0
-2897 3025 0
2897 -3025 0
-2898 3026 0
2898 -3026 0
-2899 3027 0
2899 -3027 0
-2900 3028 0
2900 -3028 0
-2901 3029 0
2901 -3029 0
-2902 3030 0
2902 -3030 0
-2903 3031 0
2903 -3031 0
-2904 3032 0
2904 -3032 0
-2905 3033 0
2905 -3033 0
-2906 3034 0
2906 -3034 0
-2907 3035 0
2907 -3035 0
-2908 3036 0
2908 -3036 0
-2909 3037 0
2909 -3037 0
-2910 3038 0
2910 -3038 0
-2911 3039 0
2911 -3039 0
-2912 3040 0
2912 -3040 0
-2913 3041 0
2913 -3041 0
-2914 3042 0
2914 -3042 0
-2915 3043 0
2915 -3043 0
-2916 3044 0
2916 -3044 0
-2917 3045 0
2917 -3045 0
-2918 3046 0
2918 -3046 0
-2919 3047 0
2919 -3047 0
-2920 3048 0
2920 -3048 0
-2921 3049 0
2921 -3049 0
-2922 3050 0
2922 -3050 0
-2923 3051 0
2923 -3051 0
-2924 3052 0
2924 -3052 0
-2925 3053 0
2925 -3053 0
-2926 3054 0
2926 -3054 0
-2927 3055 0
2927 -3055 0
-2928 3056 0
2928 -3056 0
-2929 3057 0
2929 -3057 0
-2930 3058 0
2930 -3058 0
-2931 3059 0
2931 -3059 0
-2932 3060 0
2932 -3060 0
-2933 3061 0
2933 -3061 0
-2934 3062 0
2934 -3062 0
-2935 3063 0
2935 -3063 0
-2936 3064 0
2936 -3064 0
-2937 3065 0
2937 -3065 0
-2938 3066 0
2938 -3066 0
-2939 3067 0
2939 -3067 0
-2940 3068 0
2940 -3068 0
-2941 3069 0
2941 -3069 0
-2942 3070 0
2942 -3070 0
-2943 3071 0
2943 -3071 0
-2944 3072 0
2944 -3072 0
-2945 3073 0
2945 -3073 0
-2946 3074 0
2946 -3074 0
-2947 3075 0
2947 -3075 0
-2948 3076 0
2948 -3076 0
-2949 3077 0
2949 -3077 0
-2950 3078 0
2950 -3078 0
-2951 3079 0
2951 -3079 0
-2952 3080 0
2952 -3080 0
-2953 3081 0
2953 -3081 0
-2954 3082 0
2954 -3082 0
-2955 3083 0
2955 -3083 0
-2956 3084 0
2956 -3084 0
-2957 3085 0
2957 -3085 0
-2958 3086 0
2958 -3086 0
-2959 3087 0
2959 -3087 0
-2960 3088 0
2960 -3088 0
-2961 3089 0
2961 -3089 0
-2962 3090 0
2962 -3090 0
-2963 3091 0
2963 -3091 0
-2964 3092 0
2964 -3092 0
-2965 3093 0
2965 -3093 0
-2966 3094 0
2966 -3094 0
-2967 3095 0
2967 -3095 0
-2968 3096 0
2968 -3096 0
-2969 3097 0
2969 -3097 0
-2970 3098 0
2970 -3098 0
-2971 3099 0
2971 -3099 0
-2972 3100 0
2972 -3100 0
-2973 3101 0
2973 -3101 0
-2974 3102 0
2974 -3102 0
-2975 3103 0
2975 -3103 0
-2976 3104 0
2976 -3104 0
-2977 3105 0
2977 -3105 0
-2978 3106 0
2978 -3106 0
-2979 3107 0
2979 -3107 0
-2980 3108 0
2980 -3108 0
-2981 3109 0
2981 -3109 0
-2982 3110 0
2982 -3110 0
-2983 3111 0
2983 -3111 0
-2984 3112 0
2984 -3112 0
-2985 3113 0
2985 -3113 0
-2986 3114 0
2986 -3114 0
-2987 3115 0
2987 -3115 0
-2988 3116 0
2988 -3116 0
-2989 3117 0
2989 -3117 0
-2990 3118 0
2990 -3118 0
-2991 3119 0
2991 -3119 0
-2992 3120 0
2992 -3120 0
-2993 3121 0
2993 -3121 0
-2994 3122 0
2994 -3122 0
-2995 3123 0
2995 -3123 0
-2996 3124 0
2996 -3124 0
-2997 3125 0
2997 -3125 0
-2998 3126 0
2998 -3126 0
-2999 3127 0
2999 -3127 0
-3000 3128 0
3000 -3128 0
-3001 3129 0
3001 -3129 0
-3002 3130 0
3002 -3130 0
-3003 3131 0
3003 -3131 0
-3004 3132 0
3004 -3132 0
-3005 3133 0
3005 -3133 0
-3006 3134 0
3006 -3134 0
-3007 3135 0
3007 -3135 0
-3008 3136 0
3008 -3136 0
-3009 3137 0
3009 -3137 0
-3010 3138 0
3010 -3138 0
-3139 4131 0
3139 -4131 0
-3140 4132 0
3140 -4132 0
-3141 4133 0
3141 -4133 0
-3142 4134 0
3142 -4134 0
-3143 4135 0
3143 -4135 0
-3144 4136 0
3144 -4136 0
-3145 4137 0
3145 -4137 0
-3146 4138 0
3146 -4138 0
-3147 4139 0
3147 -4139 0
-3148 4140 0
3148 -4140 0
-3149 4141 0
3149 -4141 0
-3150 4142 0
3150 -4142 0
-3151 4143 0
3151 -4143 0
-3152 4144 0
3152 -4144 0
-3153 4145 0
3153 -4145 0
-3154 4146 0
3154 -4146 0
-3155 4147 0
3155 -4147 0
-3156 4148 0
3156 -4148 0
-3157 4149 0
3157 -4149 0
-3158 4150 0
3158 -4150 0
-3159 4151 0
3159 -4151 0
-3160 4152 0
3160 -4152 0
-3161 4153 0
3161 -4153 0
-3162 4154 0
3162 -4154 0
-3163 4155 0
3163 -4155 0
-3164 4156 0
3164 -4156 0
-3165 4157 0
3165 -4157 0
-3166 4158 0
3166 -4158 0
-3167 4159 0
3167 -4159 0
-3168 4160 0
3168 -4160 0
-3169 4161 0
3169 -4161 0
-3170 4162 0
3170 -4162 0
-3171 4163 0
3171 -4163 0
-3172 4164 0
3172 -4164 0
-3173 4165 0
3173 -4165 0
-3174 4166 0
3174 -4166 0
-3175 4167 0
3175 -4167 0
-3176 4168 0
3176 -4168 0
-3177 4169 0
3177 -4169 0
-3178 4170 0
3178 -4170 0
-3179 4171 0
3179 -4171 0
-3180 4172 0
3180 -4172 0
-3181 4173 0
3181 -4173 0
-3182 4174 0
3182 -4174 0
-3183 4175 0
3183 -4175 0
-3184 4176 0
3184 -4176 0
-3185 4177 0
3185 -4177 0
-3186 4178 0
3186 -4178 0
-3187 4179 0
3187 -4179 0
-3188 4180 0
3188 -4180 0
-3189 4181 0
3189 -4181 0
-3190 4182 0
3190 -4182 0
-3191 4183 0
3191 -4183 0
-3192 4184 0
3192 -4184 0
-3193 4185 0
3193 -4185 0
-3194 4186 0
3194 -4186 0
-3195 4187 0
3195 -4187 0
-3196 4188 0
3196 -4188 0
-3197 4189 0
3197 -4189 0
-3198 4190 0
3198 -4190 0
-3199 4191 0
3199 -4191 0
-3200 4192 0
3200 -4192 0
-3201 4193 0
3201 -4193 0
-3202 4194 0
3202 -4194 0
-3203 4195 0
3203 -4195 0
-3204 4196 0
3204 -4196 0
-3205 4197 0
3205 -4197 0
-3206 4198 0
3206 -4198 0
-3207 4199 0
3207 -4199 0
-3208 4200 0
3208 -4200 0
-3209 4201 0
3209 -4201 0
-3210 4202 0
3210 -4202 0
-3211 4203 0
3211 -4203 0
-3212 4204 0
3212 -4204 0
-3213 4205 0
3213 -4205 0
-3214 4206 0
3214 -4206 0
-3215 4207 0
3215 -4207 0
-3216 4208 0
3216 -4208 0
-3217 4209 0
3217 -4209 0
-3218 4210 0
3218 -4210 0
-3219 4211 0
3219 -4211 0
-3220 4212 0
3220 -4212 0
-3221 4213 0
3221 -4213 0
-3222 4214 0
3222 -4214 0
-3223 4215 0
3223 -4215 0
-3224 4216 0
3224 -4216 0
-3225 4217 0
3225 -4217 0
-3226 4218 0
3226 -4218 0
-3227 4219 0
3227 -4219 0
-3228 4220 0
3228 -4220 0
-3229 4221 0
3229 -4221 0
-3230 4222 0
3230 -4222 0
-3231 4223 0
3231 -4223 0
-3232 4224 0
3232 -4224 0
-3233 4225 0
3233 -4225 0
-3234 4226 0
3234 -4226 0
-3235 4227 0
3235 -4227 0
-3236 4228 0
3236 -4228 0
-3237 4229 0
3237 -4229 0
-3238 4230 0
3238 -4230 0
-3239 4231 0
3239 -4231 0
-3240 4232 0
3240 -4232 0
-3241 4233 0
3241 -4233 0
-3242 4234 0
3242 -4234 0
-3243 4235 0
3243 -4235 0
-3244 4236 0
3244 -4236 0
-3245 4237 0
3245 -4237 0
-3246 4238 0
3246 -4238 0
-3247 4239 0
3247 -4239 0
-3248 4240 0
3248 -4240 0
-3249 4241 0
3249 -4241 0
-3250 4242 0
3250 -4242 0
-3251 4243 0
3251 -4243 0
-3252 4244 0
3252 -4244 0
-3253 4245 0
3253 -4245 0
-3254 4246 0
3254 -4246 0
-3255 4247 0
3255 -4247 0
-3256 4248 0
3256 -4248 0
-3257 4249 0
3257 -4249 0
-3258 4250 0
3258 -4250 0
-3259 4251 0
3259 -4251 0
-3260 4252 0
3260 -4252 0
-3261 4253 0
3261 -4253 0
-3262 4254 0
3262 -4254 0
-3263 4255 0
3263 -4255 0
-3264 4256 0
3264 -4256 0
-3265 4257 0
3265 -4257 0
-3266 4258 0
3266 -4258 0
-4259 4741 0
4259 -4741 0
-4260 4742 0
4260 -4742 0
-4261 4743 0
4261 -4743 0
-4262 4744 0
4262 -4744 0
-4263 4745 0
4263 -4745 0
-4264 4746 0
4264 -4746 0
-4265 4747 0
4265 -4747 0
-4266 4748 0
4266 -4748 0
-4267 4749 0
4267 -4749 0
-4268 4750 0
4268 -4750 0
-4269 4751 0
4269 -4751 0
-4270 4752 0
4270 -4752 0
-4271 4753 0
4271 -4753 0
-4272 4754 0
4272 -4754 0
-4273 4755 0
4273 -4755 0
-4274 4756 0
4274 -4756 0
-4275 4757 0
4275 -4757 0
-4276 4758 0
4276 -4758 0
-4277 4759 0
4277 -4759 0
-4278 4760 0
4278 -4760 0
-4279 4761 0
4279 -4761 0
-4280 4762 0
4280 -4762 0
-4281 4763 0
4281 -4763 0
-4282 4764 0
4282 -4764 0
-4283 4765 0
4283 -4765 0
-4284 4766 0
4284 -4766 0
-4285 4767 0
4285 -4767 0
-4286 4768 0
4286 -4768 0
-4287 4769 0
4287 -4769 0
-4288 4770 0
4288 -4770 0
-4289 4771 0
4289 -4771 0
-4290 4772 0
4290 -4772 0
-4291 4773 0
4291 -4773 0
-4292 4774 0
4292 -4774 0
-4293 4775 0
4293 -4775 0
-4294 4776 0
4294 -4776 0
-4295 4777 0
4295 -4777 0
-4296 4778 0
4296 -4778 0
-4297 4779 0
4297 -4779 0
-4298 4780 0
4298 -4780 0
-4299 4781 0
4299 -4781 0
-4300 4782 0
4300 -4782 0
-4301 4783 0
4301 -4783 0
-4302 4784 0
4302 -4784 0
-4303 4785 0
4303 -4785 0
-4304 4786 0
4304 -4786 0
-4305 4787 0
4305 -4787 0
-4306 4788 0
4306 -4788 0
-4307 4789 0
4307 -4789 0
-4308 4790 0
4308 -4790 0
-4309 4791 0
4309 -4791 0
-4310 4792 0
4310 -4792 0
-4311 4793 0
4311 -4793 0
-4312 4794 0
4312 -4794 0
-4313 4795 0
4313 -4795 0
-4314 4796 0
4314 -4796 0
-4315 4797 0
4315 -4797 0
-4316 4798 0
4316 -4798 0
-4317 4799 0
4317 -4799 0
-4318 4800 0
4318 -4800 0
-4319 4801 0
4319 -4801 0
-4320 4802 0
4320 -4802 0
-4321 4803 0
4321 -4803 0
-4322 4804 0
4322 -4804 0
-4323 4805 0
4323 -4805 0
-4324 4806 0
4324 -4806 0
-4325 4807 0
4325 -4807 0
-4326 4808 0
4326 -4808 0
-4327 4809 0
4327 -4809 0
-4328 4810 0
4328 -4810 0
-4329 4811 0
4329 -4811 0
-4330 4812 0
4330 -4812 0
-4331 4813 0
4331 -4813 0
-4332 4814 0
4332 -4814 0
-4333 4815 0
4333 -4815 0
-4334 4816 0
4334 -4816 0
-4335 4817 0
4335 -4817 0
-4336 4818 0
4336 -4818 0
-4337 4819 0
4337 -4819 0
-4338 4820 0
4338 -4820 0
-4339 4821 0
4339 -4821 0
-4340 4822 0
4340 -4822 0
-4341 4823 0
4341 -4823 0
-4342 4824 0
4342 -4824 0
-4343 4825 0
4343 -4825 0
-4344 4826 0
4344 -4826 0
-4345 4827 0
4345 -4827 0
-4346 4828 0
4346 -4828 0
-4347 4829 0
4347 -4829 0
-4348 4830 0
4348 -4830 0
-4349 4831 0
4349 -4831 0
-4350 4832 0
4350 -4832 0
-4351 4833 0
4351 -4833 0
-4352 4834 0
4352 -4834 0
-4353 4835 0
4353 -4835 0
-4354 4836 0
4354 -4836 0
-4355 4837 0
4355 -4837 0
-4356 4838 0
4356 -4838 0
-4357 4839 0
4357 -4839 0
-4358 4840 0
4358 -4840 0
-4359 4841 0
4359 -4841 0
-4360 4842 0
4360 -4842 0
-4361 4843 0
4361 -4843 0
-4362 4844 0
4362 -4844 0
-4363 4845 0
4363 -4845 0
-4364 4846 0
4364 -4846 0
-4365 4847 0
4365 -4847 0
-4366 4848 0
4366 -4848 0
-4367 4849 0
4367 -4849 0
-4368 4850 0
4368 -4850 0
-4369 4851 0
4369 -4851 0
-4370 4852 0
4370 -4852 0
-4371 4853 0
4371 -4853 0
-4372 4854 0
4372 -4854 0
-4373 4855 0
4373 -4855 0
-4374 4856 0
4374 -4856 0
-4375 4857 0
4375 -4857 0
-4376 4858 0
4376 -4858 0
-4377 4859 0
4377 -4859 0
-4378 4860 0
4378 -4860 0
-4379 4861 0
4379 -4861 0
-4380 4862 0
4380 -4862 0
-4381 4863 0
4381 -4863 0
-4382 4864 0
4382 -4864 0
-4383 4865 0
4383 -4865 0
-4384 4866 0
4384 -4866 0
-4385 4867 0
4385 -4867 0
-4386 4868 0
4386 -4868 0
-4869 4997 0
4869 -4997 0
-4870 4998 0
4870 -4998 0
-4871 4999 0
4871 -4999 0
-4872 5000 0
4872 -5000 0
-4873 5001 0
4873 -5001 0
-4874 5002 0
4874 -5002 0
-4875 5003 0
4875 -5003 0
-4876 5004 0
4876 -5004 0
-4877 5005 0
4877 -5005 0
-4878 5006 0
4878 -5006 0
-4879 5007 0
4879 -5007 0
-4880 5008 0
4880 -5008 0
-4881 5009 0
4881 -5009 0
-4882 5010 0
4882 -5010 0
-4883 5011 0
4883 -5011 0
-4884 5012 0
4884 -5012 0
-4885 5013 0
4885 -5013 0
-4886 5014 0
4886 -5014 0
-4887 5015 0
4887 -5015 0
-4888 5016 0
4888 -5016 0
-4889 5017 0
4889 -5017 0
-4890 5018 0
4890 -5018 0
-4891 5019 0
4891 -5019 0
-4892 5020 0
4892 -5020 0
-4893 5021 0
4893 -5021 0
-4894 5022 0
4894 -5022 0
-4895 5023 0
4895 -5023 0
-4896 5024 0
4896 -5024 0
-4897 5025 0
4897 -5025 0
-4898 5026 0
4898 -5026 0
-4899 5027 0
4899 -5027 0
-4900 5028 0
4900 -5028 0
-4901 5029 0
4901 -5029 0
-4902 5030 0
4902 -5030 0
-4903 5031 0
4903 -5031 0
-4904 5032 0
4904 -5032 0
-4905 5033 0
4905 -5033 0
-4906 5034 0
4906 -5034 0
-4907 5035 0
4907 -5035 0
-4908 5036 0
4908 -5036 0
-4909 5037 0
4909 -5037 0
-4910 5038 0
4910 -5038 0
-4911 5039 0
4911 -5039 0
-4912 5040 0
4912 -5040 0
-4913 5041 0
4913 -5041 0
-4914 5042 0
4914 -5042 0
-4915 5043 0
4915 -5043 0
-4916 5044 0
4916 -5044 0
-4917 5045 0
4917 -5045 0
-4918 5046 0
4918 -5046 0
-4919 5047 0
4919 -5047 0
-4920 5048 0
4920 -5048 0
-4921 5049 0
4921 -5049 0
-4922 5050 0
4922 -5050 0
-4923 5051 0
4923 -5051 0
-4924 5052 0
4924 -5052 0
-4925 5053 0
4925 -5053 0
-4926 5054 0
4926 -5054 0
-4927 5055 0
4927 -5055 0
-4928 5056 0
4928 -5056 0
-4929 5057 0
4929 -5057 0
-4930 5058 0
4930 -5058 0
-4931 5059 0
4931 -5059 0
-4932 5060 0
4932 -5060 0
-4933 5061 0
4933 -5061 0
-4934 5062 0
4934 -5062 0
-4935 5063 0
4935 -5063 0
-4936 5064 0
4936 -5064 0
-4937 5065 0
4937 -5065 0
-4938 5066 0
4938 -5066 0
-4939 5067 0
4939 -5067 0
-4940 5068 0
4940 -5068 0
-4941 5069 0
4941 -5069 0
-4942 5070 0
4942 -5070 0
-4943 5071 0
4943 -5071 0
-4944 5072 0
4944 -5072 0
-4945 5073 0
4945 -5073 0
-4946 5074 0
4946 -5074 0
-4947 5075 0
4947 -5075 0
-4948 5076 0
4948 -5076 0
-4949 5077 0
4949 -5077 0
-4950 5078 0
4950 -5078 0
-4951 5079 0
4951 -5079 0
-4952 5080 0
4952 -5080 0
-4953 5081 0
4953 -5081 0
-4954 5082 0
4954 -5082 0
-4955 5083 0
4955 -5083 0
-4956 5084 0
4956 -5084 0
-4957 5085 0
4957 -5085 0
-4958 5086 0
4958 -5086 0
-4959 5087 0
4959 -5087 0
-4960 5088 0
4960 -5088 0
-4961 5089 0
4961 -5089 0
-4962 5090 0
4962 -5090 0
-4963 5091 0
4963 -5091 0
-4964 5092 0
4964 -5092 0
-4965 5093 0
4965 -5093 0
-4966 5094 0
4966 -5094 0
-4967 5095 0
4967 -5095 0
-4968 5096 0
4968 -5096 0
-4969 5097 0
4969 -5097 0
-4970 5098 0
4970 -5098 0
-4971 5099 0
4971 -5099 0
-4972 5100 0
4972 -5100 0
-4973 5101 0
4973 -5101 0
-4974 5102 0
4974 -5102 0
-4975 5103 0
4975 -5103 0
-4976 5104 0
4976 -5104 0
-4977 5105 0
4977 -5105 0
-4978 5106 0
4978 -5106 0
-4979 5107 0
4979 -5107 0
-4980 5108 0
4980 -5108 0
-4981 5109 0
4981 -5109 0
-4982 5110 0
4982 -5110 0
-4983 5111 0
4983 -5111 0
-4984 5112 0
4984 -5112 0
-4985 5113 0
4985 -5113 0
-4986 5114 0
4986 -5114 0
-4987 5115 0
4987 -5115 0
-4988 5116 0
4988 -5116 0
-4989 5117 0
4989 -5117 0
-4990 5118 0
4990 -5118 0
-4991 5119 0
4991 -5119 0
-4992 5120 0
4992 -5120 0
-4993 5121 0
4993 -5121 0
-4994 5122 0
4994 -5122 0
-4995 5123 0
4995 -5123 0
-4996 5124 0
4996 -5124 0
-5125 6117 0
5125 -6117 0
-5126 6118 0
5126 -6118 0
-5127 6119 0
5127 -6119 0
-5128 6120 0
5128 -6120 0
-5129 6121 0
5129 -6121 0
-5130 6122 0
5130 -6122 0
-5131 6123 0
5131 -6123 0
-5132 6124 0
5132 -6124 0
-5133 6125 0
5133 -6125 0
-5134 6126 0
5134 -6126 0
-5135 6127 0
5135 -6127 0
-5136 6128 0
5136 -6128 0
-5137 6129 0
5137 -6129 0
-5138 6130 0
5138 -6130 0
-5139 6131 0
5139 -6131 0
-5140 6132 0
5140 -6132 0
-5141 6133 0
5141 -6133 0
-5142 6134 0
5142 -6134 0
-5143 6135 0
5143 -6135 0
-5144 6136 0
5144 -6136 0
-5145 6137 0
5145 -6137 0
-5146 6138 0
5146 -6138 0
-5147 6139 0
5147 -6139 0
-5148 6140 0
5148 -6140 0
-5149 6141 0
5149 -6141 0
-5150 6142 0
5150 -6142 0
-5151 6143 0
5151 -6143 0
-5152 6144 0
5152 -6144 0
-5153 6145 0
5153 -6145 0
-5154 6146 0
5154 -6146 0
-5155 6147 0
5155 -6147 0
-5156 6148 0
5156 -6148 0
-5157 6149 0
5157 -6149 0
-5158 6150 0
5158 -6150 0
-5159 6151 0
5159 -6151 0
-5160 6152 0
5160 -6152 0
-5161 6153 0
5161 -6153 0
-5162 6154 0
5162 -6154 0
-5163 6155 0
5163 -6155 0
-5164 6156 0
5164 -6156 0
-5165 6157 0
5165 -6157 0
-5166 6158 0
5166 -6158 0
-5167 6159 0
5167 -6159 0
-5168 6160 0
5168 -6160 0
-5169 6161 0
5169 -6161 0
-5170 6162 0
5170 -6162 0
-5171 6163 0
5171 -6163 0
-5172 6164 0
5172 -6164 0
-5173 6165 0
5173 -6165 0
-5174 6166 0
5174 -6166 0
-5175 6167 0
5175 -6167 0
-5176 6168 0
5176 -6168 0
-5177 6169 0
5177 -6169 0
-5178 6170 0
5178 -6170 0
-5179 6171 0
5179 -6171 0
-5180 6172 0
5180 -6172 0
-5181 6173 0
5181 -6173 0
-5182 6174 0
5182 -6174 0
-5183 6175 0
5183 -6175 0
-5184 6176 0
5184 -6176 0
-5185 6177 0
5185 -6177 0
-5186 6178 0
5186 -6178 0
-5187 6179 0
5187 -6179 0
-5188 6180 0
5188 -6180 0
-5189 6181 0
5189 -6181 0
-5190 6182 0
5190 -6182 0
-5191 6183 0
5191 -6183 0
-5192 6184 0
5192 -6184 0
-5193 6185 0
5193 -6185 0
-5194 6186 0
5194 -6186 0
-5195 6187 0
5195 -6187 0
-5196 6188 0
5196 -6188 0
-5197 6189 0
5197 -6189 0
-5198 6190 0
5198 -6190 0
-5199 6191 0
5199 -6191 0
-5200 6192 0
5200 -6192 0
-5201 6193 0
5201 -6193 0
-5202 6194 0
5202 -6194 0
-5203 6195 0
5203 -6195 0
-5204 6196 0
5204 -6196 0
-5205 6197 0
5205 -6197 0
-5206 6198 0
5206 -6198 0
-5207 6199 0
5207 -6199 0
-5208 6200 0
5208 -6200 0
-5209 6201 0
5209 -6201 0
-5210 6202 0
5210 -6202 0
-5211 6203 0
5211 -6203 0
-5212 6204 0
5212 -6204 0
-5213 6205 0
5213 -6205 0
-5214 6206 0
5214 -6206 0
-5215 6207 0
5215 -6207 0
-5216 6208 0
5216 -6208 0
-5217 6209 0
5217 -6209 0
-5218 6210 0
5218 -6210 0
-5219 6211 0
5219 -6211 0
-5220 6212 0
5220 -6212 0
-5221 6213 0
5221 -6213 0
-5222 6214 0
5222 -6214 0
-5223 6215 0
5223 -6215 0
-5224 6216 0
5224 -6216 0
-5225 6217 0
5225 -6217 0
-5226 6218 0
5226 -6218 0
-5227 6219 0
5227 -6219 0
-5228 6220 0
5228 -6220 0
-5229 6221 0
5229 -6221 0
-5230 6222 0
5230 -6222 0
-5231 6223 0
5231 -6223 0
-5232 6224 0
5232 -6224 0
-5233 6225 0
5233 -6225 0
-5234 6226 0
5234 -6226 0
-5235 6227 0
5235 -6227 0
-5236 6228 0
5236 -6228 0
-5237 6229 0
5237 -6229 0
-5238 6230 0
5238 -6230 0
-5239 6231 0
5239 -6231 0
-5240 6232 0
5240 -6232 0
-5241 6233 0
5241 -6233 0
-5242 6234 0
5242 -6234 0
-5243 6235 0
5243 -6235 0
-5244 6236 0
5244 -6236 0
-5245 6237 0
5245 -6237 0
-5246 6238 0
5246 -6238 0
-5247 6239 0
5247 -6239 0
-5248 6240 0
5248 -6240 0
-5249 6241 0
5249 -6241 0
-5250 6242 0
5250 -6242 0
-5251 6243 0
5251 -6243 0
-5252 6244 0
5252 -6244 0
-6245 6373 0
6245 -6373 0
-6246 6374 0
6246 -6374 0
-6247 6375 0
6247 -6375 0
-6248 6376 0
6248 -6376 0
-6249 6377 0
6249 -6377 0
-6250 6378 0
6250 -6378 0
-6251 6379 0
6251 -6379 0
-6252 6380 0
6252 -6380 0
-6253 6381 0
6253 -6381 0
-6254 6382 0
6254 -6382 0
-6255 6383 0
6255 -6383 0
-6256 6384 0
6256 -6384 0
-6257 6385 0
6257 -6385 0
-6258 6386 0
6258 -6386 0
-6259 6387 0
6259 -6387 0
-6260 6388 0
6260 -6388 0
-6261 6389 0
6261 -6389 0
-6262 6390 0
6262 -6390 0
-6263 6391 0
6263 -6391 0
-6264 6392 0
6264 -6392 0
-6265 6393 0
6265 -6393 0
-6266 6394 0
6266 -6394 0
-6267 6395 0
6267 -6395 0
-6268 6396 0
6268 -6396 0
-6269 6397 0
6269 -6397 0
-6270 6398 0
6270 -6398 0
-6271 6399 0
6271 -6399 0
-6272 6400 0
6272 -6400 0
-6273 6401 0
6273 -6401 0
-6274 6402 0
6274 -6402 0
-6275 6403 0
6275 -6403 0
-6276 6404 0
6276 -6404 0
-6277 6405 0
6277 -6405 0
-6278 6406 0
6278 -6406 0
-6279 6407 0
6279 -6407 0
-6280 6408 0
6280 -6408 0
-6281 6409 0
6281 -6409 0
-6282 6410 0
6282 -6410 0
-6283 6411 0
6283 -6411 0
-6284 6412 0
6284 -6412 0
-6285 6413 0
6285 -6413 0
-6286 6414 0
6286 -6414 0
-6287 6415 0
6287 -6415 0
-6288 6416 0
6288 -6416 0
-6289 6417 0
6289 -6417 0
-6290 6418 0
6290 -6418 0
-6291 6419 0
6291 -6419 0
-6292 6420 0
6292 -6420 0
-6293 6421 0
6293 -6421 0
-6294 6422 0
6294 -6422 0
-6295 6423 0
6295 -6423 0
-6296 6424 0
6296 -6424 0
-6297 6425 0
6297 -6425 0
-6298 6426 0
6298 -6426 0
-6299 6427 0
6299 -6427 0
-6300 6428 0
6300 -6428 0
-6301 6429 0
6301 -6429 0
-6302 6430 0
6302 -6430 0
-6303 6431 0
6303 -6431 0
-6304 6432 0
6304 -6432 0
-6305 6433 0
6305 -6433 0
-6306 6434 0
6306 -6434 0
-6307 6435 0
6307 -6435 0
-6308 6436 0
6308 -6436 0
-6309 6437 0
6309 -6437 0
-6310 6438 0
6310 -6438 0
-6311 6439 0
6311 -6439 0
-6312 6440 0
6312 -6440 0
-6313 6441 0
6313 -6441 0
-6314 6442 0
6314 -6442 0
-6315 6443 0
6315 -6443 0
-6316 6444 0
6316 -6444 0
-6317 6445 0
6317 -6445 0
-6318 6446 0
6318 -6446 0
-6319 6447 0
6319 -6447 0
-6320 6448 0
6320 -6448 0
-6321 6449 0
6321 -6449 0
-6322 6450 0
6322 -6450 0
-6323 6451 0
6323 -6451 0
-6324 6452 0
6324 -6452 0
-6325 6453 0
6325 -6453 0
-6326 6454 0
6326 -6454 0
-6327 6455 0
6327 -6455 0
-6328 6456 0
6328 -6456 0
-6329 6457 0
6329 -6457 0
-6330 6458 0
6330 -6458 0
-6331 6459 0
6331 -6459 0
-6332 6460 0
6332 -6460 0
-6333 6461 0
6333 -6461 0
-6334 6462 0
6334 -6462 0
-6335 6463 0
6335 -6463 0
-6336 6464 0
6336 -6464 0
-6337 6465 0
6337 -6465 0
-6338 6466 0
6338 -6466 0
-6339 6467 0
6339 -6467 0
-6340 6468 0
6340 -6468 0
-6341 6469 0
6341 -6469 0
-6342 6470 0
6342 -6470 0
-6343 6471 0
6343 -6471 0
-6344 6472 0
6344 -6472 0
-6345 6473 0
6345 -6473 0
-6346 6474 0
6346 -6474 0
-6347 6475 0
6347 -6475 0
-6348 6476 0
6348 -6476 0
-6349 6477 0
6349 -6477 0
-6350 6478 0
6350 -6478 0
-6351 6479 0
6351 -6479 0
-6352 6480 0
6352 -6480 0
-6353 6481 0
6353 -6481 0
-6354 6482 0
6354 -6482 0
-6355 6483 0
6355 -6483 0
-6356 6484 0
6356 -6484 0
-6357 6485 0
6357 -6485 0
-6358 6486 0
6358 -6486 0
-6359 6487 0
6359 -6487 0
-6360 6488 0
6360 -6488 0
-6361 6489 0
6361 -6489 0
-6362 6490 0
6362 -6490 0
-6363 6491 0
6363 -6491 0
-6364 6492 0
6364 -6492 0
-6365 6493 0
6365 -6493 0
-6366 6494 0
6366 -6494 0
-6367 6495 0
6367 -6495 0
-6368 6496 0
6368 -6496 0
-6369 6497 0
6369 -6497 0
-6370 6498 0
6370 -6498 0
-6371 6499 0
6371 -6499 0
-6372 6500 0
6372 -6500 0
-6501 6629 0
6501 -6629 0
-6502 6630 0
6502 -6630 0
-6503 6631 0
6503 -6631 0
-6504 6632 0
6504 -6632 0
-6505 6633 0
6505 -6633 0
-6506 6634 0
6506 -6634 0
-6507 6635 0
6507 -6635 0
-6508 6636 0
6508 -6636 0
-6509 6637 0
6509 -6637 0
-6510 6638 0
6510 -6638 0
-6511 6639 0
6511 -6639 0
-6512 6640 0
6512 -6640 0
-6513 6641 0
6513 -6641 0
-6514 6642 0
6514 -6642 0
-6515 6643 0
6515 -6643 0
-6516 6644 0
6516 -6644 0
-6517 6645 0
6517 -6645 0
-6518 6646 0
6518 -6646 0
-6519 6647 0
6519 -6647 0
-6520 6648 0
6520 -6648 0
-6521 6649 0
6521 -6649 0
-6522 6650 0
6522 -6650 0
-6523 6651 0
6523 -6651 0
-6524 6652 0
6524 -6652 0
-6525 6653 0
6525 -6653 0
-6526 6654 0
6526 -6654 0
-6527 6655 0
6527 -6655 0
-6528 6656 0
6528 -6656 0
-6529 6657 0
6529 -6657 0
-6530 6658 0
6530 -6658 0
-6531 6659 0
6531 -6659 0
-6532 6660 0
6532 -6660 0
-6533 6661 0
6533 -6661 0
-6534 6662 0
6534 -6662 0
-6535 6663 0
6535 -6663 0
-6536 6664 0
6536 -6664 0
-6537 6665 0
6537 -6665 0
-6538 6666 0
6538 -6666 0
-6539 6667 0
6539 -6667 0
-6540 6668 0
6540 -6668 0
-6541 6669 0
6541 -6669 0
-6542 6670 0
6542 -6670 0
-6543 6671 0
6543 -6671 0
-6544 6672 0
6544 -6672 0
-6545 6673 0
6545 -6673 0
-6546 6674 0
6546 -6674 0
-6547 6675 0
6547 -6675 0
-6548 6676 0
6548 -6676 0
-6549 6677 0
6549 -6677 0
-6550 6678 0
6550 -6678 0
-6551 6679 0
6551 -6679 0
-6552 6680 0
6552 -6680 0
-6553 6681 0
6553 -6681 0
-6554 6682 0
6554 -6682 0
-6555 6683 0
6555 -6683 0
-6556 6684 0
6556 -6684 0
-6557 6685 0
6557 -6685 0
-6558 6686 0
6558 -6686 0
-6559 6687 0
6559 -6687 0
-6560 6688 0
6560 -6688 0
-6561 6689 0
6561 -6689 0
-6562 6690 0
6562 -6690 0
-6563 6691 0
6563 -6691 0
-6564 6692 0
6564 -6692 0
-6565 6693 0
6565 -6693 0
-6566 6694 0
6566 -6694 0
-6567 6695 0
6567 -6695 0
-6568 6696 0
6568 -6696 0
-6569 6697 0
6569 -6697 0
-6570 6698 0
6570 -6698 0
-6571 6699 0
6571 -6699 0
-6572 6700 0
6572 -6700 0
-6573 6701 0
6573 -6701 0
-6574 6702 0
6574 -6702 0
-6575 6703 0
6575 -6703 0
-6576 6704 0
6576 -6704 0
-6577 6705 0
6577 -6705 0
-6578 6706 0
6578 -6706 0
-6579 6707 0
6579 -6707 0
-6580 6708 0
6580 -6708 0
-6581 6709 0
6581 -6709 0
-6582 6710 0
6582 -6710 0
-6583 6711 0
6583 -6711 0
-6584 6712 0
6584 -6712 0
-6585 6713 0
6585 -6713 0
-6586 6714 0
6586 -6714 0
-6587 6715 0
6587 -6715 0
-6588 6716 0
6588 -6716 0
-6589 6717 0
6589 -6717 0
-6590 6718 0
6590 -6718 0
-6591 6719 0
6591 -6719 0
-6592 6720 0
6592 -6720 0
-6593 6721 0
6593 -6721 0
-6594 6722 0
6594 -6722 0
-6595 6723 0
6595 -6723 0
-6596 6724 0
6596 -6724 0
-6597 6725 0
6597 -6725 0
-6598 6726 0
6598 -6726 0
-6599 6727 0
6599 -6727 0
-6600 6728 0
6600 -6728 0
-6601 6729 0
6601 -6729 0
-6602 6730 0
6602 -6730 0
-6603 6731 0
6603 -6731 0
-6604 6732 0
6604 -6732 0
-6605 6733 0
6605 -6733 0
-6606 6734 0
6606 -6734 0
-6607 6735 0
6607 -6735 0
-6608 6736 0
6608 -6736 0
-6609 6737 0
6609 -6737 0
-6610 6738 0
6610 -6738 0
-6611 6739 0
6611 -6739 0
-6612 6740 0
6612 -6740 0
-6613 6741 0
6613 -6741 0
-6614 6742 0
6614 -6742 0
-6615 6743 0
6615 -6743 0
-6616 6744 0
6616 -6744 0
-6617 6745 0
6617 -6745 0
-6618 6746 0
6618 -6746 0
-6619 6747 0
6619 -6747 0
-6620 6748 0
6620 -6748 0
-6621 6749 0
6621 -6749 0
-6622 6750 0
6622 -6750 0
-6623 6751 0
6623 -6751 0
-6624 6752 0
6624 -6752 0
-6625 6753 0
6625 -6753 0
-6626 6754 0
6626 -6754 0
-6627 6755 0
6627 -6755 0
-6628 6756 0
6628 -6756 0
1 2 3 4 5 6 7 8 9 10 11 12 13 14 15 16 17 18 19 20 21 22 23 24 25 26 27 28 29 30 31 32 33 34 35 36 37 38 39 40 41 42 43 44 45 46 47 48 49 50 51 52 53 54 55 56 57 58 59 60 61 62 63 64 65 66 67 68 69 70 71 72 73 74 75 76 77 78 79 80 81 82 83 84 85 86 87 88 89 90 91 92 93 94 95 96 97 98 99 100 101 102 103 104 105 106 107 108 109 110 111 112 113 114 115 116 117 118 119 120 121 122 123 124 125 126 127 128 129 130 131 132 133 134 135 136 137 138 139 140 141 142 143 144 145 146 147 148 149 150 151 152 153 154 155 156 157 158 159 160 161 162 163 164 165 166 167 168 169 170 171 172 173 174 175 176 177 178 179 180 181 182 183 184 185 186 187 188 189 190 191 192 193 194 195 196 197 198 199 200 201 202 203 204 205 206 207 208 209 210 211 212 213 214 215 216 217 218 219 220 221 222 223 224 225 226 227 228 229 230 231 232 233 234 235 236 237 238 239 240 241 242 243 244 245 246 247 248 249 250 251 252 253 254 255 256 257 258 259 260 261 262 263 264 265 266 267 268 269 270 271 272 273 274 275 276 277 278 279 280 281 282 283 284 285 286 287 288 289 290 291 292 293 294 295 296 297 298 299 300 301 302 303 304 305 306 307 308 309 310 311 312 313 314 315 316 317 318 319 320 321 322 323 324 325 326 327 328 329 330 331 332 333 334 335 336 337 338 339 340 341 342 343 344 345 346 347 348 349 350 351 352 353 354 355 356 357 358 359 360 361 362 363 364 365 366 367 368 369 370 371 372 373 374 375 376 377 378 379 380 381 382 383 384 385 386 387 388 389 390 391 392 393 394 395 396 397 398 399 400 401 402 403 404 405 406 407 408 409 410 411 412 413 414 415 416 417 418 419 420 421 422 423 424 425 426 427 428 429 430 431 432 433 434 435 436 437 438 439 440 441 442 443 444 445 446 447 448 449 450 451 452 453 454 455 456 457 458 459 460 461 462 463 464 465 466 467 468 469 470 471 472 473 474 475 476 477 478 479 480 481 482 483 484 485 486 487 488 489 490 491 492 493 494 495 496 497 498 499 500 501 502 503 504 505 506 507 508 509 510 511 512 513 514 515 516 517 518 519 520 521 522 523 524 525 526 527 528 529 530 531 532 533 534 535 536 537 538 539 540 541 542 543 544 545 546 547 548 549 550 551 552 553 554 555 556 557 558 559 560 561 562 563 564 565 566 567 568 569 570 571 572 573 574 575 576 577 578 579 580 581 582 583 584 585 586 587 588 589 590 591 592 593 594 595 596 597 598 599 600 601 602 603 604 605 606 607 608 609 610 611 612 613 614 615 616 617 618 619 620 621 622 623 624 625 626 627 628 629 630 631 632 633 634 635 636 637 638 639 640 641 642 643 644 645 646 647 648 649 650 651 652 653 654 655 656 657 658 659 660 661 662 663 664 665 666 667 668 669 670 671 672 673 674 675 676 677 678 679 680 681 682 683 684 685 686 687 688 689 690 691 692 693 694 695 696 697 698 699 700 701 702 703 704 705 706 707 708 709 710 711 712 713 714 715 716 717 718 719 720 721 722 723 724 725 726 727 728 729 730 731 732 733 734 735 736 737 738 739 740 741 742 743 744 745 746 747 748 749 750 751 752 753 754 755 756 757 758 759 760 761 762 763 764 765 766 767 768 769 770 771 772 773 774 775 776 777 778 779 780 781 782 783 784 785 786 787 788 789 790 791 792 793 794 795 796 797 798 799 800 801 802 803 804 805 806 807 808 809 810 811 812 813 814 815 816 817 818 819 820 821 822 823 824 825 826 827 828 829 830 831 832 833 834 835 836 837 838 839 840 841 842 843 844 845 846 847 848 849 850 851 852 853 854 855 856 857 858 859 860 861 862 863 864 865 866 867 868 869 870 871 872 873 874 875 876 877 878 879 880 881 882 883 884 885 886 887 888 889 890 891 892 893 894 895 896 897 898 899 900 901 902 903 904 905 906 907 908 909 910 911 912 913 914 915 916 917 918 919 920 921 922 923 924 925 926 927 928 929 930 931 932 933 934 935 936 937 938 939 940 941 942 943 944 945 946 947 948 949 950 951 952 953 954 955 956 957 958 959 960 961 962 963 964 965 966 967 968 969 970 971 972 973 974 975 976 977 978 979 980 981 982 983 984 985 986 987 988 989 990 991 992 993 994 995 996 997 998 999 1000 1001 1002 1003 1004 1005 1006 1007 1008 1009 1010 1011 1012 1013 1014 1015 1016 1017 1018 1019 1020 1021 1022 1023 1024 1025 1026 1027 1028 1029 1030 1031 1032 1033 1034 1035 1036 1037 1038 1039 1040 1041 1042 1043 1044 1045 1046 1047 1048 1049 1050 1051 1052 1053 1054 1055 1056 1057 1058 1059 1060 1061 1062 1063 1064 1065 1066 1067 1068 1069 1070 1071 1072 1073 1074 1075 1076 1077 1078 1079 1080 1081 1082 1083 1084 1085 1086 1087 1088 1089 1090 1091 1092 1093 1094 1095 1096 1097 1098 1099 1100 1101 1102 1103 1104 1105 1106 1107 1108 1109 1110 1111 1112 1113 1114 1115 1116 1117 1118 1119 1120 1121 1122 1123 1124 1125 1126 1127 1128 1129 1130 1131 1132 1133 1134 1135 1136 1137 1138 1139 1140 1141 1142 1143 1144 1145 1146 1147 1148 1149 1150 1151 1152 1153 1154 1155 1156 1157 1158 1159 1160 1161 1162 1163 1164 1165 1166 1167 1168 1169 1170 1171 1172 1173 1174 1175 1176 1177 1178 1179 1180 1181 1182 1183 1184 1185 1186 1187 1188 1189 1190 1191 1192 1193 1194 1195 1196 1197 1198 1199 1200 1201 1202 1203 1204 1205 1206 1207 1208 1209 1210 1211 1212 1213 1214 1215 1216 1217 1218 1219 1220 1221 1222 1223 1224 1225 1226 1227 1228 1229 1230 1231 1232 1233 1234 1235 1236 1237 1238 1239 1240 1241 1242 1243 1244 1245 1246 1247 1248 1249 1250 1251 1252 1253 1254 1255 1256 1257 1258 1259 1260 1261 1262 1263 1264 1265 1266 1267 1268 1269 1270 1271 1272 1273 1274 1275 1276 1277 1278 1279 1280 1281 1282 1283 1284 1285 1286 1287 1288 1289 1290 1291 1292 1293 1294 1295 1296 1297 1298 1299 1300 1301 1302 1303 1304 1305 1306 1307 1308 1309 1310 1311 1312 1313 1314 1315 1316 1317 1318 1319 1320 1321 1322 1323 1324 1325 1326 1327 1328 1329 1330 1331 1332 1333 1334 1335 1336 1337 1338 1339 1340 1341 1342 1343 1344 1345 1346 1347 1348 1349 1350 1351 1352 1353 1354 1355 1356 1357 1358 1359 1360 1361 1362 1363 1364 1365 1366 1367 1368 1369 1370 1371 1372 1373 1374 1375 1376 1377 1378 1379 1380 1381 1382 1383 1384 1385 1386 1387 1388 1389 1390 1391 1392 1393 1394 1395 1396 1397 1398 1399 1400 1401 1402 1403 1404 1405 1406 1407 1408 1409 1410 1411 1412 1413 1414 1415 1416 1417 1418 1419 1420 1421 1422 1423 1424 1425 1426 1427 1428 1429 1430 1431 1432 1433 1434 1435 1436 1437 1438 1439 1440 1441 1442 1443 1444 1445 1446 1447 1448 1449 1450 1451 1452 1453 1454 1455 1456 1457 1458 1459 1460 1461 1462 1463 1464 1465 1466 1467 1468 1469 1470 1471 1472 1473 1474 1475 1476 1477 1478 1479 1480 1481 1482 1483 1484 1485 1486 1487 1488 1489 1490 1491 1492 1493 1494 1495 1496 1497 1498 1499 1500 1501 1502 1503 1504 1505 1506 1507 1508 1509 1510 1511 1512 1513 1514 1515 1516 1517 1518 1519 1520 1521 1522 1523 1524 1525 1526 1527 1528 1529 1530 1531 1532 1533 1534 1535 1536 1537 1538 1539 1540 1541 1542 1543 1544 1548 1549 1550 1551 1552 1553 1554 1555 1559 1560 1561 1562 1563 1564 1565 1566 1570 1571 1572 1573 1574 1575 1576 1577 1581 1582 1583 1584 1585 1586 1587 1588 1592 1593 1594 1595 1596 1597 1598 1599 1603 1604 1605 1606 1607 1608 1609 1610 1614 1615 1616 1617 1618 1619 1620 1621 1625 1626 1627 1628 1629 1630 1631 1632 1636 1637 1638 1639 1640 1641 1642 1643 1647 1648 1649 1650 1651 1652 1653 1654 1658 1659 1660 1661 1662 1663 1664 1665 1669 1670 1671 1672 1673 1674 1675 1676 1680 1681 1682 1683 1684 1685 1686 1687 1691 1692 1693 1694 1695 1696 1697 1698 1702 1703 1704 1705 1706 1707 1708 1709 1713 1714 1715 1716 1717 1718 1719 1720 1724 1725 1726 1727 1728 1729 1730 1731 1735 1736 1737 1738 1739 1740 1741 1742 1746 1747 1748 1749 1750 1751 1752 1753 1757 1758 1759 1760 1761 1762 1763 1764 1768 1769 1770 1771 1772 1773 1774 1775 1779 1780 1781 1782 1783 1784 1785 1786 1790 1791 1792 1793 1794 1795 1796 1797 1801 1802 1803 1804 1805 1806 1807 1808 1812 1813 1814 1815 1816 1817 1818 1819 1823 1824 1825 1826 1827 1828 1829 1830 1834 1835 1836 1837 1838 1839 1840 1841 1845 1846 1847 1848 1849 1850 1851 1852 1856 1857 1858 1859 1860 1861 1862 1863 1867 1868 1869 1870 1871 1872 1873 1874 1878 1879 1880 1881 1882 1883 1884 1885 1889 1890 1891 1892 1893 1894 1895 1896 1897 1898 1899 1900 1901 1902 1903 1904 1905 1906 1907 1908 1909 1910 1911 1912 1913 1914 1915 1916 1917 1918 1919 1920 1921 1922 1923 1924 1925 1926 1927 1928 1929 1930 1931 1932 1933 1934 1935 1936 1937 1938 1939 1940 1941 1942 1943 1944 1945 1946 1947 1948 1949 1950 1951 1952 1953 1954 1955 1956 1957 1958 1959 1960 1961 1962 1963 1964 1965 1966 1967 1968 1969 1970 1971 1972 1973 1974 1975 1976 1977 1978 1979 1980 1981 1982 1983 1984 1985 1986 1987 1988 1989 1990 1991 1992 1993 1994 1995 1996 1997 1998 1999 2000 2001 2002 2003 2004 2005 2006 2007 2008 2009 2010 2011 2012 2013 2014 2015 2016 2017 2018 2019 2020 2021 2022 2023 2024 2025 2026 2027 2028 2029 2030 2031 2032 2033 2034 2035 2036 2037 2038 2039 2040 2041 2042 2043 2044 2045 2046 2047 2048 2049 2050 2051 2052 2053 2054 2055 2056 2057 2058 2059 2060 2061 2062 2063 2064 2065 2066 2067 2068 2069 2070 2071 2072 2073 2074 2075 2076 2077 2078 2079 2080 2081 2082 2083 2084 2085 2086 2087 2088 2089 2090 2091 2092 2093 2094 2095 2096 2097 2098 2099 2100 2101 2102 2103 2104 2105 2106 2107 2108 2109 2110 2111 2112 2113 2114 2115 2116 2117 2118 2119 2120 2121 2122 2123 2124 2125 2126 2127 2128 2129 2130 2131 2132 2133 2134 2135 2136 2137 2138 2139 2140 2141 2142 2143 2144 2145 2146 2147 2148 2149 2150 2151 2152 2153 2154 2155 2156 2157 2158 2159 2160 2161 2162 2163 2164 2165 2166 2167 2168 2169 2170 2171 2172 2173 2174 2175 2176 2177 2178 2179 2180 2181 2182 2183 2184 2185 2186 2187 2188 2189 2190 2191 2192 2193 2194 2195 2196 2197 2198 2199 2200 2201 2202 2203 2204 2205 2206 2207 2208 2209 2210 2211 2212 2213 2214 2215 2216 2217 2218 2219 2220 2221 2222 2223 2224 2225 2226 2227 2228 2229 2230 2231 2232 2233 2234 2235 2236 2237 2238 2239 2240 2241 2242 2243 2244 2245 2246 2247 2248 2249 2250 2251 2252 2253 2254 2255 2256 2257 2258 2259 2260 2261 2262 2263 2264 2265 2266 2267 2268 2269 2270 2271 2272 2273 2274 2275 2276 2277 2278 2279 2280 2281 2282 2283 2284 2285 2286 2287 2288 2289 2290 2291 2292 2293 2294 2295 2296 2297 2298 2299 2300 2301 2302 2303 2304 2305 2306 2307 2308 2309 2310 2311 2312 2313 2314 2315 2316 2317 2318 2319 2320 2321 2322 2323 2324 2325 2326 2327 2328 2329 2330 2331 2332 2333 2334 2335 2336 2337 2338 2339 2340 2341 2342 2343 2344 2345 2346 2347 2348 2349 2350 2351 2352 2353 2354 2355 2356 2357 2358 2359 2360 2361 2362 2363 2364 2365 2366 2367 2368 2369 2370 2371 2372 2373 2374 2375 2376 2377 2378 2379 2380 2381 2382 2383 2384 2385 2386 2387 2388 2389 2390 2391 2392 2393 2394 2395 2396 2397 2398 2399 2400 2401 2402 2403 2404 2405 2406 2407 2408 2409 2410 2411 2412 2413 2414 2415 2416 2417 2418 2419 2420 2421 2422 2423 2424 2425 2426 2427 2428 2429 2430 2431 2432 2433 2434 2435 2436 2437 2438 2439 2440 2441 2442 2443 2444 2445 2446 2447 2448 2449 2450 2451 2452 2453 2454 2455 2456 2457 2458 2459 2460 2461 2462 2463 2464 2465 2466 2467 2468 2469 2470 2471 2472 2473 2474 2475 2476 2477 2478 2479 2480 2481 2482 2483 2484 2485 2486 2487 2488 2489 2490 2491 2492 2493 2494 2495 2496 2497 2498 2499 2500 2501 2502 2503 2504 2505 2506 2507 2508 2509 2510 2511 2512 2513 2514 2515 2516 2517 2518 2519 2520 2521 2522 2523 2524 2525 2526 2527 2528 2529 2530 2531 2532 2533 2534 2535 2536 2537 2538 2539 2540 2541 2542 2543 2544 2545 2546 2547 2548 2549 2550 2551 2552 2553 2554 2555 2556 2557 2558 2559 2560 2561 2562 2563 2564 2565 2566 2567 2568 2569 2570 2571 2572 2573 2574 2575 2576 2577 2578 2579 2580 2581 2582 2583 2584 2585 2586 2587 2588 2589 2590 2591 2592 2593 2594 2595 2596 2597 2598 2599 2600 2601 2602 2603 2604 2605 2606 2607 2608 2609 2610 2611 2612 2613 2614 2615 2616 2617 2618 2619 2620 2621 2622 2623 2624 2625 2626 2627 2628 2629 2630 2631 2632 2633 2634 2635 2636 2637 2638 2639 2640 2641 2642 2643 2644 2645 2646 2647 2648 2649 2650 2651 2652 2653 2654 2655 2656 2657 2658 2659 2660 2661 2662 2663 2664 2665 2666 2667 2668 2669 2670 2671 2672 2673 2674 2675 2676 2677 2678 2679 2680 2681 2682 2683 2684 2685 2686 2687 2688 2689 2690 2691 2692 2693 2694 2695 2696 2697 2698 2699 2700 2701 2702 2703 2704 2705 2706 2707 2708 2709 2710 2711 2712 2713 2714 2715 2716 2717 2718 2719 2720 2721 2722 2723 2724 2725 2726 2727 2728 2729 2730 2731 2732 2733 2734 2735 2736 2737 2738 2739 2740 2741 2742 2743 2744 2745 2746 2747 2748 2749 2750 2751 2752 2753 2754 2755 2756 2757 2758 2759 2760 2761 2762 2763 2764 2765 2766 2767 2768 2769 2770 2771 2772 2773 2774 2775 2776 2777 2778 2779 2780 2781 2782 2783 2784 2785 2786 2787 2788 2789 2790 2791 2792 2793 2794 2795 2796 2797 2798 2799 2800 2801 2802 2803 2804 2805 2806 2807 2808 2809 2810 2811 2812 2813 2814 2815 2816 2817 2818 2819 2820 2821 2822 2823 2824 2825 2826 2827 2828 2829 2830 2831 2832 2833 2834 2835 2836 2837 2838 2839 2840 2841 2842 2843 2844 2845 2846 2847 2848 2849 2850 2851 2852 2853 2854 2855 2856 2857 2858 2859 2860 2861 2862 2863 2864 2865 2866 2867 2868 2869 2870 2871 2872 2873 2874 2875 2876 2877 2878 2879 2880 2881 2882 2883 2884 2885 2886 2887 2888 2889 2890 2891 2892 2893 2894 2895 2896 2897 2898 2899 2900 2901 2902 2903 2904 2905 2906 2907 2908 2909 2910 2911 2912 2913 2914 2915 2916 2917 2918 2919 2920 2921 2922 2923 2924 2925 2926 2927 2928 2929 2930 2931 2932 2933 2934 2935 2936 2937 2938 2939 2940 2941 2942 2943 2944 2945 2946 2947 2948 2949 2950 2951 2952 2953 2954 2955 2956 2957 2958 2959 2960 2961 2962 2963 2964 2965 2966 2967 2968 2969 2970 2971 2972 2973 2974 2975 2976 2977 2978 2979 2980 2981 2982 2983 2984 2985 2986 2987 2988 2989 2990 2991 2992 2993 2994 2995 2996 2997 2998 2999 3000 3001 3002 3003 3004 3005 3006 3007 3008 3009 3010 3011 3012 3013 3014 3015 3016 3017 3018 3019 3020 3021 3022 3023 3024 3025 3026 3027 3028 3029 3030 3031 3032 3033 3034 3035 3036 3037 3038 3039 3040 3041 3042 3043 3044 3045 3046 3047 3048 3049 3050 3051 3052 3053 3054 3055 3056 3057 3058 3059 3060 3061 3062 3063 3064 3065 3066 3067 3068 3069 3070 3071 3072 3073 3074 3075 3076 3077 3078 3079 3080 3081 3082 3083 3084 3085 3086 3087 3088 3089 3090 3091 3092 3093 3094 3095 3096 3097 3098 3099 3100 3101 3102 3103 3104 3105 3106 3107 3108 3109 3110 3111 3112 3113 3114 3115 3116 3117 3118 3119 3120 3121 3122 3123 3124 3125 3126 3127 3128 3129 3130 3131 3132 3133 3134 3135 3136 3137 3138 3139 3140 3141 3142 3143 3144 3145 3146 3147 3148 3149 3150 3151 3152 3153 3154 3155 3156 3157 3158 3159 3160 3161 3162 3163 3164 3165 3166 3167 3168 3169 3170 3171 3172 3173 3174 3175 3176 3177 3178 3179 3180 3181 3182 3183 3184 3185 3186 3187 3188 3189 3190 3191 3192 3193 3194 3195 3196 3197 3198 3199 3200 3201 3202 3203 3204 3205 3206 3207 3208 3209 3210 3211 3212 3213 3214 3215 3216 3217 3218 3219 3220 3221 3222 3223 3224 3225 3226 3227 3228 3229 3230 3231 3232 3233 3234 3235 3236 3237 3238 3239 3240 3241 3242 3243 3244 3245 3246 3247 3248 3249 3250 3251 3252 3253 3254 3255 3256 3257 3258 3259 3260 3261 3262 3263 3264 3265 3266 3267 3268 3269 3270 3271 3272 3273 3274 3275 3276 3277 3278 3279 3280 3281 3282 3283 3284 3285 3286 3287 3288 3289 3290 3291 3292 3293 3294 3295 3296 3297 3298 3299 3300 3301 3302 3303 3304 3305 3306 3307 3308 3309 3310 3311 3312 3313 3314 3315 3316 3317 3318 3319 3320 3321 3322 3323 3324 3325 3326 3327 3328 3329 3330 3331 3332 3333 3334 3335 3336 3337 3338 3339 3340 3341 3342 3343 3344 3345 3346 3347 3348 3349 3350 3351 3352 3353 3354 3355 3356 3357 3358 3359 3360 3361 3362 3363 3364 3365 3366 3367 3368 3369 3370 3371 3372 3373 3374 3375 3376 3377 3378 3379 3380 3381 3382 3383 3384 3385 3386 3387 3388 3389 3390 3391 3392 3393 3394 3395 3396 3397 3398 3399 3400 3401 3402 3403 3404 3405 3406 3407 3408 3409 3410 3411 3412 3413 3414 3415 3416 3417 3418 3419 3420 3421 3422 3423 3424 3425 3426 3427 3428 3429 3430 3431 3432 3433 3434 3435 3436 3437 3438 3439 3440 3441 3442 3443 3444 3445 3446 3447 3448 3449 3450 3451 3452 3453 3454 3455 3456 3457 3458 3459 3460 3461 3462 3463 3464 3465 3466 3467 3468 3469 3470 3471 3472 3473 3474 3475 3476 3477 3478 3479 3480 3481 3482 3483 3484 3485 3486 3487 3488 3489 3490 3491 3492 3493 3494 3495 3496 3497 3498 3499 3500 3501 3502 3503 3504 3505 3506 3507 3508 3509 3510 3511 3512 3513 3514 3515 3516 3517 3518 3519 3520 3521 3522 3523 3524 3525 3526 3527 3528 3529 3530 3534 3535 3536 3537 3538 3539 3540 3541 3545 3546 3547 3548 3549 3550 3551 3552 3556 3557 3558 3559 3560 3561 3562 3563 3567 3568 3569 3570 3571 3572 3573 3574 3578 3579 3580 3581 3582 3583 3584 3585 3589 3590 3591 3592 3593 3594 3595 3596 3600 3601 3602 3603 3604 3605 3606 3607 3611 3612 3613 3614 3615 3616 3617 3618 3622 3623 3624 3625 3626 3627 3628 3629 3633 3634 3635 3636 3637 3638 3639 3640 3644 3645 3646 3647 3648 3649 3650 3651 3655 3656 3657 3658 3659 3660 3661 3662 3666 3667 3668 3669 3670 3671 3672 3673 3677 3678 3679 3680 3681 3682 3683 3684 3688 3689 3690 3691 3692 3693 3694 3695 3699 3700 3701 3702 3703 3704 3705 3706 3710 3711 3712 3713 3714 3715 3716 3717 3721 3722 3723 3724 3725 3726 3727 3728 3732 3733 3734 3735 3736 3737 3738 3739 3743 3744 3745 3746 3747 3748 3749 3750 3754 3755 3756 3757 3758 3759 3760 3761 3765 3766 3767 3768 3769 3770 3771 3772 3776 3777 3778 3779 3780 3781 3782 3783 3787 3788 3789 3790 3791 3792 3793 3794 3798 3799 3800 3801 3802 3803 3804 3805 3809 3810 3811 3812 3813 3814 3815 3816 3820 3821 3822 3823 3824 3825 3826 3827 3831 3832 3833 3834 3835 3836 3837 3838 3842 3843 3844 3845 3846 3847 3848 3849 3853 3854 3855 3856 3857 3858 3859 3860 3864 3865 3866 3867 3868 3869 3870 3871 3875 3876 3877 3878 3879 3880 3881 3882 3883 3884 3885 3886 3887 3888 3889 3890 3891 3892 3893 3894 3895 3896 3897 3898 3899 3900 3901 3902 3903 3904 3905 3906 3907 3908 3909 3910 3911 3912 3913 3914 3915 3916 3917 3918 3919 3920 3921 3922 3923 3924 3925 3926 3927 3928 3929 3930 3931 3932 3933 3934 3935 3936 3937 3938 3939 3940 3941 3942 3943 3944 3945 3946 3947 3948 3949 3950 3951 3952 3953 3954 3955 3956 3957 3958 3959 3960 3961 3962 3963 3964 3965 3966 3967 3968 3969 3970 3971 3972 3973 3974 3975 3976 3977 3978 3979 3980 3981 3982 3983 3984 3985 3986 3987 3988 3989 3990 3991 3992 3993 3994 3995 3996 3997 3998 3999 4000 4001 4002 4003 4004 4005 4006 4007 4008 4009 4010 4011 4012 4013 4014 4015 4016 4017 4018 4019 4020 4021 4022 4023 4024 4025 4026 4027 4028 4029 4030 4031 4032 4033 4034 4035 4036 4037 4038 4039 4040 4041 4042 4043 4044 4045 4046 4047 4048 4049 4050 4051 4052 4053 4054 4055 4056 4057 4058 4059 4060 4061 4062 4063 4064 4065 4066 4067 4068 4069 4070 4071 4072 4073 4074 4075 4076 4077 4078 4079 4080 4081 4082 4083 4084 4085 4086 4087 4088 4089 4090 4091 4092 4093 4094 4095 4096 4097 4098 4099 4100 4101 4102 4103 4104 4105 4106 4107 4108 4109 4110 4111 4112 4113 4114 4115 4116 4117 4118 4119 4120 4121 4122 4123 4124 4125 4126 4127 4128 4129 4130 4131 4132 4133 4134 4135 4136 4137 4138 4139 4140 4141 4142 4143 4144 4145 4146 4147 4148 4149 4150 4151 4152 4153 4154 4155 4156 4157 4158 4159 4160 4161 4162 4163 4164 4165 4166 4167 4168 4169 4170 4171 4172 4173 4174 4175 4176 4177 4178 4179 4180 4181 4182 4183 4184 4185 4186 4187 4188 4189 4190 4191 4192 4193 4194 4195 4196 4197 4198 4199 4200 4201 4202 4203 4204 4205 4206 4207 4208 4209 4210 4211 4212 4213 4214 4215 4216 4217 4218 4219 4220 4221 4222 4223 4224 4225 4226 4227 4228 4229 4230 4231 4232 4233 4234 4235 4236 4237 4238 4239 4240 4241 4242 4243 4244 4245 4246 4247 4248 4249 4250 4251 4252 4253 4254 4255 4256 4257 4258 4259 4260 4261 4262 4263 4264 4265 4266 4267 4268 4269 4270 4271 4272 4273 4274 4275 4276 4277 4278 4279 4280 4281 4282 4283 4284 4285 4286 4287 4288 4289 4290 4291 4292 4293 4294 4295 4296 4297 4298 4299 4300 4301 4302 4303 4304 4305 4306 4307 4308 4309 4310 4311 4312 4313 4314 4315 4316 4317 4318 4319 4320 4321 4322 4323 4324 4325 4326 4327 4328 4329 4330 4331 4332 4333 4334 4335 4336 4337 4338 4339 4340 4341 4342 4343 4344 4345 4346 4347 4348 4349 4350 4351 4352 4353 4354 4355 4356 4357 4358 4359 4360 4361 4362 4363 4364 4365 4366 4367 4368 4369 4370 4371 4372 4373 4374 4375 4376 4377 4378 4379 4380 4381 4382 4383 4384 4385 4386 4387 4388 4389 4390 4391 4392 4393 4394 4395 4396 4397 4398 4399 4400 4401 4402 4403 4404 4405 4406 4407 4408 4409 4410 4411 4412 4413 4414 4415 4416 4417 4418 4419 4420 4421 4422 4423 4424 4425 4426 4427 4428 4429 4430 4431 4432 4433 4434 4435 4436 4437 4438 4439 4440 4441 4442 4443 4444 4445 4446 4447 4448 4449 4450 4451 4452 4453 4454 4455 4456 4457 4458 4459 4460 4461 4462 4463 4464 4465 4466 4467 4468 4469 4470 4471 4472 4473 4474 4475 4476 4477 4478 4479 4480 4481 4482 4483 4484 4485 4486 4487 4488 4489 4490 4491 4492 4493 4494 4495 4496 4497 4498 4499 4500 4501 4502 4503 4504 4505 4506 4507 4508 4509 4510 4511 4512 4513 4514 4515 4516 4517 4518 4519 4520 4521 4522 4523 4524 4525 4526 4527 4528 4529 4530 4531 4532 4533 4534 4535 4536 4537 4538 4539 4540 4541 4542 4543 4544 4545 4546 4547 4548 4549 4550 4551 4552 4553 4554 4555 4556 4557 4558 4559 4560 4561 4562 4563 4564 4565 4566 4567 4568 4569 4570 4571 4572 4573 4574 4575 4576 4577 4578 4579 4580 4581 4582 4583 4584 4585 4586 4587 4588 4589 4590 4591 4592 4593 4594 4595 4596 4597 4598 4599 4600 4601 4602 4603 4604 4605 4606 4607 4608 4609 4610 4611 4612 4613 4614 4615 4616 4617 4618 4619 4620 4621 4622 4623 4624 4625 4626 4627 4628 4629 4630 4631 4632 4633 4634 4635 4636 4637 4638 4639 4640 4641 4642 4643 4644 4645 4646 4647 4648 4649 4650 4651 4652 4653 4654 4655 4656 4657 4658 4659 4660 4661 4662 4663 4664 4665 4666 4667 4668 4669 4670 4671 4672 4673 4674 4675 4676 4677 4678 4679 4680 4681 4682 4683 4684 4685 4686 4687 4688 4689 4690 4691 4692 4693 4694 4695 4696 4697 4698 4699 4700 4701 4702 4703 4704 4705 4706 4707 4708 4709 4710 4711 4712 4713 4714 4715 4716 4717 4718 4719 4720 4721 4722 4723 4724 4725 4726 4727 4728 4729 4730 4731 4732 4733 4734 4735 4736 4737 4738 4739 4740 4741 4742 4743 4744 4745 4746 4747 4748 4749 4750 4751 4752 4753 4754 4755 4756 4757 4758 4759 4760 4761 4762 4763 4764 4765 4766 4767 4768 4769 4770 4771 4772 4773 4774 4775 4776 4777 4778 4779 4780 4781 4782 4783 4784 4785 4786 4787 4788 4789 4790 4791 4792 4793 4794 4795 4796 4797 4798 4799 4800 4801 4802 4803 4804 4805 4806 4807 4808 4809 4810 4811 4812 4813 4814 4815 4816 4817 4818 4819 4820 4821 4822 4823 4824 4825 4826 4827 4828 4829 4830 4831 4832 4833 4834 4835 4836 4837 4838 4839 4840 4841 4842 4843 4844 4845 4846 4847 4848 4849 4850 4851 4852 4853 4854 4855 4856 4857 4858 4859 4860 4861 4862 4863 4864 4865 4866 4867 4868 4869 4870 4871 4872 4873 4874 4875 4876 4877 4878 4879 4880 4881 4882 4883 4884 4885 4886 4887 4888 4889 4890 4891 4892 4893 4894 4895 4896 4897 4898 4899 4900 4901 4902 4903 4904 4905 4906 4907 4908 4909 4910 4911 4912 4913 4914 4915 4916 4917 4918 4919 4920 4921 4922 4923 4924 4925 4926 4927 4928 4929 4930 4931 4932 4933 4934 4935 4936 4937 4938 4939 4940 4941 4942 4943 4944 4945 4946 4947 4948 4949 4950 4951 4952 4953 4954 4955 4956 4957 4958 4959 4960 4961 4962 4963 4964 4965 4966 4967 4968 4969 4970 4971 4972 4973 4974 4975 4976 4977 4978 4979 4980 4981 4982 4983 4984 4985 4986 4987 4988 4989 4990 4991 4992 4993 4994 4995 4996 4997 4998 4999 5000 5001 5002 5003 5004 5005 5006 5007 5008 5009 5010 5011 5012 5013 5014 5015 5016 5017 5018 5019 5020 5021 5022 5023 5024 5025 5026 5027 5028 5029 5030 5031 5032 5033 5034 5035 5036 5037 5038 5039 5040 5041 5042 5043 5044 5045 5046 5047 5048 5049 5050 5051 5052 5053 5054 5055 5056 5057 5058 5059 5060 5061 5062 5063 5064 5065 5066 5067 5068 5069 5070 5071 5072 5073 5074 5075 5076 5077 5078 5079 5080 5081 5082 5083 5084 5085 5086 5087 5088 5089 5090 5091 5092 5093 5094 5095 5096 5097 5098 5099 5100 5101 5102 5103 5104 5105 5106 5107 5108 5109 5110 5111 5112 5113 5114 5115 5116 5117 5118 5119 5120 5121 5122 5123 5124 5125 5126 5127 5128 5129 5130 5131 5132 5133 5134 5135 5136 5137 5138 5139 5140 5141 5142 5143 5144 5145 5146 5147 5148 5149 5150 5151 5152 5153 5154 5155 5156 5157 5158 5159 5160 5161 5162 5163 5164 5165 5166 5167 5168 5169 5170 5171 5172 5173 5174 5175 5176 5177 5178 5179 5180 5181 5182 5183 5184 5185 5186 5187 5188 5189 5190 5191 5192 5193 5194 5195 5196 5197 5198 5199 5200 5201 5202 5203 5204 5205 5206 5207 5208 5209 5210 5211 5212 5213 5214 5215 5216 5217 5218 5219 5220 5221 5222 5223 5224 5225 5226 5227 5228 5229 5230 5231 5232 5233 5234 5235 5236 5237 5238 5239 5240 5241 5242 5243 5244 5245 5246 5247 5248 5249 5250 5251 5252 5253 5254 5255 5256 5257 5258 5259 5260 5261 5262 5263 5264 5265 5266 5267 5268 5269 5270 5271 5272 5273 5274 5275 5276 5277 5278 5279 5280 5281 5282 5283 5284 5285 5286 5287 5288 5289 5290 5291 5292 5293 5294 5295 5296 5297 5298 5299 5300 5301 5302 5303 5304 5305 5306 5307 5308 5309 5310 5311 5312 5313 5314 5315 5316 5317 5318 5319 5320 5321 5322 5323 5324 5325 5326 5327 5328 5329 5330 5331 5332 5333 5334 5335 5336 5337 5338 5339 5340 5341 5342 5343 5344 5345 5346 5347 5348 5349 5350 5351 5352 5353 5354 5355 5356 5357 5358 5359 5360 5361 5362 5363 5364 5365 5366 5367 5368 5369 5370 5371 5372 5373 5374 5375 5376 5377 5378 5379 5380 5381 5382 5383 5384 5385 5386 5387 5388 5389 5390 5391 5392 5393 5394 5395 5396 5397 5398 5399 5400 5401 5402 5403 5404 5405 5406 5407 5408 5409 5410 5411 5412 5413 5414 5415 5416 5417 5418 5419 5420 5421 5422 5423 5424 5425 5426 5427 5428 5429 5430 5431 5432 5433 5434 5435 5436 5437 5438 5439 5440 5441 5442 5443 5444 5445 5446 5447 5448 5449 5450 5451 5452 5453 5454 5455 5456 5457 5458 5459 5460 5461 5462 5463 5464 5465 5466 5467 5468 5469 5470 5471 5472 5473 5474 5475 5476 5477 5478 5479 5480 5481 5482 5483 5484 5485 5486 5487 5488 5489 5490 5491 5492 5493 5494 5495 5496 5497 5498 5499 5500 5501 5502 5503 5504 5505 5506 5507 5508 5509 5510 5511 5512 5513 5514 5515 5516 5520 5521 5522 5523 5524 5525 5526 5527 5531 5532 5533 5534 5535 5536 5537 5538 5542 5543 5544 5545 5546 5547 5548 5549 5553 5554 5555 5556 5557 5558 5559 5560 5564 5565 5566 5567 5568 5569 5570 5571 5575 5576 5577 5578 5579 5580 5581 5582 5586 5587 5588 5589 5590 5591 5592 5593 5597 5598 5599 5600 5601 5602 5603 5604 5608 5609 5610 5611 5612 5613 5614 5615 5619 5620 5621 5622 5623 5624 5625 5626 5630 5631 5632 5633 5634 5635 5636 5637 5641 5642 5643 5644 5645 5646 5647 5648 5652 5653 5654 5655 5656 5657 5658 5659 5663 5664 5665 5666 5667 5668 5669 5670 5674 5675 5676 5677 5678 5679 5680 5681 5685 5686 5687 5688 5689 5690 5691 5692 5696 5697 5698 5699 5700 5701 5702 5703 5707 5708 5709 5710 5711 5712 5713 5714 5718 5719 5720 5721 5722 5723 5724 5725 5729 5730 5731 5732 5733 5734 5735 5736 5740 5741 5742 5743 5744 5745 5746 5747 5751 5752 5753 5754 5755 5756 5757 5758 5762 5763 5764 5765 5766 5767 5768 5769 5773 5774 5775 5776 5777 5778 5779 5780 5784 5785 5786 5787 5788 5789 5790 5791 5795 5796 5797 5798 5799 5800 5801 5802 5806 5807 5808 5809 5810 5811 5812 5813 5817 5818 5819 5820 5821 5822 5823 5824 5828 5829 5830 5831 5832 5833 5834 5835 5839 5840 5841 5842 5843 5844 5845 5846 5850 5851 5852 5853 5854 5855 5856 5857 5861 5862 5863 5864 5865 5866 5867 5868 5869 5870 5871 5872 5873 5874 5875 5876 5877 5878 5879 5880 5881 5882 5883 5884 5885 5886 5887 5888 5889 5890 5891 5892 5893 5894 5895 5896 5897 5898 5899 5900 5901 5902 5903 5904 5905 5906 5907 5908 5909 5910 5911 5912 5913 5914 5915 5916 5917 5918 5919 5920 5921 5922 5923 5924 5925 5926 5927 5928 5929 5930 5931 5932 5933 5934 5935 5936 5937 5938 5939 5940 5941 5942 5943 5944 5945 5946 5947 5948 5949 5950 5951 5952 5953 5954 5955 5956 5957 5958 5959 5960 5961 5962 5963 5964 5965 5966 5967 5968 5969 5970 5971 5972 5973 5974 5975 5976 5977 5978 5979 5980 5981 5982 5983 5984 5985 5986 5987 5988 5989 5990 5991 5992 5993 5994 5995 5996 5997 5998 5999 6000 6001 6002 6003 6004 6005 6006 6007 6008 6009 6010 6011 6012 6013 6014 6015 6016 6017 6018 6019 6020 6021 6022 6023 6024 6025 6026 6027 6028 6029 6030 6031 6032 6033 6034 6035 6036 6037 6038 6039 6040 6041 6042 6043 6044 6045 6046 6047 6048 6049 6050 6051 6052 6053 6054 6055 6056 6057 6058 6059 6060 6061 6062 6063 6064 6065 6066 6067 6068 6069 6070 6071 6072 6073 6074 6075 6076 6077 6078 6079 6080 6081 6082 6083 6084 6085 6086 6087 6088 6089 6090 6091 6092 6093 6094 6095 6096 6097 6098 6099 6100 6101 6102 6103 6104 6105 6106 6107 6108 6109 6110 6111 6112 6113 6114 6115 6116 6117 6118 6119 6120 6121 6122 6123 6124 6125 6126 6127 6128 6129 6130 6131 6132 6133 6134 6135 6136 6137 6138 6139 6140 6141 6142 6143 6144 6145 6146 6147 6148 6149 6150 6151 6152 6153 6154 6155 6156 6157 6158 6159 6160 6161 6162 6163 6164 6165 6166 6167 6168 6169 6170 6171 6172 6173 6174 6175 6176 6177 6178 6179 6180 6181 6182 6183 6184 6185 6186 6187 6188 6189 6190 6191 6192 6193 6194 6195 6196 6197 6198 6199 6200 6201 6202 6203 6204 6205 6206 6207 6208 6209 6210 6211 6212 6213 6214 6215 6216 6217 6218 6219 6220 6221 6222 6223 6224 6225 6226 6227 6228 6229 6230 6231 6232 6233 6234 6235 6236 6237 6238 6239 6240 6241 6242 6243 6244 6245 6246 6247 6248 6249 6250 6251 6252 6253 6254 6255 6256 6257 6258 6259 6260 6261 6262 6263 6264 6265 6266 6267 6268 6269 6270 6271 6272 6273 6274 6275 6276 6277 6278 6279 6280 6281 6282 6283 6284 6285 6286 6287 6288 6289 6290 6291 6292 6293 6294 6295 6296 6297 6298 6299 6300 6301 6302 6303 6304 6305 6306 6307 6308 6309 6310 6311 6312 6313 6314 6315 6316 6317 6318 6319 6320 6321 6322 6323 6324 6325 6326 6327 6328 6329 6330 6331 6332 6333 6334 6335 6336 6337 6338 6339 6340 6341 6342 6343 6344 6345 6346 6347 6348 6349 6350 6351 6352 6353 6354 6355 6356 6357 6358 6359 6360 6361 6362 6363 6364 6365 6366 6367 6368 6369 6370 6371 6372 6373 6374 6375 6376 6377 6378 6379 6380 6381 6382 6383 6384 6385 6386 6387 6388 6389 6390 6391 6392 6393 6394 6395 6396 6397 6398 6399 6400 6401 6402 6403 6404 6405 6406 6407 6408 6409 6410 6411 6412 6413 6414 6415 6416 6417 6418 6419 6420 6421 6422 6423 6424 6425 6426 6427 6428 6429 6430 6431 6432 6433 6434 6435 6436 6437 6438 6439 6440 6441 6442 6443 6444 6445 6446 6447 6448 6449 6450 6451 6452 6453 6454 6455 6456 6457 6458 6459 6460 6461 6462 6463 6464 6465 6466 6467 6468 6469 6470 6471 6472 6473 6474 6475 6476 6477 6478 6479 6480 6481 6482 6483 6484 6485 6486 6487 6488 6489 6490 6491 6492 6493 6494 6495 6496 6497 6498 6499 6500 6501 6502 6503 6504 6505 6506 6507 6508 6509 6510 6511 6512 6513 6514 6515 6516 6517 6518 6519 6520 6521 6522 6523 6524 6525 6526 6527 6528 6529 6530 6531 6532 6533 6534 6535 6536 6537 6538 6539 6540 6541 6542 6543 6544 6545 6546 6547 6548 6549 6550 6551 6552 6553 6554 6555 6556 6557 6558 6559 6560 6561 6562 6563 6564 6565 6566 6567 6568 6569 6570 6571 6572 6573 6574 6575 6576 6577 6578 6579 6580 6581 6582 6583 6584 6585 6586 6587 6588 6589 6590 6591 6592 6593 6594 6595 6596 6597 6598 6599 6600 6601 6602 6603 6604 6605 6606 6607 6608 6609 6610 6611 6612 6613 6614 6615 6616 6617 6618 6619 6620 6621 6622 6623 6624 6625 6626 6627 6628 6629 6630 6631 6632 6633 6634 6635 6636 6637 6638 6639 6640 6641 6642 6643 6644 6645 6646 6647 6648 6649 6650 6651 6652 6653 6654 6655 6656 6657 6658 6659 6660 6661 6662 6663 6664 6665 6666 6667 6668 6669 6670 6671 6672 6673 6674 6675 6676 6677 6678 6679 6680 6681 6682 6683 6684 6685 6686 6687 6688 6689 6690 6691 6692 6693 6694 6695 6696 6697 6698 6699 6700 6701 6702 6703 6704 6705 6706 6707 6708 6709 6710 6711 6712 6713 6714 6715 6716 6717 6718 6719 6720 6721 6722 6723 6724 6725 6726 6727 6728 6729 6730 6731 6732 6733 6734 6735 6736 6737 6738 6739 6740 6741 6742 6743 6744 6745 6746 6747 6748 6749 6750 6751 6752 6753 6754 6755 6756 6757 6758 6759 6760 6761 6762 6763 6764 6765 6766 6767 6768 6769 6770 6771 6772 6773 6774 6775 6776 6777 6778 6779 6780 6781 6782 6783 6784 6785 6786 6787 6788 6789 6790 6791 6792 6793 6794 6795 6796 6797 6798 6799 6800 6801 6802 6803 6804 6805 6806 6807 6808 6809 6810 6811 6812 6813 6814 6815 6816 6817 6818 6819 6820 6821 6822 6823 6824 6825 6826 6827 6828 6829 6830 6831 6832 6833 6834 6835 6836 6837 6838 6839 6840 6841 6842 6843 6844 6845 6846 6847 6848 6849 6850 6851 6852 6853 6854 6855 6856 6857 6858 6859 6860 6861 6862 6863 6864 6865 6866 6867 6868 6869 6870 6871 6872 6873 6874 6875 6876 6877 6878 6879 6880 6881 6882 6883 6884 0
-1545 6885 0
-6886 0
-6887 0
-6888 0
-6889 0
-6890 0
-6891 0
-6892 0
-6893 0
-6894 0
-6895 0
-6896 0
-6897 0
-6898 0
-6899 0
-6900 0
-6901 0
-6902 0
-6903 0
-1545 6904 0
-6885 6904 0
-1545 -6885 6905 0
-6886 6905 0
-1545 -6886 6906 0
-6887 6906 0
-1545 -6887 6907 0
-6888 6907 0
-1545 -6888 6908 0
-6889 6908 0
-1545 -6889 6909 0
-6890 6909 0
-1545 -6890 6910 0
-6891 6910 0
-1545 -6891 6911 0
-6892 6911 0
-1545 -6892 6912 0
-6893 6912 0
-1545 -6893 6913 0
-6894 6913 0
-1545 -6894 6914 0
-6895 6914 0
-1545 -6895 6915 0
-6896 6915 0
-1545 -6896 6916 0
-6897 6916 0
-1545 -6897 6917 0
-6898 6917 0
-1545 -6898 6918 0
-6899 6918 0
-1545 -6899 6919 0
-6900 6919 0
-1545 -6900 6920 0
-6901 6920 0
-1545 -6901 6921 0
-6902 6921 0
-1545 -6902 6922 0
-6903 6922 0
-1545 -6903 0
-1545 6923 0
-6904 6923 0
-1545 -6904 6924 0
-6905 6924 0
-1545 -6905 6925 0
-6906 6925 0
-1545 -6906 6926 0
-6907 6926 0
-1545 -6907 6927 0
-6908 6927 0
-1545 -6908 6928 0
-6909 6928 0
-1545 -6909 6929 0
-6910 6929 0
-1545 -6910 6930 0
-6911 6930 0
-1545 -6911 6931 0
-6912 6931 0
-1545 -6912 6932 0
-6913 6932 0
-1545 -6913 6933 0
-6914 6933 0
-1545 -6914 6934 0
-6915 6934 0
-1545 -6915 6935 0
-6916 6935 0
-1545 -6916 6936 0
-6917 6936 0
-1545 -6917 6937 0
-6918 6937 0
-1545 -6918 6938 0
-6919 6938 0
-1545 -6919 6939 0
-6920 6939 0
-1545 -6920 6940 0
-6921 6940 0
-1545 -6921 6941 0
-6922 6941 0
-1545 -6922 0
-1546 6942 0
-6923 6942 0
-1546 -6923 6943 0
-6924 6943 0
-1546 -6924 6944 0
-6925 6944 0
-1546 -6925 6945 0
-6926 6945 0
-1546 -6926 6946 0
-6927 6946 0
-1546 -6927 6947 0
-6928 6947 0
-1546 -6928 6948 0
-6929 6948 0
-1546 -6929 6949 0
-6930 6949 0
-1546 -6930 6950 0
-6931 6950 0
-1546 -6931 6951 0
-6932 6951 0
-1546 -6932 6952 0
-6933 6952 0
-1546 -6933 6953 0
-6934 6953 0
-1546 -6934 6954 0
-6935 6954 0
-1546 -6935 6955 0
-6936 6955 0
-1546 -6936 6956 0
-6937 6956 0
-1546 -6937 6957 0
-6938 6957 0
-1546 -6938 6958 0
-6939 6958 0
-1546 -6939 6959 0
-6940 6959 0
-1546 -6940 6960 0
-6941 6960 0
-1546 -6941 0
-1546 6961 0
-6942 6961 0
-1546 -6942 6962 0
-6943 6962 0
-1546 -6943 6963 0
-6944 6963 0
-1546 -6944 6964 0
-6945 6964 0
-1546 -6945 6965 0
-6946 6965 0
-1546 -6946 6966 0
-6947 6966 0
-1546 -6947 6967 0
-6948 6967 0
-1546 -6948 6968 0
-6949 6968 0
-1546 -6949 6969 0
-6950 6969 0
-1546 -6950 6970 0
-6951 6970 0
-1546 -6951 6971 0
-6952 6971 0
-1546 -6952 6972 0
-6953 6972 0
-1546 -6953 6973 0
-6954 6973 0
-1546 -6954 6974 0
-6955 6974 0
-1546 -6955 6975 0
-6956 6975 0
-1546 -6956 6976 0
-6957 6976 0
-1546 -6957 6977 0
-6958 6977 0
-1546 -6958 6978 0
-6959 6978 0
-1546 -6959 6979 0
-6960 6979 0
-1546 -6960 0
-1556 6980 0
-6961 6980 0
-1556 -6961 6981 0
-6962 6981 0
-1556 -6962 6982 0
-6963 6982 0
-1556 -6963 6983 0
-6964 6983 0
-1556 -6964 6984 0
-6965 6984 0
-1556 -6965 6985 0
-6966 6985 0
-1556 -6966 6986 0
-6967 6986 0
-1556 -6967 6987 0
-6968 6987 0
-1556 -6968 6988 0
-6969 6988 0
-1556 -6969 6989 0
-6970 6989 0
-1556 -6970 6990 0
-6971 6990 0
-1556 -6971 6991 0
-6972 6991 0
-1556 -6972 6992 0
-6973 6992 0
-1556 -6973 6993 0
-6974 6993 0
-1556 -6974 6994 0
-6975 6994 0
-1556 -6975 6995 0
-6976 6995 0
-1556 -6976 6996 0
-6977 6996 0
-1556 -6977 6997 0
-6978 6997 0
-1556 -6978 6998 0
-6979 6998 0
-1556 -6979 0
-1556 6999 0
-6980 6999 0
-1556 -6980 7000 0
-6981 7000 0
-1556 -6981 7001 0
-6982 7001 0
-1556 -6982 7002 0
-6983 7002 0
-1556 -6983 7003 0
-6984 7003 0
-1556 -6984 7004 0
-6985 7004 0
-1556 -6985 7005 0
-6986 7005 0
-1556 -6986 7006 0
-6987 7006 0
-1556 -6987 7007 0
-6988 7007 0
-1556 -6988 7008 0
-6989 7008 0
-1556 -6989 7009 0
-6990 7009 0
-1556 -6990 7010 0
-6991 7010 0
-1556 -6991 7011 0
-6992 7011 0
-1556 -6992 7012 0
-6993 7012 0
-1556 -6993 7013 0
-6994 7013 0
-1556 -6994 7014 0
-6995 7014 0
-1556 -6995 7015 0
-6996 7015 0
-1556 -6996 7016 0
-6997 7016 0
-1556 -6997 7017 0
-6998 7017 0
-1556 -6998 0
-1556 7018 0
-6999 7018 0
-1556 -6999 7019 0
-7000 7019 0
-1556 -7000 7020 0
-7001 7020 0
-1556 -7001 7021 0
-7002 7021 0
-1556 -7002 7022 0
-7003 7022 0
-1556 -7003 7023 0
-7004 7023 0
-1556 -7004 7024 0
-7005 7024 0
-1556 -7005 7025 0
-7006 7025 0
-1556 -7006 7026 0
-7007 7026 0
-1556 -7007 7027 0
-7008 7027 0
-1556 -7008 7028 0
-7009 7028 0
-1556 -7009 7029 0
-7010 7029 0
-1556 -7010 7030 0
-7011 7030 0
-1556 -7011 7031 0
-7012 7031 0
-1556 -7012 7032 0
-7013 7032 0
-1556 -7013 7033 0
-7014 7033 0
-1556 -7014 7034 0
-7015 7034 0
-1556 -7015 7035 0
-7016 7035 0
-1556 -7016 7036 0
-7017 7036 0
-1556 -7017 0
-1557 7037 0
-7018 7037 0
-1557 -7018 7038 0
-7019 7038 0
-1557 -7019 7039 0
-7020 7039 0
-1557 -7020 7040 0
-7021 7040 0
-1557 -7021 7041 0
-7022 7041 0
-1557 -7022 7042 0
-7023 7042 0
-1557 -7023 7043 0
-7024 7043 0
-1557 -7024 7044 0
-7025 7044 0
-1557 -7025 7045 0
-7026 7045 0
-1557 -7026 7046 0
-7027 7046 0
-1557 -7027 7047 0
-7028 7047 0
-1557 -7028 7048 0
-7029 7048 0
-1557 -7029 7049 0
-7030 7049 0
-1557 -7030 7050 0
-7031 7050 0
-1557 -7031 7051 0
-7032 7051 0
-1557 -7032 7052 0
-7033 7052 0
-1557 -7033 7053 0
-7034 7053 0
-1557 -7034 7054 0
-7035 7054 0
-1557 -7035 7055 0
-7036 7055 0
-1557 -7036 0
-1557 7056 0
-7037 7056 0
-1557 -7037 7057 0
-7038 7057 0
-1557 -7038 7058 0
-7039 7058 0
-1557 -7039 7059 0
-7040 7059 0
-1557 -7040 7060 0
-7041 7060 0
-1557 -7041 7061 0
-7042 7061 0
-1557 -7042 7062 0
-7043 7062 0
-1557 -7043 7063 0
-7044 7063 0
-1557 -7044 7064 0
-7045 7064 0
-1557 -7045 7065 0
-7046 7065 0
-1557 -7046 7066 0
-7047 7066 0
-1557 -7047 7067 0
-7048 7067 0
-1557 -7048 7068 0
-7049 7068 0
-1557 -7049 7069 0
-7050 7069 0
-1557 -7050 7070 0
-7051 7070 0
-1557 -7051 7071 0
-7052 7071 0
-1557 -7052 7072 0
-7053 7072 0
-1557 -7053 7073 0
-7054 7073 0
-1557 -7054 7074 0
-7055 7074 0
-1557 -7055 0
-1567 7075 0
-7056 7075 0
-1567 -7056 7076 0
-7057 7076 0
-1567 -7057 7077 0
-7058 7077 0
-1567 -7058 7078 0
-7059 7078 0
-1567 -7059 7079 0
-7060 7079 0
-1567 -7060 7080 0
-7061 7080 0
-1567 -7061 7081 0
-7062 7081 0
-1567 -7062 7082 0
-7063 7082 0
-1567 -7063 7083 0
-7064 7083 0
-1567 -7064 7084 0
-7065 7084 0
-1567 -7065 7085 0
-7066 7085 0
-1567 -7066 7086 0
-7067 7086 0
-1567 -7067 7087 0
-7068 7087 0
-1567 -7068 7088 0
-7069 7088 0
-1567 -7069 7089 0
-7070 7089 0
-1567 -7070 7090 0
-7071 7090 0
-1567 -7071 7091 0
-7072 7091 0
-1567 -7072 7092 0
-7073 7092 0
-1567 -7073 7093 0
-7074 7093 0
-1567 -7074 0
-1567 7094 0
-7075 7094 0
-1567 -7075 7095 0
-7076 7095 0
-1567 -7076 7096 0
-7077 7096 0
-1567 -7077 7097 0
-7078 7097 0
-1567 -7078 7098 0
-7079 7098 0
-1567 -7079 7099 0
-7080 7099 0
-1567 -7080 7100 0
-7081 7100 0
-1567 -7081 7101 0
-7082 7101 0
-1567 -7082 7102 0
-7083 7102 0
-1567 -7083 7103 0
-7084 7103 0
-1567 -7084 7104 0
-7085 7104 0
-1567 -7085 7105 0
-7086 7105 0
-1567 -7086 7106 0
-7087 7106 0
-1567 -7087 7107 0
-7088 7107 0
-1567 -7088 7108 0
-7089 7108 0
-1567 -7089 7109 0
-7090 7109 0
-1567 -7090 7110 0
-7091 7110 0
-1567 -7091 7111 0
-7092 7111 0
-1567 -7092 7112 0
-7093 7112 0
-1567 -7093 0
-1567 7113 0
-7094 7113 0
-1567 -7094 7114 0
-7095 7114 0
-1567 -7095 7115 0
-7096 7115 0
-1567 -7096 7116 0
-7097 7116 0
-1567 -7097 7117 0
-7098 7117 0
-1567 -7098 7118 0
-7099 7118 0
-1567 -7099 7119 0
-7100 7119 0
-1567 -7100 7120 0
-7101 7120 0
-1567 -7101 7121 0
-7102 7121 0
-1567 -7102 7122 0
-7103 7122 0
-1567 -7103 7123 0
-7104 7123 0
-1567 -7104 7124 0
-7105 7124 0
-1567 -7105 7125 0
-7106 7125 0
-1567 -7106 7126 0
-7107 7126 0
-1567 -7107 7127 0
-7108 7127 0
-1567 -7108 7128 0
-7109 7128 0
-1567 -7109 7129 0
-7110 7129 0
-1567 -7110 7130 0
-7111 7130 0
-1567 -7111 7131 0
-7112 7131 0
-1567 -7112 0
-1568 7132 0
-7113 7132 0
-1568 -7113 7133 0
-7114 7133 0
-1568 -7114 7134 0
-7115 7134 0
-1568 -7115 7135 0
-7116 7135 0
-1568 -7116 7136 0
-7117 7136 0
-1568 -7117 7137 0
-7118 7137 0
-1568 -7118 7138 0
-7119 7138 0
-1568 -7119 7139 0
-7120 7139 0
-1568 -7120 7140 0
-7121 7140 0
-1568 -7121 7141 0
-7122 7141 0
-1568 -7122 7142 0
-7123 7142 0
-1568 -7123 7143 0
-7124 7143 0
-1568 -7124 7144 0
-7125 7144 0
-1568 -7125 7145 0
-7126 7145 0
-1568 -7126 7146 0
-7127 7146 0
-1568 -7127 7147 0
-7128 7147 0
-1568 -7128 7148 0
-7129 7148 0
-1568 -7129 7149 0
-7130 7149 0
-1568 -7130 7150 0
-7131 7150 0
-1568 -7131 0
-1568 7151 0
-7132 7151 0
-1568 -7132 7152 0
-7133 7152 0
-1568 -7133 7153 0
-7134 7153 0
-1568 -7134 7154 0
-7135 7154 0
-1568 -7135 7155 0
-7136 7155 0
-1568 -7136 7156 0
-7137 7156 0
-1568 -7137 7157 0
-7138 7157 0
-1568 -7138 7158 0
-7139 7158 0
-1568 -7139 7159 0
-7140 7159 0
-1568 -7140 7160 0
-7141 7160 0
-1568 -7141 7161 0
-7142 7161 0
-1568 -7142 7162 0
-7143 7162 0
-1568 -7143 7163 0
-7144 7163 0
-1568 -7144 7164 0
-7145 7164 0
-1568 -7145 7165 0
-7146 7165 0
-1568 -7146 7166 0
-7147 7166 0
-1568 -7147 7167 0
-7148 7167 0
-1568 -7148 7168 0
-7149 7168 0
-1568 -7149 7169 0
-7150 7169 0
-1568 -7150 0
-1578 7170 0
-7151 7170 0
-1578 -7151 7171 0
-7152 7171 0
-1578 -7152 7172 0
-7153 7172 0
-1578 -7153 7173 0
-7154 7173 0
-1578 -7154 7174 0
-7155 7174 0
-1578 -7155 7175 0
-7156 7175 0
-1578 -7156 7176 0
-7157 7176 0
-1578 -7157 7177 0
-7158 7177 0
-1578 -7158 7178 0
-7159 7178 0
-1578 -7159 7179 0
-7160 7179 0
-1578 -7160 7180 0
-7161 7180 0
-1578 -7161 7181 0
-7162 7181 0
-1578 -7162 7182 0
-7163 7182 0
-1578 -7163 7183 0
-7164 7183 0
-1578 -7164 7184 0
-7165 7184 0
-1578 -7165 7185 0
-7166 7185 0
-1578 -7166 7186 0
-7167 7186 0
-1578 -7167 7187 0
-7168 7187 0
-1578 -7168 7188 0
-7169 7188 0
-1578 -7169 0
-1578 7189 0
-7170 7189 0
-1578 -7170 7190 0
-7171 7190 0
-1578 -7171 7191 0
-7172 7191 0
-1578 -7172 7192 0
-7173 7192 0
-1578 -7173 7193 0
-7174 7193 0
-1578 -7174 7194 0
-7175 7194 0
-1578 -7175 7195 0
-7176 7195 0
-1578 -7176 7196 0
-7177 7196 0
-1578 -7177 7197 0
-7178 7197 0
-1578 -7178 7198 0
-7179 7198 0
-1578 -7179 7199 0
-7180 7199 0
-1578 -7180 7200 0
-7181 7200 0
-1578 -7181 7201 0
-7182 7201 0
-1578 -7182 7202 0
-7183 7202 0
-1578 -7183 7203 0
-7184 7203 0
-1578 -7184 7204 0
-7185 7204 0
-1578 -7185 7205 0
-7186 7205 0
-1578 -7186 7206 0
-7187 7206 0
-1578 -7187 7207 0
-7188 7207 0
-1578 -7188 0
-1578 7208 0
-7189 7208 0
-1578 -7189 7209 0
-7190 7209 0
-1578 -7190 7210 0
-7191 7210 0
-1578 -7191 7211 0
-7192 7211 0
-1578 -7192 7212 0
-7193 7212 0
-1578 -7193 7213 0
-7194 7213 0
-1578 -7194 7214 0
-7195 7214 0
-1578 -7195 7215 0
-7196 7215 0
-1578 -7196 7216 0
-7197 7216 0
-1578 -7197 7217 0
-7198 7217 0
-1578 -7198 7218 0
-7199 7218 0
-1578 -7199 7219 0
-7200 7219 0
-1578 -7200 7220 0
-7201 7220 0
-1578 -7201 7221 0
-7202 7221 0
-1578 -7202 7222 0
-7203 7222 0
-1578 -7203 7223 0
-7204 7223 0
-1578 -7204 7224 0
-7205 7224 0
-1578 -7205 7225 0
-7206 7225 0
-1578 -7206 7226 0
-7207 7226 0
-1578 -7207 0
-1579 7227 0
-7208 7227 0
-1579 -7208 7228 0
-7209 7228 0
-1579 -7209 7229 0
-7210 7229 0
-1579 -7210 7230 0
-7211 7230 0
-1579 -7211 7231 0
-7212 7231 0
-1579 -7212 7232 0
-7213 7232 0
-1579 -7213 7233 0
-7214 7233 0
-1579 -7214 7234 0
-7215 7234 0
-1579 -7215 7235 0
-7216 7235 0
-1579 -7216 7236 0
-7217 7236 0
-1579 -7217 7237 0
-7218 7237 0
-1579 -7218 7238 0
-7219 7238 0
-1579 -7219 7239 0
-7220 7239 0
-1579 -7220 7240 0
-7221 7240 0
-1579 -7221 7241 0
-7222 7241 0
-1579 -7222 7242 0
-7223 7242 0
-1579 -7223 7243 0
-7224 7243 0
-1579 -7224 7244 0
-7225 7244 0
-1579 -7225 7245 0
-7226 7245 0
-1579 -7226 0
-1579 7246 0
-7227 7246 0
-1579 -7227 7247 0
-7228 7247 0
-1579 -7228 7248 0
-7229 7248 0
-1579 -7229 7249 0
-7230 7249 0
-1579 -7230 7250 0
-7231 7250 0
-1579 -7231 7251 0
-7232 7251 0
-1579 -7232 7252 0
-7233 7252 0
-1579 -7233 7253 0
-7234 7253 0
-1579 -7234 7254 0
-7235 7254 0
-1579 -7235 7255 0
-7236 7255 0
-1579 -7236 7256 0
-7237 7256 0
-1579 -7237 7257 0
-7238 7257 0
-1579 -7238 7258 0
-7239 7258 0
-1579 -7239 7259 0
-7240 7259 0
-1579 -7240 7260 0
-7241 7260 0
-1579 -7241 7261 0
-7242 7261 0
-1579 -7242 7262 0
-7243 7262 0
-1579 -7243 7263 0
-7244 7263 0
-1579 -7244 7264 0
-7245 7264 0
-1579 -7245 0
-1589 7265 0
-7246 7265 0
-1589 -7246 7266 0
-7247 7266 0
-1589 -7247 7267 0
-7248 7267 0
-1589 -7248 7268 0
-7249 7268 0
-1589 -7249 7269 0
-7250 7269 0
-1589 -7250 7270 0
-7251 7270 0
-1589 -7251 7271 0
-7252 7271 0
-1589 -7252 7272 0
-7253 7272 0
-1589 -7253 7273 0
-7254 7273 0
-1589 -7254 7274 0
-7255 7274 0
-1589 -7255 7275 0
-7256 7275 0
-1589 -7256 7276 0
-7257 7276 0
-1589 -7257 7277 0
-7258 7277 0
-1589 -7258 7278 0
-7259 7278 0
-1589 -7259 7279 0
-7260 7279 0
-1589 -7260 7280 0
-7261 7280 0
-1589 -7261 7281 0
-7262 7281 0
-1589 -7262 7282 0
-7263 7282 0
-1589 -7263 7283 0
-7264 7283 0
-1589 -7264 0
-1589 7284 0
-7265 7284 0
-1589 -7265 7285 0
-7266 7285 0
-1589 -7266 7286 0
-7267 7286 0
-1589 -7267 7287 0
-7268 7287 0
-1589 -7268 7288 0
-7269 7288 0
-1589 -7269 7289 0
-7270 7289 0
-1589 -7270 7290 0
-7271 7290 0
-1589 -7271 7291 0
-7272 7291 0
-1589 -7272 7292 0
-7273 7292 0
-1589 -7273 7293 0
-7274 7293 0
-1589 -7274 7294 0
-7275 7294 0
-1589 -7275 7295 0
-7276 7295 0
-1589 -7276 7296 0
-7277 7296 0
-1589 -7277 7297 0
-7278 7297 0
-1589 -7278 7298 0
-7279 7298 0
-1589 -7279 7299 0
-7280 7299 0
-1589 -7280 7300 0
-7281 7300 0
-1589 -7281 7301 0
-7282 7301 0
-1589 -7282 7302 0
-7283 7302 0
-1589 -7283 0
-1589 7303 0
-7284 7303 0
-1589 -7284 7304 0
-7285 7304 0
-1589 -7285 7305 0
-7286 7305 0
-1589 -7286 7306 0
-7287 7306 0
-1589 -7287 7307 0
-7288 7307 0
-1589 -7288 7308 0
-7289 7308 0
-1589 -7289 7309 0
-7290 7309 0
-1589 -7290 7310 0
-7291 7310 0
-1589 -7291 7311 0
-7292 7311 0
-1589 -7292 7312 0
-7293 7312 0
-1589 -7293 7313 0
-7294 7313 0
-1589 -7294 7314 0
-7295 7314 0
-1589 -7295 7315 0
-7296 7315 0
-1589 -7296 7316 0
-7297 7316 0
-1589 -7297 7317 0
-7298 7317 0
-1589 -7298 7318 0
-7299 7318 0
-1589 -7299 7319 0
-7300 7319 0
-1589 -7300 7320 0
-7301 7320 0
-1589 -7301 7321 0
-7302 7321 0
-1589 -7302 0
-1590 7322 0
-7303 7322 0
-1590 -7303 7323 0
-7304 7323 0
-1590 -7304 7324 0
-7305 7324 0
-1590 -7305 7325 0
-7306 7325 0
-1590 -7306 7326 0
-7307 7326 0
-1590 -7307 7327 0
-7308 7327 0
-1590 -7308 7328 0
-7309 7328 0
-1590 -7309 7329 0
-7310 7329 0
-1590 -7310 7330 0
-7311 7330 0
-1590 -7311 7331 0
-7312 7331 0
-1590 -7312 7332 0
-7313 7332 0
-1590 -7313 7333 0
-7314 7333 0
-1590 -7314 7334 0
-7315 7334 0
-1590 -7315 7335 0
-7316 7335 0
-1590 -7316 7336 0
-7317 7336 0
-1590 -7317 7337 0
-7318 7337 0
-1590 -7318 7338 0
-7319 7338 0
-1590 -7319 7339 0
-7320 7339 0
-1590 -7320 7340 0
-7321 7340 0
-1590 -7321 0
-1590 7341 0
-7322 7341 0
-1590 -7322 7342 0
-7323 7342 0
-1590 -7323 7343 0
-7324 7343 0
-1590 -7324 7344 0
-7325 7344 0
-1590 -7325 7345 0
-7326 7345 0
-1590 -7326 7346 0
-7327 7346 0
-1590 -7327 7347 0
-7328 7347 0
-1590 -7328 7348 0
-7329 7348 0
-1590 -7329 7349 0
-7330 7349 0
-1590 -7330 7350 0
-7331 7350 0
-1590 -7331 7351 0
-7332 7351 0
-1590 -7332 7352 0
-7333 7352 0
-1590 -7333 7353 0
-7334 7353 0
-1590 -7334 7354 0
-7335 7354 0
-1590 -7335 7355 0
-7336 7355 0
-1590 -7336 7356 0
-7337 7356 0
-1590 -7337 7357 0
-7338 7357 0
-1590 -7338 7358 0
-7339 7358 0
-1590 -7339 7359 0
-7340 7359 0
-1590 -7340 0
-1600 7360 0
-7341 7360 0
-1600 -7341 7361 0
-7342 7361 0
-1600 -7342 7362 0
-7343 7362 0
-1600 -7343 7363 0
-7344 7363 0
-1600 -7344 7364 0
-7345 7364 0
-1600 -7345 7365 0
-7346 7365 0
-1600 -7346 7366 0
-7347 7366 0
-1600 -7347 7367 0
-7348 7367 0
-1600 -7348 7368 0
-7349 7368 0
-1600 -7349 7369 0
-7350 7369 0
-1600 -7350 7370 0
-7351 7370 0
-1600 -7351 7371 0
-7352 7371 0
-1600 -7352 7372 0
-7353 7372 0
-1600 -7353 7373 0
-7354 7373 0
-1600 -7354 7374 0
-7355 7374 0
-1600 -7355 7375 0
-7356 7375 0
-1600 -7356 7376 0
-7357 7376 0
-1600 -7357 7377 0
-7358 7377 0
-1600 -7358 7378 0
-7359 7378 0
-1600 -7359 0
-1600 7379 0
-7360 7379 0
-1600 -7360 7380 0
-7361 7380 0
-1600 -7361 7381 0
-7362 7381 0
-1600 -7362 7382 0
-7363 7382 0
-1600 -7363 7383 0
-7364 7383 0
-1600 -7364 7384 0
-7365 7384 0
-1600 -7365 7385 0
-7366 7385 0
-1600 -7366 7386 0
-7367 7386 0
-1600 -7367 7387 0
-7368 7387 0
-1600 -7368 7388 0
-7369 7388 0
-1600 -7369 7389 0
-7370 7389 0
-1600 -7370 7390 0
-7371 7390 0
-1600 -7371 7391 0
-7372 7391 0
-1600 -7372 7392 0
-7373 7392 0
-1600 -7373 7393 0
-7374 7393 0
-1600 -7374 7394 0
-7375 7394 0
-1600 -7375 7395 0
-7376 7395 0
-1600 -7376 7396 0
-7377 7396 0
-1600 -7377 7397 0
-7378 7397 0
-1600 -7378 0
-1600 7398 0
-7379 7398 0
-1600 -7379 7399 0
-7380 7399 0
-1600 -7380 7400 0
-7381 7400 0
-1600 -7381 7401 0
-7382 7401 0
-1600 -7382 7402 0
-7383 7402 0
-1600 -7383 7403 0
-7384 7403 0
-1600 -7384 7404 0
-7385 7404 0
-1600 -7385 7405 0
-7386 7405 0
-1600 -7386 7406 0
-7387 7406 0
-1600 -7387 7407 0
-7388 7407 0
-1600 -7388 7408 0
-7389 7408 0
-1600 -7389 7409 0
-7390 7409 0
-1600 -7390 7410 0
-7391 7410 0
-1600 -7391 7411 0
-7392 7411 0
-1600 -7392 7412 0
-7393 7412 0
-1600 -7393 7413 0
-7394 7413 0
-1600 -7394 7414 0
-7395 7414 0
-1600 -7395 7415 0
-7396 7415 0
-1600 -7396 7416 0
-7397 7416 0
-1600 -7397 0
-1601 7417 0
-7398 7417 0
-1601 -7398 7418 0
-7399 7418 0
-1601 -7399 7419 0
-7400 7419 0
-1601 -7400 7420 0
-7401 7420 0
-1601 -7401 7421 0
-7402 7421 0
-1601 -7402 7422 0
-7403 7422 0
-1601 -7403 7423 0
-7404 7423 0
-1601 -7404 7424 0
-7405 7424 0
-1601 -7405 7425 0
-7406 7425 0
-1601 -7406 7426 0
-7407 7426 0
-1601 -7407 7427 0
-7408 7427 0
-1601 -7408 7428 0
-7409 7428 0
-1601 -7409 7429 0
-7410 7429 0
-1601 -7410 7430 0
-7411 7430 0
-1601 -7411 7431 0
-7412 7431 0
-1601 -7412 7432 0
-7413 7432 0
-1601 -7413 7433 0
-7414 7433 0
-1601 -7414 7434 0
-7415 7434 0
-1601 -7415 7435 0
-7416 7435 0
-1601 -7416 0
-1601 7436 0
-7417 7436 0
-1601 -7417 7437 0
-7418 7437 0
-1601 -7418 7438 0
-7419 7438 0
-1601 -7419 7439 0
-7420 7439 0
-1601 -7420 7440 0
-7421 7440 0
-1601 -7421 7441 0
-7422 7441 0
-1601 -7422 7442 0
-7423 7442 0
-1601 -7423 7443 0
-7424 7443 0
-1601 -7424 7444 0
-7425 7444 0
-1601 -7425 7445 0
-7426 7445 0
-1601 -7426 7446 0
-7427 7446 0
-1601 -7427 7447 0
-7428 7447 0
-1601 -7428 7448 0
-7429 7448 0
-1601 -7429 7449 0
-7430 7449 0
-1601 -7430 7450 0
-7431 7450 0
-1601 -7431 7451 0
-7432 7451 0
-1601 -7432 7452 0
-7433 7452 0
-1601 -7433 7453 0
-7434 7453 0
-1601 -7434 7454 0
-7435 7454 0
-1601 -7435 0
-1611 7455 0
-7436 7455 0
-1611 -7436 7456 0
-7437 7456 0
-1611 -7437 7457 0
-7438 7457 0
-1611 -7438 7458 0
-7439 7458 0
-1611 -7439 7459 0
-7440 7459 0
-1611 -7440 7460 0
-7441 7460 0
-1611 -7441 7461 0
-7442 7461 0
-1611 -7442 7462 0
-7443 7462 0
-1611 -7443 7463 0
-7444 7463 0
-1611 -7444 7464 0
-7445 7464 0
-1611 -7445 7465 0
-7446 7465 0
-1611 -7446 7466 0
-7447 7466 0
-1611 -7447 7467 0
-7448 7467 0
-1611 -7448 7468 0
-7449 7468 0
-1611 -7449 7469 0
-7450 7469 0
-1611 -7450 7470 0
-7451 7470 0
-1611 -7451 7471 0
-7452 7471 0
-1611 -7452 7472 0
-7453 7472 0
-1611 -7453 7473 0
-7454 7473 0
-1611 -7454 0
-1611 7474 0
-7455 7474 0
-1611 -7455 7475 0
-7456 7475 0
-1611 -7456 7476 0
-7457 7476 0
-1611 -7457 7477 0
-7458 7477 0
-1611 -7458 7478 0
-7459 7478 0
-1611 -7459 7479 0
-7460 7479 0
-1611 -7460 7480 0
-7461 7480 0
-1611 -7461 7481 0
-7462 7481 0
-1611 -7462 7482 0
-7463 7482 0
-1611 -7463 7483 0
-7464 7483 0
-1611 -7464 7484 0
-7465 7484 0
-1611 -7465 7485 0
-7466 7485 0
-1611 -7466 7486 0
-7467 7486 0
-1611 -7467 7487 0
-7468 7487 0
-1611 -7468 7488 0
-7469 7488 0
-1611 -7469 7489 0
-7470 7489 0
-1611 -7470 7490 0
-7471 7490 0
-1611 -7471 7491 0
-7472 7491 0
-1611 -7472 7492 0
-7473 7492 0
-1611 -7473 0
-1611 7493 0
-7474 7493 0
-1611 -7474 7494 0
-7475 7494 0
-1611 -7475 7495 0
-7476 7495 0
-1611 -7476 7496 0
-7477 7496 0
-1611 -7477 7497 0
-7478 7497 0
-1611 -7478 7498 0
-7479 7498 0
-1611 -7479 7499 0
-7480 7499 0
-1611 -7480 7500 0
-7481 7500 0
-1611 -7481 7501 0
-7482 7501 0
-1611 -7482 7502 0
-7483 7502 0
-1611 -7483 7503 0
-7484 7503 0
-1611 -7484 7504 0
-7485 7504 0
-1611 -7485 7505 0
-7486 7505 0
-1611 -7486 7506 0
-7487 7506 0
-1611 -7487 7507 0
-7488 7507 0
-1611 -7488 7508 0
-7489 7508 0
-1611 -7489 7509 0
-7490 7509 0
-1611 -7490 7510 0
-7491 7510 0
-1611 -7491 7511 0
-7492 7511 0
-1611 -7492 0
-1612 7512 0
-7493 7512 0
-1612 -7493 7513 0
-7494 7513 0
-1612 -7494 7514 0
-7495 7514 0
-1612 -7495 7515 0
-7496 7515 0
-1612 -7496 7516 0
-7497 7516 0
-1612 -7497 7517 0
-7498 7517 0
-1612 -7498 7518 0
-7499 7518 0
-1612 -7499 7519 0
-7500 7519 0
-1612 -7500 7520 0
-7501 7520 0
-1612 -7501 7521 0
-7502 7521 0
-1612 -7502 7522 0
-7503 7522 0
-1612 -7503 7523 0
-7504 7523 0
-1612 -7504 7524 0
-7505 7524 0
-1612 -7505 7525 0
-7506 7525 0
-1612 -7506 7526 0
-7507 7526 0
-1612 -7507 7527 0
-7508 7527 0
-1612 -7508 7528 0
-7509 7528 0
-1612 -7509 7529 0
-7510 7529 0
-1612 -7510 7530 0
-7511 7530 0
-1612 -7511 0
-1612 7531 0
-7512 7531 0
-1612 -7512 7532 0
-7513 7532 0
-1612 -7513 7533 0
-7514 7533 0
-1612 -7514 7534 0
-7515 7534 0
-1612 -7515 7535 0
-7516 7535 0
-1612 -7516 7536 0
-7517 7536 0
-1612 -7517 7537 0
-7518 7537 0
-1612 -7518 7538 0
-7519 7538 0
-1612 -7519 7539 0
-7520 7539 0
-1612 -7520 7540 0
-7521 7540 0
-1612 -7521 7541 0
-7522 7541 0
-1612 -7522 7542 0
-7523 7542 0
-1612 -7523 7543 0
-7524 7543 0
-1612 -7524 7544 0
-7525 7544 0
-1612 -7525 7545 0
-7526 7545 0
-1612 -7526 7546 0
-7527 7546 0
-1612 -7527 7547 0
-7528 7547 0
-1612 -7528 7548 0
-7529 7548 0
-1612 -7529 7549 0
-7530 7549 0
-1612 -7530 0
-1622 7550 0
-7531 7550 0
-1622 -7531 7551 0
-7532 7551 0
-1622 -7532 7552 0
-7533 7552 0
-1622 -7533 7553 0
-7534 7553 0
-1622 -7534 7554 0
-7535 7554 0
-1622 -7535 7555 0
-7536 7555 0
-1622 -7536 7556 0
-7537 7556 0
-1622 -7537 7557 0
-7538 7557 0
-1622 -7538 7558 0
-7539 7558 0
-1622 -7539 7559 0
-7540 7559 0
-1622 -7540 7560 0
-7541 7560 0
-1622 -7541 7561 0
-7542 7561 0
-1622 -7542 7562 0
-7543 7562 0
-1622 -7543 7563 0
-7544 7563 0
-1622 -7544 7564 0
-7545 7564 0
-1622 -7545 7565 0
-7546 7565 0
-1622 -7546 7566 0
-7547 7566 0
-1622 -7547 7567 0
-7548 7567 0
-1622 -7548 7568 0
-7549 7568 0
-1622 -7549 0
-1622 7569 0
-7550 7569 0
-1622 -7550 7570 0
-7551 7570 0
-1622 -7551 7571 0
-7552 7571 0
-1622 -7552 7572 0
-7553 7572 0
-1622 -7553 7573 0
-7554 7573 0
-1622 -7554 7574 0
-7555 7574 0
-1622 -7555 7575 0
-7556 7575 0
-1622 -7556 7576 0
-7557 7576 0
-1622 -7557 7577 0
-7558 7577 0
-1622 -7558 7578 0
-7559 7578 0
-1622 -7559 7579 0
-7560 7579 0
-1622 -7560 7580 0
-7561 7580 0
-1622 -7561 7581 0
-7562 7581 0
-1622 -7562 7582 0
-7563 7582 0
-1622 -7563 7583 0
-7564 7583 0
-1622 -7564 7584 0
-7565 7584 0
-1622 -7565 7585 0
-7566 7585 0
-1622 -7566 7586 0
-7567 7586 0
-1622 -7567 7587 0
-7568 7587 0
-1622 -7568 0
-1622 7588 0
-7569 7588 0
-1622 -7569 7589 0
-7570 7589 0
-1622 -7570 7590 0
-7571 7590 0
-1622 -7571 7591 0
-7572 7591 0
-1622 -7572 7592 0
-7573 7592 0
-1622 -7573 7593 0
-7574 7593 0
-1622 -7574 7594 0
-7575 7594 0
-1622 -7575 7595 0
-7576 7595 0
-1622 -7576 7596 0
-7577 7596 0
-1622 -7577 7597 0
-7578 7597 0
-1622 -7578 7598 0
-7579 7598 0
-1622 -7579 7599 0
-7580 7599 0
-1622 -7580 7600 0
-7581 7600 0
-1622 -7581 7601 0
-7582 7601 0
-1622 -7582 7602 0
-7583 7602 0
-1622 -7583 7603 0
-7584 7603 0
-1622 -7584 7604 0
-7585 7604 0
-1622 -7585 7605 0
-7586 7605 0
-1622 -7586 7606 0
-7587 7606 0
-1622 -7587 0
-1623 7607 0
-7588 7607 0
-1623 -7588 7608 0
-7589 7608 0
-1623 -7589 7609 0
-7590 7609 0
-1623 -7590 7610 0
-7591 7610 0
-1623 -7591 7611 0
-7592 7611 0
-1623 -7592 7612 0
-7593 7612 0
-1623 -7593 7613 0
-7594 7613 0
-1623 -7594 7614 0
-7595 7614 0
-1623 -7595 7615 0
-7596 7615 0
-1623 -7596 7616 0
-7597 7616 0
-1623 -7597 7617 0
-7598 7617 0
-1623 -7598 7618 0
-7599 7618 0
-1623 -7599 7619 0
-7600 7619 0
-1623 -7600 7620 0
-7601 7620 0
-1623 -7601 7621 0
-7602 7621 0
-1623 -7602 7622 0
-7603 7622 0
-1623 -7603 7623 0
-7604 7623 0
-1623 -7604 7624 0
-7605 7624 0
-1623 -7605 7625 0
-7606 7625 0
-1623 -7606 0
-1623 7626 0
-7607 7626 0
-1623 -7607 7627 0
-7608 7627 0
-1623 -7608 7628 0
-7609 7628 0
-1623 -7609 7629 0
-7610 7629 0
-1623 -7610 7630 0
-7611 7630 0
-1623 -7611 7631 0
-7612 7631 0
-1623 -7612 7632 0
-7613 7632 0
-1623 -7613 7633 0
-7614 7633 0
-1623 -7614 7634 0
-7615 7634 0
-1623 -7615 7635 0
-7616 7635 0
-1623 -7616 7636 0
-7617 7636 0
-1623 -7617 7637 0
-7618 7637 0
-1623 -7618 7638 0
-7619 7638 0
-1623 -7619 7639 0
-7620 7639 0
-1623 -7620 7640 0
-7621 7640 0
-1623 -7621 7641 0
-7622 7641 0
-1623 -7622 7642 0
-7623 7642 0
-1623 -7623 7643 0
-7624 7643 0
-1623 -7624 7644 0
-7625 7644 0
-1623 -7625 0
-1633 7645 0
-7626 7645 0
-1633 -7626 7646 0
-7627 7646 0
-1633 -7627 7647 0
-7628 7647 0
-1633 -7628 7648 0
-7629 7648 0
-1633 -7629 7649 0
-7630 7649 0
-1633 -7630 7650 0
-7631 7650 0
-1633 -7631 7651 0
-7632 7651 0
-1633 -7632 7652 0
-7633 7652 0
-1633 -7633 7653 0
-7634 7653 0
-1633 -7634 7654 0
-7635 7654 0
-1633 -7635 7655 0
-7636 7655 0
-1633 -7636 7656 0
-7637 7656 0
-1633 -7637 7657 0
-7638 7657 0
-1633 -7638 7658 0
-7639 7658 0
-1633 -7639 7659 0
-7640 7659 0
-1633 -7640 7660 0
-7641 7660 0
-1633 -7641 7661 0
-7642 7661 0
-1633 -7642 7662 0
-7643 7662 0
-1633 -7643 7663 0
-7644 7663 0
-1633 -7644 0
-1633 7664 0
-7645 7664 0
-1633 -7645 7665 0
-7646 7665 0
-1633 -7646 7666 0
-7647 7666 0
-1633 -7647 7667 0
-7648 7667 0
-1633 -7648 7668 0
-7649 7668 0
-1633 -7649 7669 0
-7650 7669 0
-1633 -7650 7670 0
-7651 7670 0
-1633 -7651 7671 0
-7652 7671 0
-1633 -7652 7672 0
-7653 7672 0
-1633 -7653 7673 0
-7654 7673 0
-1633 -7654 7674 0
-7655 7674 0
-1633 -7655 7675 0
-7656 7675 0
-1633 -7656 7676 0
-7657 7676 0
-1633 -7657 7677 0
-7658 7677 0
-1633 -7658 7678 0
-7659 7678 0
-1633 -7659 7679 0
-7660 7679 0
-1633 -7660 7680 0
-7661 7680 0
-1633 -7661 7681 0
-7662 7681 0
-1633 -7662 7682 0
-7663 7682 0
-1633 -7663 0
-1633 7683 0
-7664 7683 0
-1633 -7664 7684 0
-7665 7684 0
-1633 -7665 7685 0
-7666 7685 0
-1633 -7666 7686 0
-7667 7686 0
-1633 -7667 7687 0
-7668 7687 0
-1633 -7668 7688 0
-7669 7688 0
-1633 -7669 7689 0
-7670 7689 0
-1633 -7670 7690 0
-7671 7690 0
-1633 -7671 7691 0
-7672 7691 0
-1633 -7672 7692 0
-7673 7692 0
-1633 -7673 7693 0
-7674 7693 0
-1633 -7674 7694 0
-7675 7694 0
-1633 -7675 7695 0
-7676 7695 0
-1633 -7676 7696 0
-7677 7696 0
-1633 -7677 7697 0
-7678 7697 0
-1633 -7678 7698 0
-7679 7698 0
-1633 -7679 7699 0
-7680 7699 0
-1633 -7680 7700 0
-7681 7700 0
-1633 -7681 7701 0
-7682 7701 0
-1633 -7682 0
-1634 7702 0
-7683 7702 0
-1634 -7683 7703 0
-7684 7703 0
-1634 -7684 7704 0
-7685 7704 0
-1634 -7685 7705 0
-7686 7705 0
-1634 -7686 7706 0
-7687 7706 0
-1634 -7687 7707 0
-7688 7707 0
-1634 -7688 7708 0
-7689 7708 0
-1634 -7689 7709 0
-7690 7709 0
-1634 -7690 7710 0
-7691 7710 0
-1634 -7691 7711 0
-7692 7711 0
-1634 -7692 7712 0
-7693 7712 0
-1634 -7693 7713 0
-7694 7713 0
-1634 -7694 7714 0
-7695 7714 0
-1634 -7695 7715 0
-7696 7715 0
-1634 -7696 7716 0
-7697 7716 0
-1634 -7697 7717 0
-7698 7717 0
-1634 -7698 7718 0
-7699 7718 0
-1634 -7699 7719 0
-7700 7719 0
-1634 -7700 7720 0
-7701 7720 0
-1634 -7701 0
-1634 7721 0
-7702 7721 0
-1634 -7702 7722 0
-7703 7722 0
-1634 -7703 7723 0
-7704 7723 0
-1634 -7704 7724 0
-7705 7724 0
-1634 -7705 7725 0
-7706 7725 0
-1634 -7706 7726 0
-7707 7726 0
-1634 -7707 7727 0
-7708 7727 0
-1634 -7708 7728 0
-7709 7728 0
-1634 -7709 7729 0
-7710 7729 0
-1634 -7710 7730 0
-7711 7730 0
-1634 -7711 7731 0
-7712 7731 0
-1634 -7712 7732 0
-7713 7732 0
-1634 -7713 7733 0
-7714 7733 0
-1634 -7714 7734 0
-7715 7734 0
-1634 -7715 7735 0
-7716 7735 0
-1634 -7716 7736 0
-7717 7736 0
-1634 -7717 7737 0
-7718 7737 0
-1634 -7718 7738 0
-7719 7738 0
-1634 -7719 7739 0
-7720 7739 0
-1634 -7720 0
-1644 7740 0
-7721 7740 0
-1644 -7721 7741 0
-7722 7741 0
-1644 -7722 7742 0
-7723 7742 0
-1644 -7723 7743 0
-7724 7743 0
-1644 -7724 7744 0
-7725 7744 0
-1644 -7725 7745 0
-7726 7745 0
-1644 -7726 7746 0
-7727 7746 0
-1644 -7727 7747 0
-7728 7747 0
-1644 -7728 7748 0
-7729 7748 0
-1644 -7729 7749 0
-7730 7749 0
-1644 -7730 7750 0
-7731 7750 0
-1644 -7731 7751 0
-7732 7751 0
-1644 -7732 7752 0
-7733 7752 0
-1644 -7733 7753 0
-7734 7753 0
-1644 -7734 7754 0
-7735 7754 0
-1644 -7735 7755 0
-7736 7755 0
-1644 -7736 7756 0
-7737 7756 0
-1644 -7737 7757 0
-7738 7757 0
-1644 -7738 7758 0
-7739 7758 0
-1644 -7739 0
-1644 7759 0
-7740 7759 0
-1644 -7740 7760 0
-7741 7760 0
-1644 -7741 7761 0
-7742 7761 0
-1644 -7742 7762 0
-7743 7762 0
-1644 -7743 7763 0
-7744 7763 0
-1644 -7744 7764 0
-7745 7764 0
-1644 -7745 7765 0
-7746 7765 0
-1644 -7746 7766 0
-7747 7766 0
-1644 -7747 7767 0
-7748 7767 0
-1644 -7748 7768 0
-7749 7768 0
-1644 -7749 7769 0
-7750 7769 0
-1644 -7750 7770 0
-7751 7770 0
-1644 -7751 7771 0
-7752 7771 0
-1644 -7752 7772 0
-7753 7772 0
-1644 -7753 7773 0
-7754 7773 0
-1644 -7754 7774 0
-7755 7774 0
-1644 -7755 7775 0
-7756 7775 0
-1644 -7756 7776 0
-7757 7776 0
-1644 -7757 7777 0
-7758 7777 0
-1644 -7758 0
-1644 7778 0
-7759 7778 0
-1644 -7759 7779 0
-7760 7779 0
-1644 -7760 7780 0
-7761 7780 0
-1644 -7761 7781 0
-7762 7781 0
-1644 -7762 7782 0
-7763 7782 0
-1644 -7763 7783 0
-7764 7783 0
-1644 -7764 7784 0
-7765 7784 0
-1644 -7765 7785 0
-7766 7785 0
-1644 -7766 7786 0
-7767 7786 0
-1644 -7767 7787 0
-7768 7787 0
-1644 -7768 7788 0
-7769 7788 0
-1644 -7769 7789 0
-7770 7789 0
-1644 -7770 7790 0
-7771 7790 0
-1644 -7771 7791 0
-7772 7791 0
-1644 -7772 7792 0
-7773 7792 0
-1644 -7773 7793 0
-7774 7793 0
-1644 -7774 7794 0
-7775 7794 0
-1644 -7775 7795 0
-7776 7795 0
-1644 -7776 7796 0
-7777 7796 0
-1644 -7777 0
-1645 7797 0
-7778 7797 0
-1645 -7778 7798 0
-7779 7798 0
-1645 -7779 7799 0
-7780 7799 0
-1645 -7780 7800 0
-7781 7800 0
-1645 -7781 7801 0
-7782 7801 0
-1645 -7782 7802 0
-7783 7802 0
-1645 -7783 7803 0
-7784 7803 0
-1645 -7784 7804 0
-7785 7804 0
-1645 -7785 7805 0
-7786 7805 0
-1645 -7786 7806 0
-7787 7806 0
-1645 -7787 7807 0
-7788 7807 0
-1645 -7788 7808 0
-7789 7808 0
-1645 -7789 7809 0
-7790 7809 0
-1645 -7790 7810 0
-7791 7810 0
-1645 -7791 7811 0
-7792 7811 0
-1645 -7792 7812 0
-7793 7812 0
-1645 -7793 7813 0
-7794 7813 0
-1645 -7794 7814 0
-7795 7814 0
-1645 -7795 7815 0
-7796 7815 0
-1645 -7796 0
-1645 7816 0
-7797 7816 0
-1645 -7797 7817 0
-7798 7817 0
-1645 -7798 7818 0
-7799 7818 0
-1645 -7799 7819 0
-7800 7819 0
-1645 -7800 7820 0
-7801 7820 0
-1645 -7801 7821 0
-7802 7821 0
-1645 -7802 7822 0
-7803 7822 0
-1645 -7803 7823 0
-7804 7823 0
-1645 -7804 7824 0
-7805 7824 0
-1645 -7805 7825 0
-7806 7825 0
-1645 -7806 7826 0
-7807 7826 0
-1645 -7807 7827 0
-7808 7827 0
-1645 -7808 7828 0
-7809 7828 0
-1645 -7809 7829 0
-7810 7829 0
-1645 -7810 7830 0
-7811 7830 0
-1645 -7811 7831 0
-7812 7831 0
-1645 -7812 7832 0
-7813 7832 0
-1645 -7813 7833 0
-7814 7833 0
-1645 -7814 7834 0
-7815 7834 0
-1645 -7815 0
-1655 7835 0
-7816 7835 0
-1655 -7816 7836 0
-7817 7836 0
-1655 -7817 7837 0
-7818 7837 0
-1655 -7818 7838 0
-7819 7838 0
-1655 -7819 7839 0
-7820 7839 0
-1655 -7820 7840 0
-7821 7840 0
-1655 -7821 7841 0
-7822 7841 0
-1655 -7822 7842 0
-7823 7842 0
-1655 -7823 7843 0
-7824 7843 0
-1655 -7824 7844 0
-7825 7844 0
-1655 -7825 7845 0
-7826 7845 0
-1655 -7826 7846 0
-7827 7846 0
-1655 -7827 7847 0
-7828 7847 0
-1655 -7828 7848 0
-7829 7848 0
-1655 -7829 7849 0
-7830 7849 0
-1655 -7830 7850 0
-7831 7850 0
-1655 -7831 7851 0
-7832 7851 0
-1655 -7832 7852 0
-7833 7852 0
-1655 -7833 7853 0
-7834 7853 0
-1655 -7834 0
-1655 7854 0
-7835 7854 0
-1655 -7835 7855 0
-7836 7855 0
-1655 -7836 7856 0
-7837 7856 0
-1655 -7837 7857 0
-7838 7857 0
-1655 -7838 7858 0
-7839 7858 0
-1655 -7839 7859 0
-7840 7859 0
-1655 -7840 7860 0
-7841 7860 0
-1655 -7841 7861 0
-7842 7861 0
-1655 -7842 7862 0
-7843 7862 0
-1655 -7843 7863 0
-7844 7863 0
-1655 -7844 7864 0
-7845 7864 0
-1655 -7845 7865 0
-7846 7865 0
-1655 -7846 7866 0
-7847 7866 0
-1655 -7847 7867 0
-7848 7867 0
-1655 -7848 7868 0
-7849 7868 0
-1655 -7849 7869 0
-7850 7869 0
-1655 -7850 7870 0
-7851 7870 0
-1655 -7851 7871 0
-7852 7871 0
-1655 -7852 7872 0
-7853 7872 0
-1655 -7853 0
-1655 7873 0
-7854 7873 0
-1655 -7854 7874 0
-7855 7874 0
-1655 -7855 7875 0
-7856 7875 0
-1655 -7856 7876 0
-7857 7876 0
-1655 -7857 7877 0
-7858 7877 0
-1655 -7858 7878 0
-7859 7878 0
-1655 -7859 7879 0
-7860 7879 0
-1655 -7860 7880 0
-7861 7880 0
-1655 -7861 7881 0
-7862 7881 0
-1655 -7862 7882 0
-7863 7882 0
-1655 -7863 7883 0
-7864 7883 0
-1655 -7864 7884 0
-7865 7884 0
-1655 -7865 7885 0
-7866 7885 0
-1655 -7866 7886 0
-7867 7886 0
-1655 -7867 7887 0
-7868 7887 0
-1655 -7868 7888 0
-7869 7888 0
-1655 -7869 7889 0
-7870 7889 0
-1655 -7870 7890 0
-7871 7890 0
-1655 -7871 7891 0
-7872 7891 0
-1655 -7872 0
-1656 7892 0
-7873 7892 0
-1656 -7873 7893 0
-7874 7893 0
-1656 -7874 7894 0
-7875 7894 0
-1656 -7875 7895 0
-7876 7895 0
-1656 -7876 7896 0
-7877 7896 0
-1656 -7877 7897 0
-7878 7897 0
-1656 -7878 7898 0
-7879 7898 0
-1656 -7879 7899 0
-7880 7899 0
-1656 -7880 7900 0
-7881 7900 0
-1656 -7881 7901 0
-7882 7901 0
-1656 -7882 7902 0
-7883 7902 0
-1656 -7883 7903 0
-7884 7903 0
-1656 -7884 7904 0
-7885 7904 0
-1656 -7885 7905 0
-7886 7905 0
-1656 -7886 7906 0
-7887 7906 0
-1656 -7887 7907 0
-7888 7907 0
-1656 -7888 7908 0
-7889 7908 0
-1656 -7889 7909 0
-7890 7909 0
-1656 -7890 7910 0
-7891 7910 0
-1656 -7891 0
-1656 7911 0
-7892 7911 0
-1656 -7892 7912 0
-7893 7912 0
-1656 -7893 7913 0
-7894 7913 0
-1656 -7894 7914 0
-7895 7914 0
-1656 -7895 7915 0
-7896 7915 0
-1656 -7896 7916 0
-7897 7916 0
-1656 -7897 7917 0
-7898 7917 0
-1656 -7898 7918 0
-7899 7918 0
-1656 -7899 7919 0
-7900 7919 0
-1656 -7900 7920 0
-7901 7920 0
-1656 -7901 7921 0
-7902 7921 0
-1656 -7902 7922 0
-7903 7922 0
-1656 -7903 7923 0
-7904 7923 0
-1656 -7904 7924 0
-7905 7924 0
-1656 -7905 7925 0
-7906 7925 0
-1656 -7906 7926 0
-7907 7926 0
-1656 -7907 7927 0
-7908 7927 0
-1656 -7908 7928 0
-7909 7928 0
-1656 -7909 7929 0
-7910 7929 0
-1656 -7910 0
-1666 7930 0
-7911 7930 0
-1666 -7911 7931 0
-7912 7931 0
-1666 -7912 7932 0
-7913 7932 0
-1666 -7913 7933 0
-7914 7933 0
-1666 -7914 7934 0
-7915 7934 0
-1666 -7915 7935 0
-7916 7935 0
-1666 -7916 7936 0
-7917 7936 0
-1666 -7917 7937 0
-7918 7937 0
-1666 -7918 7938 0
-7919 7938 0
-1666 -7919 7939 0
-7920 7939 0
-1666 -7920 7940 0
-7921 7940 0
-1666 -7921 7941 0
-7922 7941 0
-1666 -7922 7942 0
-7923 7942 0
-1666 -7923 7943 0
-7924 7943 0
-1666 -7924 7944 0
-7925 7944 0
-1666 -7925 7945 0
-7926 7945 0
-1666 -7926 7946 0
-7927 7946 0
-1666 -7927 7947 0
-7928 7947 0
-1666 -7928 7948 0
-7929 7948 0
-1666 -7929 0
-1666 7949 0
-7930 7949 0
-1666 -7930 7950 0
-7931 7950 0
-1666 -7931 7951 0
-7932 7951 0
-1666 -7932 7952 0
-7933 7952 0
-1666 -7933 7953 0
-7934 7953 0
-1666 -7934 7954 0
-7935 7954 0
-1666 -7935 7955 0
-7936 7955 0
-1666 -7936 7956 0
-7937 7956 0
-1666 -7937 7957 0
-7938 7957 0
-1666 -7938 7958 0
-7939 7958 0
-1666 -7939 7959 0
-7940 7959 0
-1666 -7940 7960 0
-7941 7960 0
-1666 -7941 7961 0
-7942 7961 0
-1666 -7942 7962 0
-7943 7962 0
-1666 -7943 7963 0
-7944 7963 0
-1666 -7944 7964 0
-7945 7964 0
-1666 -7945 7965 0
-7946 7965 0
-1666 -7946 7966 0
-7947 7966 0
-1666 -7947 7967 0
-7948 7967 0
-1666 -7948 0
-1666 7968 0
-7949 7968 0
-1666 -7949 7969 0
-7950 7969 0
-1666 -7950 7970 0
-7951 7970 0
-1666 -7951 7971 0
-7952 7971 0
-1666 -7952 7972 0
-7953 7972 0
-1666 -7953 7973 0
-7954 7973 0
-1666 -7954 7974 0
-7955 7974 0
-1666 -7955 7975 0
-7956 7975 0
-1666 -7956 7976 0
-7957 7976 0
-1666 -7957 7977 0
-7958 7977 0
-1666 -7958 7978 0
-7959 7978 0
-1666 -7959 7979 0
-7960 7979 0
-1666 -7960 7980 0
-7961 7980 0
-1666 -7961 7981 0
-7962 7981 0
-1666 -7962 7982 0
-7963 7982 0
-1666 -7963 7983 0
-7964 7983 0
-1666 -7964 7984 0
-7965 7984 0
-1666 -7965 7985 0
-7966 7985 0
-1666 -7966 7986 0
-7967 7986 0
-1666 -7967 0
-1667 7987 0
-7968 7987 0
-1667 -7968 7988 0
-7969 7988 0
-1667 -7969 7989 0
-7970 7989 0
-1667 -7970 7990 0
-7971 7990 0
-1667 -7971 7991 0
-7972 7991 0
-1667 -7972 7992 0
-7973 7992 0
-1667 -7973 7993 0
-7974 7993 0
-1667 -7974 7994 0
-7975 7994 0
-1667 -7975 7995 0
-7976 7995 0
-1667 -7976 7996 0
-7977 7996 0
-1667 -7977 7997 0
-7978 7997 0
-1667 -7978 7998 0
-7979 7998 0
-1667 -7979 7999 0
-7980 7999 0
-1667 -7980 8000 0
-7981 8000 0
-1667 -7981 8001 0
-7982 8001 0
-1667 -7982 8002 0
-7983 8002 0
-1667 -7983 8003 0
-7984 8003 0
-1667 -7984 8004 0
-7985 8004 0
-1667 -7985 8005 0
-7986 8005 0
-1667 -7986 0
-1667 8006 0
-7987 8006 0
-1667 -7987 8007 0
-7988 8007 0
-1667 -7988 8008 0
-7989 8008 0
-1667 -7989 8009 0
-7990 8009 0
-1667 -7990 8010 0
-7991 8010 0
-1667 -7991 8011 0
-7992 8011 0
-1667 -7992 8012 0
-7993 8012 0
-1667 -7993 8013 0
-7994 8013 0
-1667 -7994 8014 0
-7995 8014 0
-1667 -7995 8015 0
-7996 8015 0
-1667 -7996 8016 0
-7997 8016 0
-1667 -7997 8017 0
-7998 8017 0
-1667 -7998 8018 0
-7999 8018 0
-1667 -7999 8019 0
-8000 8019 0
-1667 -8000 8020 0
-8001 8020 0
-1667 -8001 8021 0
-8002 8021 0
-1667 -8002 8022 0
-8003 8022 0
-1667 -8003 8023 0
-8004 8023 0
-1667 -8004 8024 0
-8005 8024 0
-1667 -8005 0
-1677 8025 0
-8006 8025 0
-1677 -8006 8026 0
-8007 8026 0
-1677 -8007 8027 0
-8008 8027 0
-1677 -8008 8028 0
-8009 8028 0
-1677 -8009 8029 0
-8010 8029 0
-1677 -8010 8030 0
-8011 8030 0
-1677 -8011 8031 0
-8012 8031 0
-1677 -8012 8032 0
-8013 8032 0
-1677 -8013 8033 0
-8014 8033 0
-1677 -8014 8034 0
-8015 8034 0
-1677 -8015 8035 0
-8016 8035 0
-1677 -8016 8036 0
-8017 8036 0
-1677 -8017 8037 0
-8018 8037 0
-1677 -8018 8038 0
-8019 8038 0
-1677 -8019 8039 0
-8020 8039 0
-1677 -8020 8040 0
-8021 8040 0
-1677 -8021 8041 0
-8022 8041 0
-1677 -8022 8042 0
-8023 8042 0
-1677 -8023 8043 0
-8024 8043 0
-1677 -8024 0
-1677 8044 0
-8025 8044 0
-1677 -8025 8045 0
-8026 8045 0
-1677 -8026 8046 0
-8027 8046 0
-1677 -8027 8047 0
-8028 8047 0
-1677 -8028 8048 0
-8029 8048 0
-1677 -8029 8049 0
-8030 8049 0
-1677 -8030 8050 0
-8031 8050 0
-1677 -8031 8051 0
-8032 8051 0
-1677 -8032 8052 0
-8033 8052 0
-1677 -8033 8053 0
-8034 8053 0
-1677 -8034 8054 0
-8035 8054 0
-1677 -8035 8055 0
-8036 8055 0
-1677 -8036 8056 0
-8037 8056 0
-1677 -8037 8057 0
-8038 8057 0
-1677 -8038 8058 0
-8039 8058 0
-1677 -8039 8059 0
-8040 8059 0
-1677 -8040 8060 0
-8041 8060 0
-1677 -8041 8061 0
-8042 8061 0
-1677 -8042 8062 0
-8043 8062 0
-1677 -8043 0
-1677 8063 0
-8044 8063 0
-1677 -8044 8064 0
-8045 8064 0
-1677 -8045 8065 0
-8046 8065 0
-1677 -8046 8066 0
-8047 8066 0
-1677 -8047 8067 0
-8048 8067 0
-1677 -8048 8068 0
-8049 8068 0
-1677 -8049 8069 0
-8050 8069 0
-1677 -8050 8070 0
-8051 8070 0
-1677 -8051 8071 0
-8052 8071 0
-1677 -8052 8072 0
-8053 8072 0
-1677 -8053 8073 0
-8054 8073 0
-1677 -8054 8074 0
-8055 8074 0
-1677 -8055 8075 0
-8056 8075 0
-1677 -8056 8076 0
-8057 8076 0
-1677 -8057 8077 0
-8058 8077 0
-1677 -8058 8078 0
-8059 8078 0
-1677 -8059 8079 0
-8060 8079 0
-1677 -8060 8080 0
-8061 8080 0
-1677 -8061 8081 0
-8062 8081 0
-1677 -8062 0
-1678 8082 0
-8063 8082 0
-1678 -8063 8083 0
-8064 8083 0
-1678 -8064 8084 0
-8065 8084 0
-1678 -8065 8085 0
-8066 8085 0
-1678 -8066 8086 0
-8067 8086 0
-1678 -8067 8087 0
-8068 8087 0
-1678 -8068 8088 0
-8069 8088 0
-1678 -8069 8089 0
-8070 8089 0
-1678 -8070 8090 0
-8071 8090 0
-1678 -8071 8091 0
-8072 8091 0
-1678 -8072 8092 0
-8073 8092 0
-1678 -8073 8093 0
-8074 8093 0
-1678 -8074 8094 0
-8075 8094 0
-1678 -8075 8095 0
-8076 8095 0
-1678 -8076 8096 0
-8077 8096 0
-1678 -8077 8097 0
-8078 8097 0
-1678 -8078 8098 0
-8079 8098 0
-1678 -8079 8099 0
-8080 8099 0
-1678 -8080 8100 0
-8081 8100 0
-1678 -8081 0
-1678 8101 0
-8082 8101 0
-1678 -8082 8102 0
-8083 8102 0
-1678 -8083 8103 0
-8084 8103 0
-1678 -8084 8104 0
-8085 8104 0
-1678 -8085 8105 0
-8086 8105 0
-1678 -8086 8106 0
-8087 8106 0
-1678 -8087 8107 0
-8088 8107 0
-1678 -8088 8108 0
-8089 8108 0
-1678 -8089 8109 0
-8090 8109 0
-1678 -8090 8110 0
-8091 8110 0
-1678 -8091 8111 0
-8092 8111 0
-1678 -8092 8112 0
-8093 8112 0
-1678 -8093 8113 0
-8094 8113 0
-1678 -8094 8114 0
-8095 8114 0
-1678 -8095 8115 0
-8096 8115 0
-1678 -8096 8116 0
-8097 8116 0
-1678 -8097 8117 0
-8098 8117 0
-1678 -8098 8118 0
-8099 8118 0
-1678 -8099 8119 0
-8100 8119 0
-1678 -8100 0
-1688 8120 0
-8101 8120 0
-1688 -8101 8121 0
-8102 8121 0
-1688 -8102 8122 0
-8103 8122 0
-1688 -8103 8123 0
-8104 8123 0
-1688 -8104 8124 0
-8105 8124 0
-1688 -8105 8125 0
-8106 8125 0
-1688 -8106 8126 0
-8107 8126 0
-1688 -8107 8127 0
-8108 8127 0
-1688 -8108 8128 0
-8109 8128 0
-1688 -8109 8129 0
-8110 8129 0
-1688 -8110 8130 0
-8111 8130 0
-1688 -8111 8131 0
-8112 8131 0
-1688 -8112 8132 0
-8113 8132 0
-1688 -8113 8133 0
-8114 8133 0
-1688 -8114 8134 0
-8115 8134 0
-1688 -8115 8135 0
-8116 8135 0
-1688 -8116 8136 0
-8117 8136 0
-1688 -8117 8137 0
-8118 8137 0
-1688 -8118 8138 0
-8119 8138 0
-1688 -8119 0
-1688 8139 0
-8120 8139 0
-1688 -8120 8140 0
-8121 8140 0
-1688 -8121 8141 0
-8122 8141 0
-1688 -8122 8142 0
-8123 8142 0
-1688 -8123 8143 0
-8124 8143 0
-1688 -8124 8144 0
-8125 8144 0
-1688 -8125 8145 0
-8126 8145 0
-1688 -8126 8146 0
-8127 8146 0
-1688 -8127 8147 0
-8128 8147 0
-1688 -8128 8148 0
-8129 8148 0
-1688 -8129 8149 0
-8130 8149 0
-1688 -8130 8150 0
-8131 8150 0
-1688 -8131 8151 0
-8132 8151 0
-1688 -8132 8152 0
-8133 8152 0
-1688 -8133 8153 0
-8134 8153 0
-1688 -8134 8154 0
-8135 8154 0
-1688 -8135 8155 0
-8136 8155 0
-1688 -8136 8156 0
-8137 8156 0
-1688 -8137 8157 0
-8138 8157 0
-1688 -8138 0
-1688 8158 0
-8139 8158 0
-1688 -8139 8159 0
-8140 8159 0
-1688 -8140 8160 0
-8141 8160 0
-1688 -8141 8161 0
-8142 8161 0
-1688 -8142 8162 0
-8143 8162 0
-1688 -8143 8163 0
-8144 8163 0
-1688 -8144 8164 0
-8145 8164 0
-1688 -8145 8165 0
-8146 8165 0
-1688 -8146 8166 0
-8147 8166 0
-1688 -8147 8167 0
-8148 8167 0
-1688 -8148 8168 0
-8149 8168 0
-1688 -8149 8169 0
-8150 8169 0
-1688 -8150 8170 0
-8151 8170 0
-1688 -8151 8171 0
-8152 8171 0
-1688 -8152 8172 0
-8153 8172 0
-1688 -8153 8173 0
-8154 8173 0
-1688 -8154 8174 0
-8155 8174 0
-1688 -8155 8175 0
-8156 8175 0
-1688 -8156 8176 0
-8157 8176 0
-1688 -8157 0
-1689 8177 0
-8158 8177 0
-1689 -8158 8178 0
-8159 8178 0
-1689 -8159 8179 0
-8160 8179 0
-1689 -8160 8180 0
-8161 8180 0
-1689 -8161 8181 0
-8162 8181 0
-1689 -8162 8182 0
-8163 8182 0
-1689 -8163 8183 0
-8164 8183 0
-1689 -8164 8184 0
-8165 8184 0
-1689 -8165 8185 0
-8166 8185 0
-1689 -8166 8186 0
-8167 8186 0
-1689 -8167 8187 0
-8168 8187 0
-1689 -8168 8188 0
-8169 8188 0
-1689 -8169 8189 0
-8170 8189 0
-1689 -8170 8190 0
-8171 8190 0
-1689 -8171 8191 0
-8172 8191 0
-1689 -8172 8192 0
-8173 8192 0
-1689 -8173 8193 0
-8174 8193 0
-1689 -8174 8194 0
-8175 8194 0
-1689 -8175 8195 0
-8176 8195 0
-1689 -8176 0
-1689 8196 0
-8177 8196 0
-1689 -8177 8197 0
-8178 8197 0
-1689 -8178 8198 0
-8179 8198 0
-1689 -8179 8199 0
-8180 8199 0
-1689 -8180 8200 0
-8181 8200 0
-1689 -8181 8201 0
-8182 8201 0
-1689 -8182 8202 0
-8183 8202 0
-1689 -8183 8203 0
-8184 8203 0
-1689 -8184 8204 0
-8185 8204 0
-1689 -8185 8205 0
-8186 8205 0
-1689 -8186 8206 0
-8187 8206 0
-1689 -8187 8207 0
-8188 8207 0
-1689 -8188 8208 0
-8189 8208 0
-1689 -8189 8209 0
-8190 8209 0
-1689 -8190 8210 0
-8191 8210 0
-1689 -8191 8211 0
-8192 8211 0
-1689 -8192 8212 0
-8193 8212 0
-1689 -8193 8213 0
-8194 8213 0
-1689 -8194 8214 0
-8195 8214 0
-1689 -8195 0
-1699 8215 0
-8196 8215 0
-1699 -8196 8216 0
-8197 8216 0
-1699 -8197 8217 0
-8198 8217 0
-1699 -8198 8218 0
-8199 8218 0
-1699 -8199 8219 0
-8200 8219 0
-1699 -8200 8220 0
-8201 8220 0
-1699 -8201 8221 0
-8202 8221 0
-1699 -8202 8222 0
-8203 8222 0
-1699 -8203 8223 0
-8204 8223 0
-1699 -8204 8224 0
-8205 8224 0
-1699 -8205 8225 0
-8206 8225 0
-1699 -8206 8226 0
-8207 8226 0
-1699 -8207 8227 0
-8208 8227 0
-1699 -8208 8228 0
-8209 8228 0
-1699 -8209 8229 0
-8210 8229 0
-1699 -8210 8230 0
-8211 8230 0
-1699 -8211 8231 0
-8212 8231 0
-1699 -8212 8232 0
-8213 8232 0
-1699 -8213 8233 0
-8214 8233 0
-1699 -8214 0
-1699 8234 0
-8215 8234 0
-1699 -8215 8235 0
-8216 8235 0
-1699 -8216 8236 0
-8217 8236 0
-1699 -8217 8237 0
-8218 8237 0
-1699 -8218 8238 0
-8219 8238 0
-1699 -8219 8239 0
-8220 8239 0
-1699 -8220 8240 0
-8221 8240 0
-1699 -8221 8241 0
-8222 8241 0
-1699 -8222 8242 0
-8223 8242 0
-1699 -8223 8243 0
-8224 8243 0
-1699 -8224 8244 0
-8225 8244 0
-1699 -8225 8245 0
-8226 8245 0
-1699 -8226 8246 0
-8227 8246 0
-1699 -8227 8247 0
-8228 8247 0
-1699 -8228 8248 0
-8229 8248 0
-1699 -8229 8249 0
-8230 8249 0
-1699 -8230 8250 0
-8231 8250 0
-1699 -8231 8251 0
-8232 8251 0
-1699 -8232 8252 0
-8233 8252 0
-1699 -8233 0
-1699 8253 0
-8234 8253 0
-1699 -8234 8254 0
-8235 8254 0
-1699 -8235 8255 0
-8236 8255 0
-1699 -8236 8256 0
-8237 8256 0
-1699 -8237 8257 0
-8238 8257 0
-1699 -8238 8258 0
-8239 8258 0
-1699 -8239 8259 0
-8240 8259 0
-1699 -8240 8260 0
-8241 8260 0
-1699 -8241 8261 0
-8242 8261 0
-1699 -8242 8262 0
-8243 8262 0
-1699 -8243 8263 0
-8244 8263 0
-1699 -8244 8264 0
-8245 8264 0
-1699 -8245 8265 0
-8246 8265 0
-1699 -8246 8266 0
-8247 8266 0
-1699 -8247 8267 0
-8248 8267 0
-1699 -8248 8268 0
-8249 8268 0
-1699 -8249 8269 0
-8250 8269 0
-1699 -8250 8270 0
-8251 8270 0
-1699 -8251 8271 0
-8252 8271 0
-1699 -8252 0
-1700 8272 0
-8253 8272 0
-1700 -8253 8273 0
-8254 8273 0
-1700 -8254 8274 0
-8255 8274 0
-1700 -8255 8275 0
-8256 8275 0
-1700 -8256 8276 0
-8257 8276 0
-1700 -8257 8277 0
-8258 8277 0
-1700 -8258 8278 0
-8259 8278 0
-1700 -8259 8279 0
-8260 8279 0
-1700 -8260 8280 0
-8261 8280 0
-1700 -8261 8281 0
-8262 8281 0
-1700 -8262 8282 0
-8263 8282 0
-1700 -8263 8283 0
-8264 8283 0
-1700 -8264 8284 0
-8265 8284 0
-1700 -8265 8285 0
-8266 8285 0
-1700 -8266 8286 0
-8267 8286 0
-1700 -8267 8287 0
-8268 8287 0
-1700 -8268 8288 0
-8269 8288 0
-1700 -8269 8289 0
-8270 8289 0
-1700 -8270 8290 0
-8271 8290 0
-1700 -8271 0
-1700 8291 0
-8272 8291 0
-1700 -8272 8292 0
-8273 8292 0
-1700 -8273 8293 0
-8274 8293 0
-1700 -8274 8294 0
-8275 8294 0
-1700 -8275 8295 0
-8276 8295 0
-1700 -8276 8296 0
-8277 8296 0
-1700 -8277 8297 0
-8278 8297 0
-1700 -8278 8298 0
-8279 8298 0
-1700 -8279 8299 0
-8280 8299 0
-1700 -8280 8300 0
-8281 8300 0
-1700 -8281 8301 0
-8282 8301 0
-1700 -8282 8302 0
-8283 8302 0
-1700 -8283 8303 0
-8284 8303 0
-1700 -8284 8304 0
-8285 8304 0
-1700 -8285 8305 0
-8286 8305 0
-1700 -8286 8306 0
-8287 8306 0
-1700 -8287 8307 0
-8288 8307 0
-1700 -8288 8308 0
-8289 8308 0
-1700 -8289 8309 0
-8290 8309 0
-1700 -8290 0
-1710 8310 0
-8291 8310 0
-1710 -8291 8311 0
-8292 8311 0
-1710 -8292 8312 0
-8293 8312 0
-1710 -8293 8313 0
-8294 8313 0
-1710 -8294 8314 0
-8295 8314 0
-1710 -8295 8315 0
-8296 8315 0
-1710 -8296 8316 0
-8297 8316 0
-1710 -8297 8317 0
-8298 8317 0
-1710 -8298 8318 0
-8299 8318 0
-1710 -8299 8319 0
-8300 8319 0
-1710 -8300 8320 0
-8301 8320 0
-1710 -8301 8321 0
-8302 8321 0
-1710 -8302 8322 0
-8303 8322 0
-1710 -8303 8323 0
-8304 8323 0
-1710 -8304 8324 0
-8305 8324 0
-1710 -8305 8325 0
-8306 8325 0
-1710 -8306 8326 0
-8307 8326 0
-1710 -8307 8327 0
-8308 8327 0
-1710 -8308 8328 0
-8309 8328 0
-1710 -8309 0
-1710 8329 0
-8310 8329 0
-1710 -8310 8330 0
-8311 8330 0
-1710 -8311 8331 0
-8312 8331 0
-1710 -8312 8332 0
-8313 8332 0
-1710 -8313 8333 0
-8314 8333 0
-1710 -8314 8334 0
-8315 8334 0
-1710 -8315 8335 0
-8316 8335 0
-1710 -8316 8336 0
-8317 8336 0
-1710 -8317 8337 0
-8318 8337 0
-1710 -8318 8338 0
-8319 8338 0
-1710 -8319 8339 0
-8320 8339 0
-1710 -8320 8340 0
-8321 8340 0
-1710 -8321 8341 0
-8322 8341 0
-1710 -8322 8342 0
-8323 8342 0
-1710 -8323 8343 0
-8324 8343 0
-1710 -8324 8344 0
-8325 8344 0
-1710 -8325 8345 0
-8326 8345 0
-1710 -8326 8346 0
-8327 8346 0
-1710 -8327 8347 0
-8328 8347 0
-1710 -8328 0
-1710 8348 0
-8329 8348 0
-1710 -8329 8349 0
-8330 8349 0
-1710 -8330 8350 0
-8331 8350 0
-1710 -8331 8351 0
-8332 8351 0
-1710 -8332 8352 0
-8333 8352 0
-1710 -8333 8353 0
-8334 8353 0
-1710 -8334 8354 0
-8335 8354 0
-1710 -8335 8355 0
-8336 8355 0
-1710 -8336 8356 0
-8337 8356 0
-1710 -8337 8357 0
-8338 8357 0
-1710 -8338 8358 0
-8339 8358 0
-1710 -8339 8359 0
-8340 8359 0
-1710 -8340 8360 0
-8341 8360 0
-1710 -8341 8361 0
-8342 8361 0
-1710 -8342 8362 0
-8343 8362 0
-1710 -8343 8363 0
-8344 8363 0
-1710 -8344 8364 0
-8345 8364 0
-1710 -8345 8365 0
-8346 8365 0
-1710 -8346 8366 0
-8347 8366 0
-1710 -8347 0
-1711 8367 0
-8348 8367 0
-1711 -8348 8368 0
-8349 8368 0
-1711 -8349 8369 0
-8350 8369 0
-1711 -8350 8370 0
-8351 8370 0
-1711 -8351 8371 0
-8352 8371 0
-1711 -8352 8372 0
-8353 8372 0
-1711 -8353 8373 0
-8354 8373 0
-1711 -8354 8374 0
-8355 8374 0
-1711 -8355 8375 0
-8356 8375 0
-1711 -8356 8376 0
-8357 8376 0
-1711 -8357 8377 0
-8358 8377 0
-1711 -8358 8378 0
-8359 8378 0
-1711 -8359 8379 0
-8360 8379 0
-1711 -8360 8380 0
-8361 8380 0
-1711 -8361 8381 0
-8362 8381 0
-1711 -8362 8382 0
-8363 8382 0
-1711 -8363 8383 0
-8364 8383 0
-1711 -8364 8384 0
-8365 8384 0
-1711 -8365 8385 0
-8366 8385 0
-1711 -8366 0
-1711 8386 0
-8367 8386 0
-1711 -8367 8387 0
-8368 8387 0
-1711 -8368 8388 0
-8369 8388 0
-1711 -8369 8389 0
-8370 8389 0
-1711 -8370 8390 0
-8371 8390 0
-1711 -8371 8391 0
-8372 8391 0
-1711 -8372 8392 0
-8373 8392 0
-1711 -8373 8393 0
-8374 8393 0
-1711 -8374 8394 0
-8375 8394 0
-1711 -8375 8395 0
-8376 8395 0
-1711 -8376 8396 0
-8377 8396 0
-1711 -8377 8397 0
-8378 8397 0
-1711 -8378 8398 0
-8379 8398 0
-1711 -8379 8399 0
-8380 8399 0
-1711 -8380 8400 0
-8381 8400 0
-1711 -8381 8401 0
-8382 8401 0
-1711 -8382 8402 0
-8383 8402 0
-1711 -8383 8403 0
-8384 8403 0
-1711 -8384 8404 0
-8385 8404 0
-1711 -8385 0
-1721 8405 0
-8386 8405 0
-1721 -8386 8406 0
-8387 8406 0
-1721 -8387 8407 0
-8388 8407 0
-1721 -8388 8408 0
-8389 8408 0
-1721 -8389 8409 0
-8390 8409 0
-1721 -8390 8410 0
-8391 8410 0
-1721 -8391 8411 0
-8392 8411 0
-1721 -8392 8412 0
-8393 8412 0
-1721 -8393 8413 0
-8394 8413 0
-1721 -8394 8414 0
-8395 8414 0
-1721 -8395 8415 0
-8396 8415 0
-1721 -8396 8416 0
-8397 8416 0
-1721 -8397 8417 0
-8398 8417 0
-1721 -8398 8418 0
-8399 8418 0
-1721 -8399 8419 0
-8400 8419 0
-1721 -8400 8420 0
-8401 8420 0
-1721 -8401 8421 0
-8402 8421 0
-1721 -8402 8422 0
-8403 8422 0
-1721 -8403 8423 0
-8404 8423 0
-1721 -8404 0
-1721 8424 0
-8405 8424 0
-1721 -8405 8425 0
-8406 8425 0
-1721 -8406 8426 0
-8407 8426 0
-1721 -8407 8427 0
-8408 8427 0
-1721 -8408 8428 0
-8409 8428 0
-1721 -8409 8429 0
-8410 8429 0
-1721 -8410 8430 0
-8411 8430 0
-1721 -8411 8431 0
-8412 8431 0
-1721 -8412 8432 0
-8413 8432 0
-1721 -8413 8433 0
-8414 8433 0
-1721 -8414 8434 0
-8415 8434 0
-1721 -8415 8435 0
-8416 8435 0
-1721 -8416 8436 0
-8417 8436 0
-1721 -8417 8437 0
-8418 8437 0
-1721 -8418 8438 0
-8419 8438 0
-1721 -8419 8439 0
-8420 8439 0
-1721 -8420 8440 0
-8421 8440 0
-1721 -8421 8441 0
-8422 8441 0
-1721 -8422 8442 0
-8423 8442 0
-1721 -8423 0
-1721 8443 0
-8424 8443 0
-1721 -8424 8444 0
-8425 8444 0
-1721 -8425 8445 0
-8426 8445 0
-1721 -8426 8446 0
-8427 8446 0
-1721 -8427 8447 0
-8428 8447 0
-1721 -8428 8448 0
-8429 8448 0
-1721 -8429 8449 0
-8430 8449 0
-1721 -8430 8450 0
-8431 8450 0
-1721 -8431 8451 0
-8432 8451 0
-1721 -8432 8452 0
-8433 8452 0
-1721 -8433 8453 0
-8434 8453 0
-1721 -8434 8454 0
-8435 8454 0
-1721 -8435 8455 0
-8436 8455 0
-1721 -8436 8456 0
-8437 8456 0
-1721 -8437 8457 0
-8438 8457 0
-1721 -8438 8458 0
-8439 8458 0
-1721 -8439 8459 0
-8440 8459 0
-1721 -8440 8460 0
-8441 8460 0
-1721 -8441 8461 0
-8442 8461 0
-1721 -8442 0
-1722 8462 0
-8443 8462 0
-1722 -8443 8463 0
-8444 8463 0
-1722 -8444 8464 0
-8445 8464 0
-1722 -8445 8465 0
-8446 8465 0
-1722 -8446 8466 0
-8447 8466 0
-1722 -8447 8467 0
-8448 8467 0
-1722 -8448 8468 0
-8449 8468 0
-1722 -8449 8469 0
-8450 8469 0
-1722 -8450 8470 0
-8451 8470 0
-1722 -8451 8471 0
-8452 8471 0
-1722 -8452 8472 0
-8453 8472 0
-1722 -8453 8473 0
-8454 8473 0
-1722 -8454 8474 0
-8455 8474 0
-1722 -8455 8475 0
-8456 8475 0
-1722 -8456 8476 0
-8457 8476 0
-1722 -8457 8477 0
-8458 8477 0
-1722 -8458 8478 0
-8459 8478 0
-1722 -8459 8479 0
-8460 8479 0
-1722 -8460 8480 0
-8461 8480 0
-1722 -8461 0
-1722 8481 0
-8462 8481 0
-1722 -8462 8482 0
-8463 8482 0
-1722 -8463 8483 0
-8464 8483 0
-1722 -8464 8484 0
-8465 8484 0
-1722 -8465 8485 0
-8466 8485 0
-1722 -8466 8486 0
-8467 8486 0
-1722 -8467 8487 0
-8468 8487 0
-1722 -8468 8488 0
-8469 8488 0
-1722 -8469 8489 0
-8470 8489 0
-1722 -8470 8490 0
-8471 8490 0
-1722 -8471 8491 0
-8472 8491 0
-1722 -8472 8492 0
-8473 8492 0
-1722 -8473 8493 0
-8474 8493 0
-1722 -8474 8494 0
-8475 8494 0
-1722 -8475 8495 0
-8476 8495 0
-1722 -8476 8496 0
-8477 8496 0
-1722 -8477 8497 0
-8478 8497 0
-1722 -8478 8498 0
-8479 8498 0
-1722 -8479 8499 0
-8480 8499 0
-1722 -8480 0
-1732 8500 0
-8481 8500 0
-1732 -8481 8501 0
-8482 8501 0
-1732 -8482 8502 0
-8483 8502 0
-1732 -8483 8503 0
-8484 8503 0
-1732 -8484 8504 0
-8485 8504 0
-1732 -8485 8505 0
-8486 8505 0
-1732 -8486 8506 0
-8487 8506 0
-1732 -8487 8507 0
-8488 8507 0
-1732 -8488 8508 0
-8489 8508 0
-1732 -8489 8509 0
-8490 8509 0
-1732 -8490 8510 0
-8491 8510 0
-1732 -8491 8511 0
-8492 8511 0
-1732 -8492 8512 0
-8493 8512 0
-1732 -8493 8513 0
-8494 8513 0
-1732 -8494 8514 0
-8495 8514 0
-1732 -8495 8515 0
-8496 8515 0
-1732 -8496 8516 0
-8497 8516 0
-1732 -8497 8517 0
-8498 8517 0
-1732 -8498 8518 0
-8499 8518 0
-1732 -8499 0
-1732 8519 0
-8500 8519 0
-1732 -8500 8520 0
-8501 8520 0
-1732 -8501 8521 0
-8502 8521 0
-1732 -8502 8522 0
-8503 8522 0
-1732 -8503 8523 0
-8504 8523 0
-1732 -8504 8524 0
-8505 8524 0
-1732 -8505 8525 0
-8506 8525 0
-1732 -8506 8526 0
-8507 8526 0
-1732 -8507 8527 0
-8508 8527 0
-1732 -8508 8528 0
-8509 8528 0
-1732 -8509 8529 0
-8510 8529 0
-1732 -8510 8530 0
-8511 8530 0
-1732 -8511 8531 0
-8512 8531 0
-1732 -8512 8532 0
-8513 8532 0
-1732 -8513 8533 0
-8514 8533 0
-1732 -8514 8534 0
-8515 8534 0
-1732 -8515 8535 0
-8516 8535 0
-1732 -8516 8536 0
-8517 8536 0
-1732 -8517 8537 0
-8518 8537 0
-1732 -8518 0
-1732 8538 0
-8519 8538 0
-1732 -8519 8539 0
-8520 8539 0
-1732 -8520 8540 0
-8521 8540 0
-1732 -8521 8541 0
-8522 8541 0
-1732 -8522 8542 0
-8523 8542 0
-1732 -8523 8543 0
-8524 8543 0
-1732 -8524 8544 0
-8525 8544 0
-1732 -8525 8545 0
-8526 8545 0
-1732 -8526 8546 0
-8527 8546 0
-1732 -8527 8547 0
-8528 8547 0
-1732 -8528 8548 0
-8529 8548 0
-1732 -8529 8549 0
-8530 8549 0
-1732 -8530 8550 0
-8531 8550 0
-1732 -8531 8551 0
-8532 8551 0
-1732 -8532 8552 0
-8533 8552 0
-1732 -8533 8553 0
-8534 8553 0
-1732 -8534 8554 0
-8535 8554 0
-1732 -8535 8555 0
-8536 8555 0
-1732 -8536 8556 0
-8537 8556 0
-1732 -8537 0
-1733 8557 0
-8538 8557 0
-1733 -8538 8558 0
-8539 8558 0
-1733 -8539 8559 0
-8540 8559 0
-1733 -8540 8560 0
-8541 8560 0
-1733 -8541 8561 0
-8542 8561 0
-1733 -8542 8562 0
-8543 8562 0
-1733 -8543 8563 0
-8544 8563 0
-1733 -8544 8564 0
-8545 8564 0
-1733 -8545 8565 0
-8546 8565 0
-1733 -8546 8566 0
-8547 8566 0
-1733 -8547 8567 0
-8548 8567 0
-1733 -8548 8568 0
-8549 8568 0
-1733 -8549 8569 0
-8550 8569 0
-1733 -8550 8570 0
-8551 8570 0
-1733 -8551 8571 0
-8552 8571 0
-1733 -8552 8572 0
-8553 8572 0
-1733 -8553 8573 0
-8554 8573 0
-1733 -8554 8574 0
-8555 8574 0
-1733 -8555 8575 0
-8556 8575 0
-1733 -8556 0
-1733 8576 0
-8557 8576 0
-1733 -8557 8577 0
-8558 8577 0
-1733 -8558 8578 0
-8559 8578 0
-1733 -8559 8579 0
-8560 8579 0
-1733 -8560 8580 0
-8561 8580 0
-1733 -8561 8581 0
-8562 8581 0
-1733 -8562 8582 0
-8563 8582 0
-1733 -8563 8583 0
-8564 8583 0
-1733 -8564 8584 0
-8565 8584 0
-1733 -8565 8585 0
-8566 8585 0
-1733 -8566 8586 0
-8567 8586 0
-1733 -8567 8587 0
-8568 8587 0
-1733 -8568 8588 0
-8569 8588 0
-1733 -8569 8589 0
-8570 8589 0
-1733 -8570 8590 0
-8571 8590 0
-1733 -8571 8591 0
-8572 8591 0
-1733 -8572 8592 0
-8573 8592 0
-1733 -8573 8593 0
-8574 8593 0
-1733 -8574 8594 0
-8575 8594 0
-1733 -8575 0
-1743 8595 0
-8576 8595 0
-1743 -8576 8596 0
-8577 8596 0
-1743 -8577 8597 0
-8578 8597 0
-1743 -8578 8598 0
-8579 8598 0
-1743 -8579 8599 0
-8580 8599 0
-1743 -8580 8600 0
-8581 8600 0
-1743 -8581 8601 0
-8582 8601 0
-1743 -8582 8602 0
-8583 8602 0
-1743 -8583 8603 0
-8584 8603 0
-1743 -8584 8604 0
-8585 8604 0
-1743 -8585 8605 0
-8586 8605 0
-1743 -8586 8606 0
-8587 8606 0
-1743 -8587 8607 0
-8588 8607 0
-1743 -8588 8608 0
-8589 8608 0
-1743 -8589 8609 0
-8590 8609 0
-1743 -8590 8610 0
-8591 8610 0
-1743 -8591 8611 0
-8592 8611 0
-1743 -8592 8612 0
-8593 8612 0
-1743 -8593 8613 0
-8594 8613 0
-1743 -8594 0
-1743 8614 0
-8595 8614 0
-1743 -8595 8615 0
-8596 8615 0
-1743 -8596 8616 0
-8597 8616 0
-1743 -8597 8617 0
-8598 8617 0
-1743 -8598 8618 0
-8599 8618 0
-1743 -8599 8619 0
-8600 8619 0
-1743 -8600 8620 0
-8601 8620 0
-1743 -8601 8621 0
-8602 8621 0
-1743 -8602 8622 0
-8603 8622 0
-1743 -8603 8623 0
-8604 8623 0
-1743 -8604 8624 0
-8605 8624 0
-1743 -8605 8625 0
-8606 8625 0
-1743 -8606 8626 0
-8607 8626 0
-1743 -8607 8627 0
-8608 8627 0
-1743 -8608 8628 0
-8609 8628 0
-1743 -8609 8629 0
-8610 8629 0
-1743 -8610 8630 0
-8611 8630 0
-1743 -8611 8631 0
-8612 8631 0
-1743 -8612 8632 0
-8613 8632 0
-1743 -8613 0
-1743 8633 0
-8614 8633 0
-1743 -8614 8634 0
-8615 8634 0
-1743 -8615 8635 0
-8616 8635 0
-1743 -8616 8636 0
-8617 8636 0
-1743 -8617 8637 0
-8618 8637 0
-1743 -8618 8638 0
-8619 8638 0
-1743 -8619 8639 0
-8620 8639 0
-1743 -8620 8640 0
-8621 8640 0
-1743 -8621 8641 0
-8622 8641 0
-1743 -8622 8642 0
-8623 8642 0
-1743 -8623 8643 0
-8624 8643 0
-1743 -8624 8644 0
-8625 8644 0
-1743 -8625 8645 0
-8626 8645 0
-1743 -8626 8646 0
-8627 8646 0
-1743 -8627 8647 0
-8628 8647 0
-1743 -8628 8648 0
-8629 8648 0
-1743 -8629 8649 0
-8630 8649 0
-1743 -8630 8650 0
-8631 8650 0
-1743 -8631 8651 0
-8632 8651 0
-1743 -8632 0
-1744 8652 0
-8633 8652 0
-1744 -8633 8653 0
-8634 8653 0
-1744 -8634 8654 0
-8635 8654 0
-1744 -8635 8655 0
-8636 8655 0
-1744 -8636 8656 0
-8637 8656 0
-1744 -8637 8657 0
-8638 8657 0
-1744 -8638 8658 0
-8639 8658 0
-1744 -8639 8659 0
-8640 8659 0
-1744 -8640 8660 0
-8641 8660 0
-1744 -8641 8661 0
-8642 8661 0
-1744 -8642 8662 0
-8643 8662 0
-1744 -8643 8663 0
-8644 8663 0
-1744 -8644 8664 0
-8645 8664 0
-1744 -8645 8665 0
-8646 8665 0
-1744 -8646 8666 0
-8647 8666 0
-1744 -8647 8667 0
-8648 8667 0
-1744 -8648 8668 0
-8649 8668 0
-1744 -8649 8669 0
-8650 8669 0
-1744 -8650 8670 0
-8651 8670 0
-1744 -8651 0
-1744 8671 0
-8652 8671 0
-1744 -8652 8672 0
-8653 8672 0
-1744 -8653 8673 0
-8654 8673 0
-1744 -8654 8674 0
-8655 8674 0
-1744 -8655 8675 0
-8656 8675 0
-1744 -8656 8676 0
-8657 8676 0
-1744 -8657 8677 0
-8658 8677 0
-1744 -8658 8678 0
-8659 8678 0
-1744 -8659 8679 0
-8660 8679 0
-1744 -8660 8680 0
-8661 8680 0
-1744 -8661 8681 0
-8662 8681 0
-1744 -8662 8682 0
-8663 8682 0
-1744 -8663 8683 0
-8664 8683 0
-1744 -8664 8684 0
-8665 8684 0
-1744 -8665 8685 0
-8666 8685 0
-1744 -8666 8686 0
-8667 8686 0
-1744 -8667 8687 0
-8668 8687 0
-1744 -8668 8688 0
-8669 8688 0
-1744 -8669 8689 0
-8670 8689 0
-1744 -8670 0
-1754 8690 0
-8671 8690 0
-1754 -8671 8691 0
-8672 8691 0
-1754 -8672 8692 0
-8673 8692 0
-1754 -8673 8693 0
-8674 8693 0
-1754 -8674 8694 0
-8675 8694 0
-1754 -8675 8695 0
-8676 8695 0
-1754 -8676 8696 0
-8677 8696 0
-1754 -8677 8697 0
-8678 8697 0
-1754 -8678 8698 0
-8679 8698 0
-1754 -8679 8699 0
-8680 8699 0
-1754 -8680 8700 0
-8681 8700 0
-1754 -8681 8701 0
-8682 8701 0
-1754 -8682 8702 0
-8683 8702 0
-1754 -8683 8703 0
-8684 8703 0
-1754 -8684 8704 0
-8685 8704 0
-1754 -8685 8705 0
-8686 8705 0
-1754 -8686 8706 0
-8687 8706 0
-1754 -8687 8707 0
-8688 8707 0
-1754 -8688 8708 0
-8689 8708 0
-1754 -8689 0
-1754 8709 0
-8690 8709 0
-1754 -8690 8710 0
-8691 8710 0
-1754 -8691 8711 0
-8692 8711 0
-1754 -8692 8712 0
-8693 8712 0
-1754 -8693 8713 0
-8694 8713 0
-1754 -8694 8714 0
-8695 8714 0
-1754 -8695 8715 0
-8696 8715 0
-1754 -8696 8716 0
-8697 8716 0
-1754 -8697 8717 0
-8698 8717 0
-1754 -8698 8718 0
-8699 8718 0
-1754 -8699 8719 0
-8700 8719 0
-1754 -8700 8720 0
-8701 8720 0
-1754 -8701 8721 0
-8702 8721 0
-1754 -8702 8722 0
-8703 8722 0
-1754 -8703 8723 0
-8704 8723 0
-1754 -8704 8724 0
-8705 8724 0
-1754 -8705 8725 0
-8706 8725 0
-1754 -8706 8726 0
-8707 8726 0
-1754 -8707 8727 0
-8708 8727 0
-1754 -8708 0
-1754 8728 0
-8709 8728 0
-1754 -8709 8729 0
-8710 8729 0
-1754 -8710 8730 0
-8711 8730 0
-1754 -8711 8731 0
-8712 8731 0
-1754 -8712 8732 0
-8713 8732 0
-1754 -8713 8733 0
-8714 8733 0
-1754 -8714 8734 0
-8715 8734 0
-1754 -8715 8735 0
-8716 8735 0
-1754 -8716 8736 0
-8717 8736 0
-1754 -8717 8737 0
-8718 8737 0
-1754 -8718 8738 0
-8719 8738 0
-1754 -8719 8739 0
-8720 8739 0
-1754 -8720 8740 0
-8721 8740 0
-1754 -8721 8741 0
-8722 8741 0
-1754 -8722 8742 0
-8723 8742 0
-1754 -8723 8743 0
-8724 8743 0
-1754 -8724 8744 0
-8725 8744 0
-1754 -8725 8745 0
-8726 8745 0
-1754 -8726 8746 0
-8727 8746 0
-1754 -8727 0
-1755 8747 0
-8728 8747 0
-1755 -8728 8748 0
-8729 8748 0
-1755 -8729 8749 0
-8730 8749 0
-1755 -8730 8750 0
-8731 8750 0
-1755 -8731 8751 0
-8732 8751 0
-1755 -8732 8752 0
-8733 8752 0
-1755 -8733 8753 0
-8734 8753 0
-1755 -8734 8754 0
-8735 8754 0
-1755 -8735 8755 0
-8736 8755 0
-1755 -8736 8756 0
-8737 8756 0
-1755 -8737 8757 0
-8738 8757 0
-1755 -8738 8758 0
-8739 8758 0
-1755 -8739 8759 0
-8740 8759 0
-1755 -8740 8760 0
-8741 8760 0
-1755 -8741 8761 0
-8742 8761 0
-1755 -8742 8762 0
-8743 8762 0
-1755 -8743 8763 0
-8744 8763 0
-1755 -8744 8764 0
-8745 8764 0
-1755 -8745 8765 0
-8746 8765 0
-1755 -8746 0
-1755 8766 0
-8747 8766 0
-1755 -8747 8767 0
-8748 8767 0
-1755 -8748 8768 0
-8749 8768 0
-1755 -8749 8769 0
-8750 8769 0
-1755 -8750 8770 0
-8751 8770 0
-1755 -8751 8771 0
-8752 8771 0
-1755 -8752 8772 0
-8753 8772 0
-1755 -8753 8773 0
-8754 8773 0
-1755 -8754 8774 0
-8755 8774 0
-1755 -8755 8775 0
-8756 8775 0
-1755 -8756 8776 0
-8757 8776 0
-1755 -8757 8777 0
-8758 8777 0
-1755 -8758 8778 0
-8759 8778 0
-1755 -8759 8779 0
-8760 8779 0
-1755 -8760 8780 0
-8761 8780 0
-1755 -8761 8781 0
-8762 8781 0
-1755 -8762 8782 0
-8763 8782 0
-1755 -8763 8783 0
-8764 8783 0
-1755 -8764 8784 0
-8765 8784 0
-1755 -8765 0
-1765 8785 0
-8766 8785 0
-1765 -8766 8786 0
-8767 8786 0
-1765 -8767 8787 0
-8768 8787 0
-1765 -8768 8788 0
-8769 8788 0
-1765 -8769 8789 0
-8770 8789 0
-1765 -8770 8790 0
-8771 8790 0
-1765 -8771 8791 0
-8772 8791 0
-1765 -8772 8792 0
-8773 8792 0
-1765 -8773 8793 0
-8774 8793 0
-1765 -8774 8794 0
-8775 8794 0
-1765 -8775 8795 0
-8776 8795 0
-1765 -8776 8796 0
-8777 8796 0
-1765 -8777 8797 0
-8778 8797 0
-1765 -8778 8798 0
-8779 8798 0
-1765 -8779 8799 0
-8780 8799 0
-1765 -8780 8800 0
-8781 8800 0
-1765 -8781 8801 0
-8782 8801 0
-1765 -8782 8802 0
-8783 8802 0
-1765 -8783 8803 0
-8784 8803 0
-1765 -8784 0
-1765 8804 0
-8785 8804 0
-1765 -8785 8805 0
-8786 8805 0
-1765 -8786 8806 0
-8787 8806 0
-1765 -8787 8807 0
-8788 8807 0
-1765 -8788 8808 0
-8789 8808 0
-1765 -8789 8809 0
-8790 8809 0
-1765 -8790 8810 0
-8791 8810 0
-1765 -8791 8811 0
-8792 8811 0
-1765 -8792 8812 0
-8793 8812 0
-1765 -8793 8813 0
-8794 8813 0
-1765 -8794 8814 0
-8795 8814 0
-1765 -8795 8815 0
-8796 8815 0
-1765 -8796 8816 0
-8797 8816 0
-1765 -8797 8817 0
-8798 8817 0
-1765 -8798 8818 0
-8799 8818 0
-1765 -8799 8819 0
-8800 8819 0
-1765 -8800 8820 0
-8801 8820 0
-1765 -8801 8821 0
-8802 8821 0
-1765 -8802 8822 0
-8803 8822 0
-1765 -8803 0
-1765 8823 0
-8804 8823 0
-1765 -8804 8824 0
-8805 8824 0
-1765 -8805 8825 0
-8806 8825 0
-1765 -8806 8826 0
-8807 8826 0
-1765 -8807 8827 0
-8808 8827 0
-1765 -8808 8828 0
-8809 8828 0
-1765 -8809 8829 0
-8810 8829 0
-1765 -8810 8830 0
-8811 8830 0
-1765 -8811 8831 0
-8812 8831 0
-1765 -8812 8832 0
-8813 8832 0
-1765 -8813 8833 0
-8814 8833 0
-1765 -8814 8834 0
-8815 8834 0
-1765 -8815 8835 0
-8816 8835 0
-1765 -8816 8836 0
-8817 8836 0
-1765 -8817 8837 0
-8818 8837 0
-1765 -8818 8838 0
-8819 8838 0
-1765 -8819 8839 0
-8820 8839 0
-1765 -8820 8840 0
-8821 8840 0
-1765 -8821 8841 0
-8822 8841 0
-1765 -8822 0
-1766 8842 0
-8823 8842 0
-1766 -8823 8843 0
-8824 8843 0
-1766 -8824 8844 0
-8825 8844 0
-1766 -8825 8845 0
-8826 8845 0
-1766 -8826 8846 0
-8827 8846 0
-1766 -8827 8847 0
-8828 8847 0
-1766 -8828 8848 0
-8829 8848 0
-1766 -8829 8849 0
-8830 8849 0
-1766 -8830 8850 0
-8831 8850 0
-1766 -8831 8851 0
-8832 8851 0
-1766 -8832 8852 0
-8833 8852 0
-1766 -8833 8853 0
-8834 8853 0
-1766 -8834 8854 0
-8835 8854 0
-1766 -8835 8855 0
-8836 8855 0
-1766 -8836 8856 0
-8837 8856 0
-1766 -8837 8857 0
-8838 8857 0
-1766 -8838 8858 0
-8839 8858 0
-1766 -8839 8859 0
-8840 8859 0
-1766 -8840 8860 0
-8841 8860 0
-1766 -8841 0
-1766 8861 0
-8842 8861 0
-1766 -8842 8862 0
-8843 8862 0
-1766 -8843 8863 0
-8844 8863 0
-1766 -8844 8864 0
-8845 8864 0
-1766 -8845 8865 0
-8846 8865 0
-1766 -8846 8866 0
-8847 8866 0
-1766 -8847 8867 0
-8848 8867 0
-1766 -8848 8868 0
-8849 8868 0
-1766 -8849 8869 0
-8850 8869 0
-1766 -8850 8870 0
-8851 8870 0
-1766 -8851 8871 0
-8852 8871 0
-1766 -8852 8872 0
-8853 8872 0
-1766 -8853 8873 0
-8854 8873 0
-1766 -8854 8874 0
-8855 8874 0
-1766 -8855 8875 0
-8856 8875 0
-1766 -8856 8876 0
-8857 8876 0
-1766 -8857 8877 0
-8858 8877 0
-1766 -8858 8878 0
-8859 8878 0
-1766 -8859 8879 0
-8860 8879 0
-1766 -8860 0
-1776 8880 0
-8861 8880 0
-1776 -8861 8881 0
-8862 8881 0
-1776 -8862 8882 0
-8863 8882 0
-1776 -8863 8883 0
-8864 8883 0
-1776 -8864 8884 0
-8865 8884 0
-1776 -8865 8885 0
-8866 8885 0
-1776 -8866 8886 0
-8867 8886 0
-1776 -8867 8887 0
-8868 8887 0
-1776 -8868 8888 0
-8869 8888 0
-1776 -8869 8889 0
-8870 8889 0
-1776 -8870 8890 0
-8871 8890 0
-1776 -8871 8891 0
-8872 8891 0
-1776 -8872 8892 0
-8873 8892 0
-1776 -8873 8893 0
-8874 8893 0
-1776 -8874 8894 0
-8875 8894 0
-1776 -8875 8895 0
-8876 8895 0
-1776 -8876 8896 0
-8877 8896 0
-1776 -8877 8897 0
-8878 8897 0
-1776 -8878 8898 0
-8879 8898 0
-1776 -8879 0
-1776 8899 0
-8880 8899 0
-1776 -8880 8900 0
-8881 8900 0
-1776 -8881 8901 0
-8882 8901 0
-1776 -8882 8902 0
-8883 8902 0
-1776 -8883 8903 0
-8884 8903 0
-1776 -8884 8904 0
-8885 8904 0
-1776 -8885 8905 0
-8886 8905 0
-1776 -8886 8906 0
-8887 8906 0
-1776 -8887 8907 0
-8888 8907 0
-1776 -8888 8908 0
-8889 8908 0
-1776 -8889 8909 0
-8890 8909 0
-1776 -8890 8910 0
-8891 8910 0
-1776 -8891 8911 0
-8892 8911 0
-1776 -8892 8912 0
-8893 8912 0
-1776 -8893 8913 0
-8894 8913 0
-1776 -8894 8914 0
-8895 8914 0
-1776 -8895 8915 0
-8896 8915 0
-1776 -8896 8916 0
-8897 8916 0
-1776 -8897 8917 0
-8898 8917 0
-1776 -8898 0
-1776 8918 0
-8899 8918 0
-1776 -8899 8919 0
-8900 8919 0
-1776 -8900 8920 0
-8901 8920 0
-1776 -8901 8921 0
-8902 8921 0
-1776 -8902 8922 0
-8903 8922 0
-1776 -8903 8923 0
-8904 8923 0
-1776 -8904 8924 0
-8905 8924 0
-1776 -8905 8925 0
-8906 8925 0
-1776 -8906 8926 0
-8907 8926 0
-1776 -8907 8927 0
-8908 8927 0
-1776 -8908 8928 0
-8909 8928 0
-1776 -8909 8929 0
-8910 8929 0
-1776 -8910 8930 0
-8911 8930 0
-1776 -8911 8931 0
-8912 8931 0
-1776 -8912 8932 0
-8913 8932 0
-1776 -8913 8933 0
-8914 8933 0
-1776 -8914 8934 0
-8915 8934 0
-1776 -8915 8935 0
-8916 8935 0
-1776 -8916 8936 0
-8917 8936 0
-1776 -8917 0
-1777 8937 0
-8918 8937 0
-1777 -8918 8938 0
-8919 8938 0
-1777 -8919 8939 0
-8920 8939 0
-1777 -8920 8940 0
-8921 8940 0
-1777 -8921 8941 0
-8922 8941 0
-1777 -8922 8942 0
-8923 8942 0
-1777 -8923 8943 0
-8924 8943 0
-1777 -8924 8944 0
-8925 8944 0
-1777 -8925 8945 0
-8926 8945 0
-1777 -8926 8946 0
-8927 8946 0
-1777 -8927 8947 0
-8928 8947 0
-1777 -8928 8948 0
-8929 8948 0
-1777 -8929 8949 0
-8930 8949 0
-1777 -8930 8950 0
-8931 8950 0
-1777 -8931 8951 0
-8932 8951 0
-1777 -8932 8952 0
-8933 8952 0
-1777 -8933 8953 0
-8934 8953 0
-1777 -8934 8954 0
-8935 8954 0
-1777 -8935 8955 0
-8936 8955 0
-1777 -8936 0
-1777 8956 0
-8937 8956 0
-1777 -8937 8957 0
-8938 8957 0
-1777 -8938 8958 0
-8939 8958 0
-1777 -8939 8959 0
-8940 8959 0
-1777 -8940 8960 0
-8941 8960 0
-1777 -8941 8961 0
-8942 8961 0
-1777 -8942 8962 0
-8943 8962 0
-1777 -8943 8963 0
-8944 8963 0
-1777 -8944 8964 0
-8945 8964 0
-1777 -8945 8965 0
-8946 8965 0
-1777 -8946 8966 0
-8947 8966 0
-1777 -8947 8967 0
-8948 8967 0
-1777 -8948 8968 0
-8949 8968 0
-1777 -8949 8969 0
-8950 8969 0
-1777 -8950 8970 0
-8951 8970 0
-1777 -8951 8971 0
-8952 8971 0
-1777 -8952 8972 0
-8953 8972 0
-1777 -8953 8973 0
-8954 8973 0
-1777 -8954 8974 0
-8955 8974 0
-1777 -8955 0
-1787 8975 0
-8956 8975 0
-1787 -8956 8976 0
-8957 8976 0
-1787 -8957 8977 0
-8958 8977 0
-1787 -8958 8978 0
-8959 8978 0
-1787 -8959 8979 0
-8960 8979 0
-1787 -8960 8980 0
-8961 8980 0
-1787 -8961 8981 0
-8962 8981 0
-1787 -8962 8982 0
-8963 8982 0
-1787 -8963 8983 0
-8964 8983 0
-1787 -8964 8984 0
-8965 8984 0
-1787 -8965 8985 0
-8966 8985 0
-1787 -8966 8986 0
-8967 8986 0
-1787 -8967 8987 0
-8968 8987 0
-1787 -8968 8988 0
-8969 8988 0
-1787 -8969 8989 0
-8970 8989 0
-1787 -8970 8990 0
-8971 8990 0
-1787 -8971 8991 0
-8972 8991 0
-1787 -8972 8992 0
-8973 8992 0
-1787 -8973 8993 0
-8974 8993 0
-1787 -8974 0
-1787 8994 0
-8975 8994 0
-1787 -8975 8995 0
-8976 8995 0
-1787 -8976 8996 0
-8977 8996 0
-1787 -8977 8997 0
-8978 8997 0
-1787 -8978 8998 0
-8979 8998 0
-1787 -8979 8999 0
-8980 8999 0
-1787 -8980 9000 0
-8981 9000 0
-1787 -8981 9001 0
-8982 9001 0
-1787 -8982 9002 0
-8983 9002 0
-1787 -8983 9003 0
-8984 9003 0
-1787 -8984 9004 0
-8985 9004 0
-1787 -8985 9005 0
-8986 9005 0
-1787 -8986 9006 0
-8987 9006 0
-1787 -8987 9007 0
-8988 9007 0
-1787 -8988 9008 0
-8989 9008 0
-1787 -8989 9009 0
-8990 9009 0
-1787 -8990 9010 0
-8991 9010 0
-1787 -8991 9011 0
-8992 9011 0
-1787 -8992 9012 0
-8993 9012 0
-1787 -8993 0
-1787 9013 0
-8994 9013 0
-1787 -8994 9014 0
-8995 9014 0
-1787 -8995 9015 0
-8996 9015 0
-1787 -8996 9016 0
-8997 9016 0
-1787 -8997 9017 0
-8998 9017 0
-1787 -8998 9018 0
-8999 9018 0
-1787 -8999 9019 0
-9000 9019 0
-1787 -9000 9020 0
-9001 9020 0
-1787 -9001 9021 0
-9002 9021 0
-1787 -9002 9022 0
-9003 9022 0
-1787 -9003 9023 0
-9004 9023 0
-1787 -9004 9024 0
-9005 9024 0
-1787 -9005 9025 0
-9006 9025 0
-1787 -9006 9026 0
-9007 9026 0
-1787 -9007 9027 0
-9008 9027 0
-1787 -9008 9028 0
-9009 9028 0
-1787 -9009 9029 0
-9010 9029 0
-1787 -9010 9030 0
-9011 9030 0
-1787 -9011 9031 0
-9012 9031 0
-1787 -9012 0
-1788 9032 0
-9013 9032 0
-1788 -9013 9033 0
-9014 9033 0
-1788 -9014 9034 0
-9015 9034 0
-1788 -9015 9035 0
-9016 9035 0
-1788 -9016 9036 0
-9017 9036 0
-1788 -9017 9037 0
-9018 9037 0
-1788 -9018 9038 0
-9019 9038 0
-1788 -9019 9039 0
-9020 9039 0
-1788 -9020 9040 0
-9021 9040 0
-1788 -9021 9041 0
-9022 9041 0
-1788 -9022 9042 0
-9023 9042 0
-1788 -9023 9043 0
-9024 9043 0
-1788 -9024 9044 0
-9025 9044 0
-1788 -9025 9045 0
-9026 9045 0
-1788 -9026 9046 0
-9027 9046 0
-1788 -9027 9047 0
-9028 9047 0
-1788 -9028 9048 0
-9029 9048 0
-1788 -9029 9049 0
-9030 9049 0
-1788 -9030 9050 0
-9031 9050 0
-1788 -9031 0
-1788 9051 0
-9032 9051 0
-1788 -9032 9052 0
-9033 9052 0
-1788 -9033 9053 0
-9034 9053 0
-1788 -9034 9054 0
-9035 9054 0
-1788 -9035 9055 0
-9036 9055 0
-1788 -9036 9056 0
-9037 9056 0
-1788 -9037 9057 0
-9038 9057 0
-1788 -9038 9058 0
-9039 9058 0
-1788 -9039 9059 0
-9040 9059 0
-1788 -9040 9060 0
-9041 9060 0
-1788 -9041 9061 0
-9042 9061 0
-1788 -9042 9062 0
-9043 9062 0
-1788 -9043 9063 0
-9044 9063 0
-1788 -9044 9064 0
-9045 9064 0
-1788 -9045 9065 0
-9046 9065 0
-1788 -9046 9066 0
-9047 9066 0
-1788 -9047 9067 0
-9048 9067 0
-1788 -9048 9068 0
-9049 9068 0
-1788 -9049 9069 0
-9050 9069 0
-1788 -9050 0
-1798 9070 0
-9051 9070 0
-1798 -9051 9071 0
-9052 9071 0
-1798 -9052 9072 0
-9053 9072 0
-1798 -9053 9073 0
-9054 9073 0
-1798 -9054 9074 0
-9055 9074 0
-1798 -9055 9075 0
-9056 9075 0
-1798 -9056 9076 0
-9057 9076 0
-1798 -9057 9077 0
-9058 9077 0
-1798 -9058 9078 0
-9059 9078 0
-1798 -9059 9079 0
-9060 9079 0
-1798 -9060 9080 0
-9061 9080 0
-1798 -9061 9081 0
-9062 9081 0
-1798 -9062 9082 0
-9063 9082 0
-1798 -9063 9083 0
-9064 9083 0
-1798 -9064 9084 0
-9065 9084 0
-1798 -9065 9085 0
-9066 9085 0
-1798 -9066 9086 0
-9067 9086 0
-1798 -9067 9087 0
-9068 9087 0
-1798 -9068 9088 0
-9069 9088 0
-1798 -9069 0
-1798 9089 0
-9070 9089 0
-1798 -9070 9090 0
-9071 9090 0
-1798 -9071 9091 0
-9072 9091 0
-1798 -9072 9092 0
-9073 9092 0
-1798 -9073 9093 0
-9074 9093 0
-1798 -9074 9094 0
-9075 9094 0
-1798 -9075 9095 0
-9076 9095 0
-1798 -9076 9096 0
-9077 9096 0
-1798 -9077 9097 0
-9078 9097 0
-1798 -9078 9098 0
-9079 9098 0
-1798 -9079 9099 0
-9080 9099 0
-1798 -9080 9100 0
-9081 9100 0
-1798 -9081 9101 0
-9082 9101 0
-1798 -9082 9102 0
-9083 9102 0
-1798 -9083 9103 0
-9084 9103 0
-1798 -9084 9104 0
-9085 9104 0
-1798 -9085 9105 0
-9086 9105 0
-1798 -9086 9106 0
-9087 9106 0
-1798 -9087 9107 0
-9088 9107 0
-1798 -9088 0
-1798 9108 0
-9089 9108 0
-1798 -9089 9109 0
-9090 9109 0
-1798 -9090 9110 0
-9091 9110 0
-1798 -9091 9111 0
-9092 9111 0
-1798 -9092 9112 0
-9093 9112 0
-1798 -9093 9113 0
-9094 9113 0
-1798 -9094 9114 0
-9095 9114 0
-1798 -9095 9115 0
-9096 9115 0
-1798 -9096 9116 0
-9097 9116 0
-1798 -9097 9117 0
-9098 9117 0
-1798 -9098 9118 0
-9099 9118 0
-1798 -9099 9119 0
-9100 9119 0
-1798 -9100 9120 0
-9101 9120 0
-1798 -9101 9121 0
-9102 9121 0
-1798 -9102 9122 0
-9103 9122 0
-1798 -9103 9123 0
-9104 9123 0
-1798 -9104 9124 0
-9105 9124 0
-1798 -9105 9125 0
-9106 9125 0
-1798 -9106 9126 0
-9107 9126 0
-1798 -9107 0
-1799 9127 0
-9108 9127 0
-1799 -9108 9128 0
-9109 9128 0
-1799 -9109 9129 0
-9110 9129 0
-1799 -9110 9130 0
-9111 9130 0
-1799 -9111 9131 0
-9112 9131 0
-1799 -9112 9132 0
-9113 9132 0
-1799 -9113 9133 0
-9114 9133 0
-1799 -9114 9134 0
-9115 9134 0
-1799 -9115 9135 0
-9116 9135 0
-1799 -9116 9136 0
-9117 9136 0
-1799 -9117 9137 0
-9118 9137 0
-1799 -9118 9138 0
-9119 9138 0
-1799 -9119 9139 0
-9120 9139 0
-1799 -9120 9140 0
-9121 9140 0
-1799 -9121 9141 0
-9122 9141 0
-1799 -9122 9142 0
-9123 9142 0
-1799 -9123 9143 0
-9124 9143 0
-1799 -9124 9144 0
-9125 9144 0
-1799 -9125 9145 0
-9126 9145 0
-1799 -9126 0
-1799 9146 0
-9127 9146 0
-1799 -9127 9147 0
-9128 9147 0
-1799 -9128 9148 0
-9129 9148 0
-1799 -9129 9149 0
-9130 9149 0
-1799 -9130 9150 0
-9131 9150 0
-1799 -9131 9151 0
-9132 9151 0
-1799 -9132 9152 0
-9133 9152 0
-1799 -9133 9153 0
-9134 9153 0
-1799 -9134 9154 0
-9135 9154 0
-1799 -9135 9155 0
-9136 9155 0
-1799 -9136 9156 0
-9137 9156 0
-1799 -9137 9157 0
-9138 9157 0
-1799 -9138 9158 0
-9139 9158 0
-1799 -9139 9159 0
-9140 9159 0
-1799 -9140 9160 0
-9141 9160 0
-1799 -9141 9161 0
-9142 9161 0
-1799 -9142 9162 0
-9143 9162 0
-1799 -9143 9163 0
-9144 9163 0
-1799 -9144 9164 0
-9145 9164 0
-1799 -9145 0
-1809 9165 0
-9146 9165 0
-1809 -9146 9166 0
-9147 9166 0
-1809 -9147 9167 0
-9148 9167 0
-1809 -9148 9168 0
-9149 9168 0
-1809 -9149 9169 0
-9150 9169 0
-1809 -9150 9170 0
-9151 9170 0
-1809 -9151 9171 0
-9152 9171 0
-1809 -9152 9172 0
-9153 9172 0
-1809 -9153 9173 0
-9154 9173 0
-1809 -9154 9174 0
-9155 9174 0
-1809 -9155 9175 0
-9156 9175 0
-1809 -9156 9176 0
-9157 9176 0
-1809 -9157 9177 0
-9158 9177 0
-1809 -9158 9178 0
-9159 9178 0
-1809 -9159 9179 0
-9160 9179 0
-1809 -9160 9180 0
-9161 9180 0
-1809 -9161 9181 0
-9162 9181 0
-1809 -9162 9182 0
-9163 9182 0
-1809 -9163 9183 0
-9164 9183 0
-1809 -9164 0
-1809 9184 0
-9165 9184 0
-1809 -9165 9185 0
-9166 9185 0
-1809 -9166 9186 0
-9167 9186 0
-1809 -9167 9187 0
-9168 9187 0
-1809 -9168 9188 0
-9169 9188 0
-1809 -9169 9189 0
-9170 9189 0
-1809 -9170 9190 0
-9171 9190 0
-1809 -9171 9191 0
-9172 9191 0
-1809 -9172 9192 0
-9173 9192 0
-1809 -9173 9193 0
-9174 9193 0
-1809 -9174 9194 0
-9175 9194 0
-1809 -9175 9195 0
-9176 9195 0
-1809 -9176 9196 0
-9177 9196 0
-1809 -9177 9197 0
-9178 9197 0
-1809 -9178 9198 0
-9179 9198 0
-1809 -9179 9199 0
-9180 9199 0
-1809 -9180 9200 0
-9181 9200 0
-1809 -9181 9201 0
-9182 9201 0
-1809 -9182 9202 0
-9183 9202 0
-1809 -9183 0
-1809 9203 0
-9184 9203 0
-1809 -9184 9204 0
-9185 9204 0
-1809 -9185 9205 0
-9186 9205 0
-1809 -9186 9206 0
-9187 9206 0
-1809 -9187 9207 0
-9188 9207 0
-1809 -9188 9208 0
-9189 9208 0
-1809 -9189 9209 0
-9190 9209 0
-1809 -9190 9210 0
-9191 9210 0
-1809 -9191 9211 0
-9192 9211 0
-1809 -9192 9212 0
-9193 9212 0
-1809 -9193 9213 0
-9194 9213 0
-1809 -9194 9214 0
-9195 9214 0
-1809 -9195 9215 0
-9196 9215 0
-1809 -9196 9216 0
-9197 9216 0
-1809 -9197 9217 0
-9198 9217 0
-1809 -9198 9218 0
-9199 9218 0
-1809 -9199 9219 0
-9200 9219 0
-1809 -9200 9220 0
-9201 9220 0
-1809 -9201 9221 0
-9202 9221 0
-1809 -9202 0
-1810 9222 0
-9203 9222 0
-1810 -9203 9223 0
-9204 9223 0
-1810 -9204 9224 0
-9205 9224 0
-1810 -9205 9225 0
-9206 9225 0
-1810 -9206 9226 0
-9207 9226 0
-1810 -9207 9227 0
-9208 9227 0
-1810 -9208 9228 0
-9209 9228 0
-1810 -9209 9229 0
-9210 9229 0
-1810 -9210 9230 0
-9211 9230 0
-1810 -9211 9231 0
-9212 9231 0
-1810 -9212 9232 0
-9213 9232 0
-1810 -9213 9233 0
-9214 9233 0
-1810 -9214 9234 0
-9215 9234 0
-1810 -9215 9235 0
-9216 9235 0
-1810 -9216 9236 0
-9217 9236 0
-1810 -9217 9237 0
-9218 9237 0
-1810 -9218 9238 0
-9219 9238 0
-1810 -9219 9239 0
-9220 9239 0
-1810 -9220 9240 0
-9221 9240 0
-1810 -9221 0
-1810 9241 0
-9222 9241 0
-1810 -9222 9242 0
-9223 9242 0
-1810 -9223 9243 0
-9224 9243 0
-1810 -9224 9244 0
-9225 9244 0
-1810 -9225 9245 0
-9226 9245 0
-1810 -9226 9246 0
-9227 9246 0
-1810 -9227 9247 0
-9228 9247 0
-1810 -9228 9248 0
-9229 9248 0
-1810 -9229 9249 0
-9230 9249 0
-1810 -9230 9250 0
-9231 9250 0
-1810 -9231 9251 0
-9232 9251 0
-1810 -9232 9252 0
-9233 9252 0
-1810 -9233 9253 0
-9234 9253 0
-1810 -9234 9254 0
-9235 9254 0
-1810 -9235 9255 0
-9236 9255 0
-1810 -9236 9256 0
-9237 9256 0
-1810 -9237 9257 0
-9238 9257 0
-1810 -9238 9258 0
-9239 9258 0
-1810 -9239 9259 0
-9240 9259 0
-1810 -9240 0
-1820 9260 0
-9241 9260 0
-1820 -9241 9261 0
-9242 9261 0
-1820 -9242 9262 0
-9243 9262 0
-1820 -9243 9263 0
-9244 9263 0
-1820 -9244 9264 0
-9245 9264 0
-1820 -9245 9265 0
-9246 9265 0
-1820 -9246 9266 0
-9247 9266 0
-1820 -9247 9267 0
-9248 9267 0
-1820 -9248 9268 0
-9249 9268 0
-1820 -9249 9269 0
-9250 9269 0
-1820 -9250 9270 0
-9251 9270 0
-1820 -9251 9271 0
-9252 9271 0
-1820 -9252 9272 0
-9253 9272 0
-1820 -9253 9273 0
-9254 9273 0
-1820 -9254 9274 0
-9255 9274 0
-1820 -9255 9275 0
-9256 9275 0
-1820 -9256 9276 0
-9257 9276 0
-1820 -9257 9277 0
-9258 9277 0
-1820 -9258 9278 0
-9259 9278 0
-1820 -9259 0
-1820 9279 0
-9260 9279 0
-1820 -9260 9280 0
-9261 9280 0
-1820 -9261 9281 0
-9262 9281 0
-1820 -9262 9282 0
-9263 9282 0
-1820 -9263 9283 0
-9264 9283 0
-1820 -9264 9284 0
-9265 9284 0
-1820 -9265 9285 0
-9266 9285 0
-1820 -9266 9286 0
-9267 9286 0
-1820 -9267 9287 0
-9268 9287 0
-1820 -9268 9288 0
-9269 9288 0
-1820 -9269 9289 0
-9270 9289 0
-1820 -9270 9290 0
-9271 9290 0
-1820 -9271 9291 0
-9272 9291 0
-1820 -9272 9292 0
-9273 9292 0
-1820 -9273 9293 0
-9274 9293 0
-1820 -9274 9294 0
-9275 9294 0
-1820 -9275 9295 0
-9276 9295 0
-1820 -9276 9296 0
-9277 9296 0
-1820 -9277 9297 0
-9278 9297 0
-1820 -9278 0
-1820 9298 0
-9279 9298 0
-1820 -9279 9299 0
-9280 9299 0
-1820 -9280 9300 0
-9281 9300 0
-1820 -9281 9301 0
-9282 9301 0
-1820 -9282 9302 0
-9283 9302 0
-1820 -9283 9303 0
-9284 9303 0
-1820 -9284 9304 0
-9285 9304 0
-1820 -9285 9305 0
-9286 9305 0
-1820 -9286 9306 0
-9287 9306 0
-1820 -9287 9307 0
-9288 9307 0
-1820 -9288 9308 0
-9289 9308 0
-1820 -9289 9309 0
-9290 9309 0
-1820 -9290 9310 0
-9291 9310 0
-1820 -9291 9311 0
-9292 9311 0
-1820 -9292 9312 0
-9293 9312 0
-1820 -9293 9313 0
-9294 9313 0
-1820 -9294 9314 0
-9295 9314 0
-1820 -9295 9315 0
-9296 9315 0
-1820 -9296 9316 0
-9297 9316 0
-1820 -9297 0
-1821 9317 0
-9298 9317 0
-1821 -9298 9318 0
-9299 9318 0
-1821 -9299 9319 0
-9300 9319 0
-1821 -9300 9320 0
-9301 9320 0
-1821 -9301 9321 0
-9302 9321 0
-1821 -9302 9322 0
-9303 9322 0
-1821 -9303 9323 0
-9304 9323 0
-1821 -9304 9324 0
-9305 9324 0
-1821 -9305 9325 0
-9306 9325 0
-1821 -9306 9326 0
-9307 9326 0
-1821 -9307 9327 0
-9308 9327 0
-1821 -9308 9328 0
-9309 9328 0
-1821 -9309 9329 0
-9310 9329 0
-1821 -9310 9330 0
-9311 9330 0
-1821 -9311 9331 0
-9312 9331 0
-1821 -9312 9332 0
-9313 9332 0
-1821 -9313 9333 0
-9314 9333 0
-1821 -9314 9334 0
-9315 9334 0
-1821 -9315 9335 0
-9316 9335 0
-1821 -9316 0
-1821 9336 0
-9317 9336 0
-1821 -9317 9337 0
-9318 9337 0
-1821 -9318 9338 0
-9319 9338 0
-1821 -9319 9339 0
-9320 9339 0
-1821 -9320 9340 0
-9321 9340 0
-1821 -9321 9341 0
-9322 9341 0
-1821 -9322 9342 0
-9323 9342 0
-1821 -9323 9343 0
-9324 9343 0
-1821 -9324 9344 0
-9325 9344 0
-1821 -9325 9345 0
-9326 9345 0
-1821 -9326 9346 0
-9327 9346 0
-1821 -9327 9347 0
-9328 9347 0
-1821 -9328 9348 0
-9329 9348 0
-1821 -9329 9349 0
-9330 9349 0
-1821 -9330 9350 0
-9331 9350 0
-1821 -9331 9351 0
-9332 9351 0
-1821 -9332 9352 0
-9333 9352 0
-1821 -9333 9353 0
-9334 9353 0
-1821 -9334 9354 0
-9335 9354 0
-1821 -9335 0
-1831 9355 0
-9336 9355 0
-1831 -9336 9356 0
-9337 9356 0
-1831 -9337 9357 0
-9338 9357 0
-1831 -9338 9358 0
-9339 9358 0
-1831 -9339 9359 0
-9340 9359 0
-1831 -9340 9360 0
-9341 9360 0
-1831 -9341 9361 0
-9342 9361 0
-1831 -9342 9362 0
-9343 9362 0
-1831 -9343 9363 0
-9344 9363 0
-1831 -9344 9364 0
-9345 9364 0
-1831 -9345 9365 0
-9346 9365 0
-1831 -9346 9366 0
-9347 9366 0
-1831 -9347 9367 0
-9348 9367 0
-1831 -9348 9368 0
-9349 9368 0
-1831 -9349 9369 0
-9350 9369 0
-1831 -9350 9370 0
-9351 9370 0
-1831 -9351 9371 0
-9352 9371 0
-1831 -9352 9372 0
-9353 9372 0
-1831 -9353 9373 0
-9354 9373 0
-1831 -9354 0
-1831 9374 0
-9355 9374 0
-1831 -9355 9375 0
-9356 9375 0
-1831 -9356 9376 0
-9357 9376 0
-1831 -9357 9377 0
-9358 9377 0
-1831 -9358 9378 0
-9359 9378 0
-1831 -9359 9379 0
-9360 9379 0
-1831 -9360 9380 0
-9361 9380 0
-1831 -9361 9381 0
-9362 9381 0
-1831 -9362 9382 0
-9363 9382 0
-1831 -9363 9383 0
-9364 9383 0
-1831 -9364 9384 0
-9365 9384 0
-1831 -9365 9385 0
-9366 9385 0
-1831 -9366 9386 0
-9367 9386 0
-1831 -9367 9387 0
-9368 9387 0
-1831 -9368 9388 0
-9369 9388 0
-1831 -9369 9389 0
-9370 9389 0
-1831 -9370 9390 0
-9371 9390 0
-1831 -9371 9391 0
-9372 9391 0
-1831 -9372 9392 0
-9373 9392 0
-1831 -9373 0
-1831 9393 0
-9374 9393 0
-1831 -9374 9394 0
-9375 9394 0
-1831 -9375 9395 0
-9376 9395 0
-1831 -9376 9396 0
-9377 9396 0
-1831 -9377 9397 0
-9378 9397 0
-1831 -9378 9398 0
-9379 9398 0
-1831 -9379 9399 0
-9380 9399 0
-1831 -9380 9400 0
-9381 9400 0
-1831 -9381 9401 0
-9382 9401 0
-1831 -9382 9402 0
-9383 9402 0
-1831 -9383 9403 0
-9384 9403 0
-1831 -9384 9404 0
-9385 9404 0
-1831 -9385 9405 0
-9386 9405 0
-1831 -9386 9406 0
-9387 9406 0
-1831 -9387 9407 0
-9388 9407 0
-1831 -9388 9408 0
-9389 9408 0
-1831 -9389 9409 0
-9390 9409 0
-1831 -9390 9410 0
-9391 9410 0
-1831 -9391 9411 0
-9392 9411 0
-1831 -9392 0
-1832 9412 0
-9393 9412 0
-1832 -9393 9413 0
-9394 9413 0
-1832 -9394 9414 0
-9395 9414 0
-1832 -9395 9415 0
-9396 9415 0
-1832 -9396 9416 0
-9397 9416 0
-1832 -9397 9417 0
-9398 9417 0
-1832 -9398 9418 0
-9399 9418 0
-1832 -9399 9419 0
-9400 9419 0
-1832 -9400 9420 0
-9401 9420 0
-1832 -9401 9421 0
-9402 9421 0
-1832 -9402 9422 0
-9403 9422 0
-1832 -9403 9423 0
-9404 9423 0
-1832 -9404 9424 0
-9405 9424 0
-1832 -9405 9425 0
-9406 9425 0
-1832 -9406 9426 0
-9407 9426 0
-1832 -9407 9427 0
-9408 9427 0
-1832 -9408 9428 0
-9409 9428 0
-1832 -9409 9429 0
-9410 9429 0
-1832 -9410 9430 0
-9411 9430 0
-1832 -9411 0
-1832 9431 0
-9412 9431 0
-1832 -9412 9432 0
-9413 9432 0
-1832 -9413 9433 0
-9414 9433 0
-1832 -9414 9434 0
-9415 9434 0
-1832 -9415 9435 0
-9416 9435 0
-1832 -9416 9436 0
-9417 9436 0
-1832 -9417 9437 0
-9418 9437 0
-1832 -9418 9438 0
-9419 9438 0
-1832 -9419 9439 0
-9420 9439 0
-1832 -9420 9440 0
-9421 9440 0
-1832 -9421 9441 0
-9422 9441 0
-1832 -9422 9442 0
-9423 9442 0
-1832 -9423 9443 0
-9424 9443 0
-1832 -9424 9444 0
-9425 9444 0
-1832 -9425 9445 0
-9426 9445 0
-1832 -9426 9446 0
-9427 9446 0
-1832 -9427 9447 0
-9428 9447 0
-1832 -9428 9448 0
-9429 9448 0
-1832 -9429 9449 0
-9430 9449 0
-1832 -9430 0
-1842 9450 0
-9431 9450 0
-1842 -9431 9451 0
-9432 9451 0
-1842 -9432 9452 0
-9433 9452 0
-1842 -9433 9453 0
-9434 9453 0
-1842 -9434 9454 0
-9435 9454 0
-1842 -9435 9455 0
-9436 9455 0
-1842 -9436 9456 0
-9437 9456 0
-1842 -9437 9457 0
-9438 9457 0
-1842 -9438 9458 0
-9439 9458 0
-1842 -9439 9459 0
-9440 9459 0
-1842 -9440 9460 0
-9441 9460 0
-1842 -9441 9461 0
-9442 9461 0
-1842 -9442 9462 0
-9443 9462 0
-1842 -9443 9463 0
-9444 9463 0
-1842 -9444 9464 0
-9445 9464 0
-1842 -9445 9465 0
-9446 9465 0
-1842 -9446 9466 0
-9447 9466 0
-1842 -9447 9467 0
-9448 9467 0
-1842 -9448 9468 0
-9449 9468 0
-1842 -9449 0
-1842 9469 0
-9450 9469 0
-1842 -9450 9470 0
-9451 9470 0
-1842 -9451 9471 0
-9452 9471 0
-1842 -9452 9472 0
-9453 9472 0
-1842 -9453 9473 0
-9454 9473 0
-1842 -9454 9474 0
-9455 9474 0
-1842 -9455 9475 0
-9456 9475 0
-1842 -9456 9476 0
-9457 9476 0
-1842 -9457 9477 0
-9458 9477 0
-1842 -9458 9478 0
-9459 9478 0
-1842 -9459 9479 0
-9460 9479 0
-1842 -9460 9480 0
-9461 9480 0
-1842 -9461 9481 0
-9462 9481 0
-1842 -9462 9482 0
-9463 9482 0
-1842 -9463 9483 0
-9464 9483 0
-1842 -9464 9484 0
-9465 9484 0
-1842 -9465 9485 0
-9466 9485 0
-1842 -9466 9486 0
-9467 9486 0
-1842 -9467 9487 0
-9468 9487 0
-1842 -9468 0
-1842 9488 0
-9469 9488 0
-1842 -9469 9489 0
-9470 9489 0
-1842 -9470 9490 0
-9471 9490 0
-1842 -9471 9491 0
-9472 9491 0
-1842 -9472 9492 0
-9473 9492 0
-1842 -9473 9493 0
-9474 9493 0
-1842 -9474 9494 0
-9475 9494 0
-1842 -9475 9495 0
-9476 9495 0
-1842 -9476 9496 0
-9477 9496 0
-1842 -9477 9497 0
-9478 9497 0
-1842 -9478 9498 0
-9479 9498 0
-1842 -9479 9499 0
-9480 9499 0
-1842 -9480 9500 0
-9481 9500 0
-1842 -9481 9501 0
-9482 9501 0
-1842 -9482 9502 0
-9483 9502 0
-1842 -9483 9503 0
-9484 9503 0
-1842 -9484 9504 0
-9485 9504 0
-1842 -9485 9505 0
-9486 9505 0
-1842 -9486 9506 0
-9487 9506 0
-1842 -9487 0
-1843 9507 0
-9488 9507 0
-1843 -9488 9508 0
-9489 9508 0
-1843 -9489 9509 0
-9490 9509 0
-1843 -9490 9510 0
-9491 9510 0
-1843 -9491 9511 0
-9492 9511 0
-1843 -9492 9512 0
-9493 9512 0
-1843 -9493 9513 0
-9494 9513 0
-1843 -9494 9514 0
-9495 9514 0
-1843 -9495 9515 0
-9496 9515 0
-1843 -9496 9516 0
-9497 9516 0
-1843 -9497 9517 0
-9498 9517 0
-1843 -9498 9518 0
-9499 9518 0
-1843 -9499 9519 0
-9500 9519 0
-1843 -9500 9520 0
-9501 9520 0
-1843 -9501 9521 0
-9502 9521 0
-1843 -9502 9522 0
-9503 9522 0
-1843 -9503 9523 0
-9504 9523 0
-1843 -9504 9524 0
-9505 9524 0
-1843 -9505 9525 0
-9506 9525 0
-1843 -9506 0
-1843 9526 0
-9507 9526 0
-1843 -9507 9527 0
-9508 9527 0
-1843 -9508 9528 0
-9509 9528 0
-1843 -9509 9529 0
-9510 9529 0
-1843 -9510 9530 0
-9511 9530 0
-1843 -9511 9531 0
-9512 9531 0
-1843 -9512 9532 0
-9513 9532 0
-1843 -9513 9533 0
-9514 9533 0
-1843 -9514 9534 0
-9515 9534 0
-1843 -9515 9535 0
-9516 9535 0
-1843 -9516 9536 0
-9517 9536 0
-1843 -9517 9537 0
-9518 9537 0
-1843 -9518 9538 0
-9519 9538 0
-1843 -9519 9539 0
-9520 9539 0
-1843 -9520 9540 0
-9521 9540 0
-1843 -9521 9541 0
-9522 9541 0
-1843 -9522 9542 0
-9523 9542 0
-1843 -9523 9543 0
-9524 9543 0
-1843 -9524 9544 0
-9525 9544 0
-1843 -9525 0
-1853 9545 0
-9526 9545 0
-1853 -9526 9546 0
-9527 9546 0
-1853 -9527 9547 0
-9528 9547 0
-1853 -9528 9548 0
-9529 9548 0
-1853 -9529 9549 0
-9530 9549 0
-1853 -9530 9550 0
-9531 9550 0
-1853 -9531 9551 0
-9532 9551 0
-1853 -9532 9552 0
-9533 9552 0
-1853 -9533 9553 0
-9534 9553 0
-1853 -9534 9554 0
-9535 9554 0
-1853 -9535 9555 0
-9536 9555 0
-1853 -9536 9556 0
-9537 9556 0
-1853 -9537 9557 0
-9538 9557 0
-1853 -9538 9558 0
-9539 9558 0
-1853 -9539 9559 0
-9540 9559 0
-1853 -9540 9560 0
-9541 9560 0
-1853 -9541 9561 0
-9542 9561 0
-1853 -9542 9562 0
-9543 9562 0
-1853 -9543 9563 0
-9544 9563 0
-1853 -9544 0
-1853 9564 0
-9545 9564 0
-1853 -9545 9565 0
-9546 9565 0
-1853 -9546 9566 0
-9547 9566 0
-1853 -9547 9567 0
-9548 9567 0
-1853 -9548 9568 0
-9549 9568 0
-1853 -9549 9569 0
-9550 9569 0
-1853 -9550 9570 0
-9551 9570 0
-1853 -9551 9571 0
-9552 9571 0
-1853 -9552 9572 0
-9553 9572 0
-1853 -9553 9573 0
-9554 9573 0
-1853 -9554 9574 0
-9555 9574 0
-1853 -9555 9575 0
-9556 9575 0
-1853 -9556 9576 0
-9557 9576 0
-1853 -9557 9577 0
-9558 9577 0
-1853 -9558 9578 0
-9559 9578 0
-1853 -9559 9579 0
-9560 9579 0
-1853 -9560 9580 0
-9561 9580 0
-1853 -9561 9581 0
-9562 9581 0
-1853 -9562 9582 0
-9563 9582 0
-1853 -9563 0
-1853 9583 0
-9564 9583 0
-1853 -9564 9584 0
-9565 9584 0
-1853 -9565 9585 0
-9566 9585 0
-1853 -9566 9586 0
-9567 9586 0
-1853 -9567 9587 0
-9568 9587 0
-1853 -9568 9588 0
-9569 9588 0
-1853 -9569 9589 0
-9570 9589 0
-1853 -9570 9590 0
-9571 9590 0
-1853 -9571 9591 0
-9572 9591 0
-1853 -9572 9592 0
-9573 9592 0
-1853 -9573 9593 0
-9574 9593 0
-1853 -9574 9594 0
-9575 9594 0
-1853 -9575 9595 0
-9576 9595 0
-1853 -9576 9596 0
-9577 9596 0
-1853 -9577 9597 0
-9578 9597 0
-1853 -9578 9598 0
-9579 9598 0
-1853 -9579 9599 0
-9580 9599 0
-1853 -9580 9600 0
-9581 9600 0
-1853 -9581 9601 0
-9582 9601 0
-1853 -9582 0
-1854 9602 0
-9583 9602 0
-1854 -9583 9603 0
-9584 9603 0
-1854 -9584 9604 0
-9585 9604 0
-1854 -9585 9605 0
-9586 9605 0
-1854 -9586 9606 0
-9587 9606 0
-1854 -9587 9607 0
-9588 9607 0
-1854 -9588 9608 0
-9589 9608 0
-1854 -9589 9609 0
-9590 9609 0
-1854 -9590 9610 0
-9591 9610 0
-1854 -9591 9611 0
-9592 9611 0
-1854 -9592 9612 0
-9593 9612 0
-1854 -9593 9613 0
-9594 9613 0
-1854 -9594 9614 0
-9595 9614 0
-1854 -9595 9615 0
-9596 9615 0
-1854 -9596 9616 0
-9597 9616 0
-1854 -9597 9617 0
-9598 9617 0
-1854 -9598 9618 0
-9599 9618 0
-1854 -9599 9619 0
-9600 9619 0
-1854 -9600 9620 0
-9601 9620 0
-1854 -9601 0
-1854 9621 0
-9602 9621 0
-1854 -9602 9622 0
-9603 9622 0
-1854 -9603 9623 0
-9604 9623 0
-1854 -9604 9624 0
-9605 9624 0
-1854 -9605 9625 0
-9606 9625 0
-1854 -9606 9626 0
-9607 9626 0
-1854 -9607 9627 0
-9608 9627 0
-1854 -9608 9628 0
-9609 9628 0
-1854 -9609 9629 0
-9610 9629 0
-1854 -9610 9630 0
-9611 9630 0
-1854 -9611 9631 0
-9612 9631 0
-1854 -9612 9632 0
-9613 9632 0
-1854 -9613 9633 0
-9614 9633 0
-1854 -9614 9634 0
-9615 9634 0
-1854 -9615 9635 0
-9616 9635 0
-1854 -9616 9636 0
-9617 9636 0
-1854 -9617 9637 0
-9618 9637 0
-1854 -9618 9638 0
-9619 9638 0
-1854 -9619 9639 0
-9620 9639 0
-1854 -9620 0
-1864 9640 0
-9621 9640 0
-1864 -9621 9641 0
-9622 9641 0
-1864 -9622 9642 0
-9623 9642 0
-1864 -9623 9643 0
-9624 9643 0
-1864 -9624 9644 0
-9625 9644 0
-1864 -9625 9645 0
-9626 9645 0
-1864 -9626 9646 0
-9627 9646 0
-1864 -9627 9647 0
-9628 9647 0
-1864 -9628 9648 0
-9629 9648 0
-1864 -9629 9649 0
-9630 9649 0
-1864 -9630 9650 0
-9631 9650 0
-1864 -9631 9651 0
-9632 9651 0
-1864 -9632 9652 0
-9633 9652 0
-1864 -9633 9653 0
-9634 9653 0
-1864 -9634 9654 0
-9635 9654 0
-1864 -9635 9655 0
-9636 9655 0
-1864 -9636 9656 0
-9637 9656 0
-1864 -9637 9657 0
-9638 9657 0
-1864 -9638 9658 0
-9639 9658 0
-1864 -9639 0
-1864 9659 0
-9640 9659 0
-1864 -9640 9660 0
-9641 9660 0
-1864 -9641 9661 0
-9642 9661 0
-1864 -9642 9662 0
-9643 9662 0
-1864 -9643 9663 0
-9644 9663 0
-1864 -9644 9664 0
-9645 9664 0
-1864 -9645 9665 0
-9646 9665 0
-1864 -9646 9666 0
-9647 9666 0
-1864 -9647 9667 0
-9648 9667 0
-1864 -9648 9668 0
-9649 9668 0
-1864 -9649 9669 0
-9650 9669 0
-1864 -9650 9670 0
-9651 9670 0
-1864 -9651 9671 0
-9652 9671 0
-1864 -9652 9672 0
-9653 9672 0
-1864 -9653 9673 0
-9654 9673 0
-1864 -9654 9674 0
-9655 9674 0
-1864 -9655 9675 0
-9656 9675 0
-1864 -9656 9676 0
-9657 9676 0
-1864 -9657 9677 0
-9658 9677 0
-1864 -9658 0
-1864 9678 0
-9659 9678 0
-1864 -9659 9679 0
-9660 9679 0
-1864 -9660 9680 0
-9661 9680 0
-1864 -9661 9681 0
-9662 9681 0
-1864 -9662 9682 0
-9663 9682 0
-1864 -9663 9683 0
-9664 9683 0
-1864 -9664 9684 0
-9665 9684 0
-1864 -9665 9685 0
-9666 9685 0
-1864 -9666 9686 0
-9667 9686 0
-1864 -9667 9687 0
-9668 9687 0
-1864 -9668 9688 0
-9669 9688 0
-1864 -9669 9689 0
-9670 9689 0
-1864 -9670 9690 0
-9671 9690 0
-1864 -9671 9691 0
-9672 9691 0
-1864 -9672 9692 0
-9673 9692 0
-1864 -9673 9693 0
-9674 9693 0
-1864 -9674 9694 0
-9675 9694 0
-1864 -9675 9695 0
-9676 9695 0
-1864 -9676 9696 0
-9677 9696 0
-1864 -9677 0
-1865 9697 0
-9678 9697 0
-1865 -9678 9698 0
-9679 9698 0
-1865 -9679 9699 0
-9680 9699 0
-1865 -9680 9700 0
-9681 9700 0
-1865 -9681 9701 0
-9682 9701 0
-1865 -9682 9702 0
-9683 9702 0
-1865 -9683 9703 0
-9684 9703 0
-1865 -9684 9704 0
-9685 9704 0
-1865 -9685 9705 0
-9686 9705 0
-1865 -9686 9706 0
-9687 9706 0
-1865 -9687 9707 0
-9688 9707 0
-1865 -9688 9708 0
-9689 9708 0
-1865 -9689 9709 0
-9690 9709 0
-1865 -9690 9710 0
-9691 9710 0
-1865 -9691 9711 0
-9692 9711 0
-1865 -9692 9712 0
-9693 9712 0
-1865 -9693 9713 0
-9694 9713 0
-1865 -9694 9714 0
-9695 9714 0
-1865 -9695 9715 0
-9696 9715 0
-1865 -9696 0
-1865 9716 0
-9697 9716 0
-1865 -9697 9717 0
-9698 9717 0
-1865 -9698 9718 0
-9699 9718 0
-1865 -9699 9719 0
-9700 9719 0
-1865 -9700 9720 0
-9701 9720 0
-1865 -9701 9721 0
-9702 9721 0
-1865 -9702 9722 0
-9703 9722 0
-1865 -9703 9723 0
-9704 9723 0
-1865 -9704 9724 0
-9705 9724 0
-1865 -9705 9725 0
-9706 9725 0
-1865 -9706 9726 0
-9707 9726 0
-1865 -9707 9727 0
-9708 9727 0
-1865 -9708 9728 0
-9709 9728 0
-1865 -9709 9729 0
-9710 9729 0
-1865 -9710 9730 0
-9711 9730 0
-1865 -9711 9731 0
-9712 9731 0
-1865 -9712 9732 0
-9713 9732 0
-1865 -9713 9733 0
-9714 9733 0
-1865 -9714 9734 0
-9715 9734 0
-1865 -9715 0
-1875 9735 0
-9716 9735 0
-1875 -9716 9736 0
-9717 9736 0
-1875 -9717 9737 0
-9718 9737 0
-1875 -9718 9738 0
-9719 9738 0
-1875 -9719 9739 0
-9720 9739 0
-1875 -9720 9740 0
-9721 9740 0
-1875 -9721 9741 0
-9722 9741 0
-1875 -9722 9742 0
-9723 9742 0
-1875 -9723 9743 0
-9724 9743 0
-1875 -9724 9744 0
-9725 9744 0
-1875 -9725 9745 0
-9726 9745 0
-1875 -9726 9746 0
-9727 9746 0
-1875 -9727 9747 0
-9728 9747 0
-1875 -9728 9748 0
-9729 9748 0
-1875 -9729 9749 0
-9730 9749 0
-1875 -9730 9750 0
-9731 9750 0
-1875 -9731 9751 0
-9732 9751 0
-1875 -9732 9752 0
-9733 9752 0
-1875 -9733 9753 0
-9734 9753 0
-1875 -9734 0
-1875 9754 0
-9735 9754 0
-1875 -9735 9755 0
-9736 9755 0
-1875 -9736 9756 0
-9737 9756 0
-1875 -9737 9757 0
-9738 9757 0
-1875 -9738 9758 0
-9739 9758 0
-1875 -9739 9759 0
-9740 9759 0
-1875 -9740 9760 0
-9741 9760 0
-1875 -9741 9761 0
-9742 9761 0
-1875 -9742 9762 0
-9743 9762 0
-1875 -9743 9763 0
-9744 9763 0
-1875 -9744 9764 0
-9745 9764 0
-1875 -9745 9765 0
-9746 9765 0
-1875 -9746 9766 0
-9747 9766 0
-1875 -9747 9767 0
-9748 9767 0
-1875 -9748 9768 0
-9749 9768 0
-1875 -9749 9769 0
-9750 9769 0
-1875 -9750 9770 0
-9751 9770 0
-1875 -9751 9771 0
-9752 9771 0
-1875 -9752 9772 0
-9753 9772 0
-1875 -9753 0
-1875 9773 0
-9754 9773 0
-1875 -9754 9774 0
-9755 9774 0
-1875 -9755 9775 0
-9756 9775 0
-1875 -9756 9776 0
-9757 9776 0
-1875 -9757 9777 0
-9758 9777 0
-1875 -9758 9778 0
-9759 9778 0
-1875 -9759 9779 0
-9760 9779 0
-1875 -9760 9780 0
-9761 9780 0
-1875 -9761 9781 0
-9762 9781 0
-1875 -9762 9782 0
-9763 9782 0
-1875 -9763 9783 0
-9764 9783 0
-1875 -9764 9784 0
-9765 9784 0
-1875 -9765 9785 0
-9766 9785 0
-1875 -9766 9786 0
-9767 9786 0
-1875 -9767 9787 0
-9768 9787 0
-1875 -9768 9788 0
-9769 9788 0
-1875 -9769 9789 0
-9770 9789 0
-1875 -9770 9790 0
-9771 9790 0
-1875 -9771 9791 0
-9772 9791 0
-1875 -9772 0
-1876 9792 0
-9773 9792 0
-1876 -9773 9793 0
-9774 9793 0
-1876 -9774 9794 0
-9775 9794 0
-1876 -9775 9795 0
-9776 9795 0
-1876 -9776 9796 0
-9777 9796 0
-1876 -9777 9797 0
-9778 9797 0
-1876 -9778 9798 0
-9779 9798 0
-1876 -9779 9799 0
-9780 9799 0
-1876 -9780 9800 0
-9781 9800 0
-1876 -9781 9801 0
-9782 9801 0
-1876 -9782 9802 0
-9783 9802 0
-1876 -9783 9803 0
-9784 9803 0
-1876 -9784 9804 0
-9785 9804 0
-1876 -9785 9805 0
-9786 9805 0
-1876 -9786 9806 0
-9787 9806 0
-1876 -9787 9807 0
-9788 9807 0
-1876 -9788 9808 0
-9789 9808 0
-1876 -9789 9809 0
-9790 9809 0
-1876 -9790 9810 0
-9791 9810 0
-1876 -9791 0
-1876 9811 0
-9792 9811 0
-1876 -9792 9812 0
-9793 9812 0
-1876 -9793 9813 0
-9794 9813 0
-1876 -9794 9814 0
-9795 9814 0
-1876 -9795 9815 0
-9796 9815 0
-1876 -9796 9816 0
-9797 9816 0
-1876 -9797 9817 0
-9798 9817 0
-1876 -9798 9818 0
-9799 9818 0
-1876 -9799 9819 0
-9800 9819 0
-1876 -9800 9820 0
-9801 9820 0
-1876 -9801 9821 0
-9802 9821 0
-1876 -9802 9822 0
-9803 9822 0
-1876 -9803 9823 0
-9804 9823 0
-1876 -9804 9824 0
-9805 9824 0
-1876 -9805 9825 0
-9806 9825 0
-1876 -9806 9826 0
-9807 9826 0
-1876 -9807 9827 0
-9808 9827 0
-1876 -9808 9828 0
-9809 9828 0
-1876 -9809 9829 0
-9810 9829 0
-1876 -9810 0
-1886 9830 0
-9811 9830 0
-1886 -9811 9831 0
-9812 9831 0
-1886 -9812 9832 0
-9813 9832 0
-1886 -9813 9833 0
-9814 9833 0
-1886 -9814 9834 0
-9815 9834 0
-1886 -9815 9835 0
-9816 9835 0
-1886 -9816 9836 0
-9817 9836 0
-1886 -9817 9837 0
-9818 9837 0
-1886 -9818 9838 0
-9819 9838 0
-1886 -9819 9839 0
-9820 9839 0
-1886 -9820 9840 0
-9821 9840 0
-1886 -9821 9841 0
-9822 9841 0
-1886 -9822 9842 0
-9823 9842 0
-1886 -9823 9843 0
-9824 9843 0
-1886 -9824 9844 0
-9825 9844 0
-1886 -9825 9845 0
-9826 9845 0
-1886 -9826 9846 0
-9827 9846 0
-1886 -9827 9847 0
-9828 9847 0
-1886 -9828 9848 0
-9829 9848 0
-1886 -9829 0
-1886 9849 0
-9830 9849 0
-1886 -9830 9850 0
-9831 9850 0
-1886 -9831 9851 0
-9832 9851 0
-1886 -9832 9852 0
-9833 9852 0
-1886 -9833 9853 0
-9834 9853 0
-1886 -9834 9854 0
-9835 9854 0
-1886 -9835 9855 0
-9836 9855 0
-1886 -9836 9856 0
-9837 9856 0
-1886 -9837 9857 0
-9838 9857 0
-1886 -9838 9858 0
-9839 9858 0
-1886 -9839 9859 0
-9840 9859 0
-1886 -9840 9860 0
-9841 9860 0
-1886 -9841 9861 0
-9842 9861 0
-1886 -9842 9862 0
-9843 9862 0
-1886 -9843 9863 0
-9844 9863 0
-1886 -9844 9864 0
-9845 9864 0
-1886 -9845 9865 0
-9846 9865 0
-1886 -9846 9866 0
-9847 9866 0
-1886 -9847 9867 0
-9848 9867 0
-1886 -9848 0
-1886 9868 0
-9849 9868 0
-1886 -9849 9869 0
-9850 9869 0
-1886 -9850 9870 0
-9851 9870 0
-1886 -9851 9871 0
-9852 9871 0
-1886 -9852 9872 0
-9853 9872 0
-1886 -9853 9873 0
-9854 9873 0
-1886 -9854 9874 0
-9855 9874 0
-1886 -9855 9875 0
-9856 9875 0
-1886 -9856 9876 0
-9857 9876 0
-1886 -9857 9877 0
-9858 9877 0
-1886 -9858 9878 0
-9859 9878 0
-1886 -9859 9879 0
-9860 9879 0
-1886 -9860 9880 0
-9861 9880 0
-1886 -9861 9881 0
-9862 9881 0
-1886 -9862 9882 0
-9863 9882 0
-1886 -9863 9883 0
-9864 9883 0
-1886 -9864 9884 0
-9865 9884 0
-1886 -9865 9885 0
-9866 9885 0
-1886 -9866 9886 0
-9867 9886 0
-1886 -9867 0
-1887 9887 0
-9868 9887 0
-1887 -9868 9888 0
-9869 9888 0
-1887 -9869 9889 0
-9870 9889 0
-1887 -9870 9890 0
-9871 9890 0
-1887 -9871 9891 0
-9872 9891 0
-1887 -9872 9892 0
-9873 9892 0
-1887 -9873 9893 0
-9874 9893 0
-1887 -9874 9894 0
-9875 9894 0
-1887 -9875 9895 0
-9876 9895 0
-1887 -9876 9896 0
-9877 9896 0
-1887 -9877 9897 0
-9878 9897 0
-1887 -9878 9898 0
-9879 9898 0
-1887 -9879 9899 0
-9880 9899 0
-1887 -9880 9900 0
-9881 9900 0
-1887 -9881 9901 0
-9882 9901 0
-1887 -9882 9902 0
-9883 9902 0
-1887 -9883 9903 0
-9884 9903 0
-1887 -9884 9904 0
-9885 9904 0
-1887 -9885 9905 0
-9886 9905 0
-1887 -9886 0
-1887 9906 0
-9887 9906 0
-1887 -9887 9907 0
-9888 9907 0
-1887 -9888 9908 0
-9889 9908 0
-1887 -9889 9909 0
-9890 9909 0
-1887 -9890 9910 0
-9891 9910 0
-1887 -9891 9911 0
-9892 9911 0
-1887 -9892 9912 0
-9893 9912 0
-1887 -9893 9913 0
-9894 9913 0
-1887 -9894 9914 0
-9895 9914 0
-1887 -9895 9915 0
-9896 9915 0
-1887 -9896 9916 0
-9897 9916 0
-1887 -9897 9917 0
-9898 9917 0
-1887 -9898 9918 0
-9899 9918 0
-1887 -9899 9919 0
-9900 9919 0
-1887 -9900 9920 0
-9901 9920 0
-1887 -9901 9921 0
-9902 9921 0
-1887 -9902 9922 0
-9903 9922 0
-1887 -9903 9923 0
-9904 9923 0
-1887 -9904 9924 0
-9905 9924 0
-1887 -9905 0
-3531 9925 0
-9906 9925 0
-3531 -9906 9926 0
-9907 9926 0
-3531 -9907 9927 0
-9908 9927 0
-3531 -9908 9928 0
-9909 9928 0
-3531 -9909 9929 0
-9910 9929 0
-3531 -9910 9930 0
-9911 9930 0
-3531 -9911 9931 0
-9912 9931 0
-3531 -9912 9932 0
-9913 9932 0
-3531 -9913 9933 0
-9914 9933 0
-3531 -9914 9934 0
-9915 9934 0
-3531 -9915 9935 0
-9916 9935 0
-3531 -9916 9936 0
-9917 9936 0
-3531 -9917 9937 0
-9918 9937 0
-3531 -9918 9938 0
-9919 9938 0
-3531 -9919 9939 0
-9920 9939 0
-3531 -9920 9940 0
-9921 9940 0
-3531 -9921 9941 0
-9922 9941 0
-3531 -9922 9942 0
-9923 9942 0
-3531 -9923 9943 0
-9924 9943 0
-3531 -9924 0
-3531 9944 0
-9925 9944 0
-3531 -9925 9945 0
-9926 9945 0
-3531 -9926 9946 0
-9927 9946 0
-3531 -9927 9947 0
-9928 9947 0
-3531 -9928 9948 0
-9929 9948 0
-3531 -9929 9949 0
-9930 9949 0
-3531 -9930 9950 0
-9931 9950 0
-3531 -9931 9951 0
-9932 9951 0
-3531 -9932 9952 0
-9933 9952 0
-3531 -9933 9953 0
-9934 9953 0
-3531 -9934 9954 0
-9935 9954 0
-3531 -9935 9955 0
-9936 9955 0
-3531 -9936 9956 0
-9937 9956 0
-3531 -9937 9957 0
-9938 9957 0
-3531 -9938 9958 0
-9939 9958 0
-3531 -9939 9959 0
-9940 9959 0
-3531 -9940 9960 0
-9941 9960 0
-3531 -9941 9961 0
-9942 9961 0
-3531 -9942 9962 0
-9943 9962 0
-3531 -9943 0
-3531 9963 0
-9944 9963 0
-3531 -9944 9964 0
-9945 9964 0
-3531 -9945 9965 0
-9946 9965 0
-3531 -9946 9966 0
-9947 9966 0
-3531 -9947 9967 0
-9948 9967 0
-3531 -9948 9968 0
-9949 9968 0
-3531 -9949 9969 0
-9950 9969 0
-3531 -9950 9970 0
-9951 9970 0
-3531 -9951 9971 0
-9952 9971 0
-3531 -9952 9972 0
-9953 9972 0
-3531 -9953 9973 0
-9954 9973 0
-3531 -9954 9974 0
-9955 9974 0
-3531 -9955 9975 0
-9956 9975 0
-3531 -9956 9976 0
-9957 9976 0
-3531 -9957 9977 0
-9958 9977 0
-3531 -9958 9978 0
-9959 9978 0
-3531 -9959 9979 0
-9960 9979 0
-3531 -9960 9980 0
-9961 9980 0
-3531 -9961 9981 0
-9962 9981 0
-3531 -9962 0
-3532 9982 0
-9963 9982 0
-3532 -9963 9983 0
-9964 9983 0
-3532 -9964 9984 0
-9965 9984 0
-3532 -9965 9985 0
-9966 9985 0
-3532 -9966 9986 0
-9967 9986 0
-3532 -9967 9987 0
-9968 9987 0
-3532 -9968 9988 0
-9969 9988 0
-3532 -9969 9989 0
-9970 9989 0
-3532 -9970 9990 0
-9971 9990 0
-3532 -9971 9991 0
-9972 9991 0
-3532 -9972 9992 0
-9973 9992 0
-3532 -9973 9993 0
-9974 9993 0
-3532 -9974 9994 0
-9975 9994 0
-3532 -9975 9995 0
-9976 9995 0
-3532 -9976 9996 0
-9977 9996 0
-3532 -9977 9997 0
-9978 9997 0
-3532 -9978 9998 0
-9979 9998 0
-3532 -9979 9999 0
-9980 9999 0
-3532 -9980 10000 0
-9981 10000 0
-3532 -9981 0
-3532 10001 0
-9982 10001 0
-3532 -9982 10002 0
-9983 10002 0
-3532 -9983 10003 0
-9984 10003 0
-3532 -9984 10004 0
-9985 10004 0
-3532 -9985 10005 0
-9986 10005 0
-3532 -9986 10006 0
-9987 10006 0
-3532 -9987 10007 0
-9988 10007 0
-3532 -9988 10008 0
-9989 10008 0
-3532 -9989 10009 0
-9990 10009 0
-3532 -9990 10010 0
-9991 10010 0
-3532 -9991 10011 0
-9992 10011 0
-3532 -9992 10012 0
-9993 10012 0
-3532 -9993 10013 0
-9994 10013 0
-3532 -9994 10014 0
-9995 10014 0
-3532 -9995 10015 0
-9996 10015 0
-3532 -9996 10016 0
-9997 10016 0
-3532 -9997 10017 0
-9998 10017 0
-3532 -9998 10018 0
-9999 10018 0
-3532 -9999 10019 0
-10000 10019 0
-3532 -10000 0
-3542 10020 0
-10001 10020 0
-3542 -10001 10021 0
-10002 10021 0
-3542 -10002 10022 0
-10003 10022 0
-3542 -10003 10023 0
-10004 10023 0
-3542 -10004 10024 0
-10005 10024 0
-3542 -10005 10025 0
-10006 10025 0
-3542 -10006 10026 0
-10007 10026 0
-3542 -10007 10027 0
-10008 10027 0
-3542 -10008 10028 0
-10009 10028 0
-3542 -10009 10029 0
-10010 10029 0
-3542 -10010 10030 0
-10011 10030 0
-3542 -10011 10031 0
-10012 10031 0
-3542 -10012 10032 0
-10013 10032 0
-3542 -10013 10033 0
-10014 10033 0
-3542 -10014 10034 0
-10015 10034 0
-3542 -10015 10035 0
-10016 10035 0
-3542 -10016 10036 0
-10017 10036 0
-3542 -10017 10037 0
-10018 10037 0
-3542 -10018 10038 0
-10019 10038 0
-3542 -10019 0
-3542 10039 0
-10020 10039 0
-3542 -10020 10040 0
-10021 10040 0
-3542 -10021 10041 0
-10022 10041 0
-3542 -10022 10042 0
-10023 10042 0
-3542 -10023 10043 0
-10024 10043 0
-3542 -10024 10044 0
-10025 10044 0
-3542 -10025 10045 0
-10026 10045 0
-3542 -10026 10046 0
-10027 10046 0
-3542 -10027 10047 0
-10028 10047 0
-3542 -10028 10048 0
-10029 10048 0
-3542 -10029 10049 0
-10030 10049 0
-3542 -10030 10050 0
-10031 10050 0
-3542 -10031 10051 0
-10032 10051 0
-3542 -10032 10052 0
-10033 10052 0
-3542 -10033 10053 0
-10034 10053 0
-3542 -10034 10054 0
-10035 10054 0
-3542 -10035 10055 0
-10036 10055 0
-3542 -10036 10056 0
-10037 10056 0
-3542 -10037 10057 0
-10038 10057 0
-3542 -10038 0
-3542 10058 0
-10039 10058 0
-3542 -10039 10059 0
-10040 10059 0
-3542 -10040 10060 0
-10041 10060 0
-3542 -10041 10061 0
-10042 10061 0
-3542 -10042 10062 0
-10043 10062 0
-3542 -10043 10063 0
-10044 10063 0
-3542 -10044 10064 0
-10045 10064 0
-3542 -10045 10065 0
-10046 10065 0
-3542 -10046 10066 0
-10047 10066 0
-3542 -10047 10067 0
-10048 10067 0
-3542 -10048 10068 0
-10049 10068 0
-3542 -10049 10069 0
-10050 10069 0
-3542 -10050 10070 0
-10051 10070 0
-3542 -10051 10071 0
-10052 10071 0
-3542 -10052 10072 0
-10053 10072 0
-3542 -10053 10073 0
-10054 10073 0
-3542 -10054 10074 0
-10055 10074 0
-3542 -10055 10075 0
-10056 10075 0
-3542 -10056 10076 0
-10057 10076 0
-3542 -10057 0
-3543 10077 0
-10058 10077 0
-3543 -10058 10078 0
-10059 10078 0
-3543 -10059 10079 0
-10060 10079 0
-3543 -10060 10080 0
-10061 10080 0
-3543 -10061 10081 0
-10062 10081 0
-3543 -10062 10082 0
-10063 10082 0
-3543 -10063 10083 0
-10064 10083 0
-3543 -10064 10084 0
-10065 10084 0
-3543 -10065 10085 0
-10066 10085 0
-3543 -10066 10086 0
-10067 10086 0
-3543 -10067 10087 0
-10068 10087 0
-3543 -10068 10088 0
-10069 10088 0
-3543 -10069 10089 0
-10070 10089 0
-3543 -10070 10090 0
-10071 10090 0
-3543 -10071 10091 0
-10072 10091 0
-3543 -10072 10092 0
-10073 10092 0
-3543 -10073 10093 0
-10074 10093 0
-3543 -10074 10094 0
-10075 10094 0
-3543 -10075 10095 0
-10076 10095 0
-3543 -10076 0
-3543 10096 0
-10077 10096 0
-3543 -10077 10097 0
-10078 10097 0
-3543 -10078 10098 0
-10079 10098 0
-3543 -10079 10099 0
-10080 10099 0
-3543 -10080 10100 0
-10081 10100 0
-3543 -10081 10101 0
-10082 10101 0
-3543 -10082 10102 0
-10083 10102 0
-3543 -10083 10103 0
-10084 10103 0
-3543 -10084 10104 0
-10085 10104 0
-3543 -10085 10105 0
-10086 10105 0
-3543 -10086 10106 0
-10087 10106 0
-3543 -10087 10107 0
-10088 10107 0
-3543 -10088 10108 0
-10089 10108 0
-3543 -10089 10109 0
-10090 10109 0
-3543 -10090 10110 0
-10091 10110 0
-3543 -10091 10111 0
-10092 10111 0
-3543 -10092 10112 0
-10093 10112 0
-3543 -10093 10113 0
-10094 10113 0
-3543 -10094 10114 0
-10095 10114 0
-3543 -10095 0
-3553 10115 0
-10096 10115 0
-3553 -10096 10116 0
-10097 10116 0
-3553 -10097 10117 0
-10098 10117 0
-3553 -10098 10118 0
-10099 10118 0
-3553 -10099 10119 0
-10100 10119 0
-3553 -10100 10120 0
-10101 10120 0
-3553 -10101 10121 0
-10102 10121 0
-3553 -10102 10122 0
-10103 10122 0
-3553 -10103 10123 0
-10104 10123 0
-3553 -10104 10124 0
-10105 10124 0
-3553 -10105 10125 0
-10106 10125 0
-3553 -10106 10126 0
-10107 10126 0
-3553 -10107 10127 0
-10108 10127 0
-3553 -10108 10128 0
-10109 10128 0
-3553 -10109 10129 0
-10110 10129 0
-3553 -10110 10130 0
-10111 10130 0
-3553 -10111 10131 0
-10112 10131 0
-3553 -10112 10132 0
-10113 10132 0
-3553 -10113 10133 0
-10114 10133 0
-3553 -10114 0
-3553 10134 0
-10115 10134 0
-3553 -10115 10135 0
-10116 10135 0
-3553 -10116 10136 0
-10117 10136 0
-3553 -10117 10137 0
-10118 10137 0
-3553 -10118 10138 0
-10119 10138 0
-3553 -10119 10139 0
-10120 10139 0
-3553 -10120 10140 0
-10121 10140 0
-3553 -10121 10141 0
-10122 10141 0
-3553 -10122 10142 0
-10123 10142 0
-3553 -10123 10143 0
-10124 10143 0
-3553 -10124 10144 0
-10125 10144 0
-3553 -10125 10145 0
-10126 10145 0
-3553 -10126 10146 0
-10127 10146 0
-3553 -10127 10147 0
-10128 10147 0
-3553 -10128 10148 0
-10129 10148 0
-3553 -10129 10149 0
-10130 10149 0
-3553 -10130 10150 0
-10131 10150 0
-3553 -10131 10151 0
-10132 10151 0
-3553 -10132 10152 0
-10133 10152 0
-3553 -10133 0
-3553 10153 0
-10134 10153 0
-3553 -10134 10154 0
-10135 10154 0
-3553 -10135 10155 0
-10136 10155 0
-3553 -10136 10156 0
-10137 10156 0
-3553 -10137 10157 0
-10138 10157 0
-3553 -10138 10158 0
-10139 10158 0
-3553 -10139 10159 0
-10140 10159 0
-3553 -10140 10160 0
-10141 10160 0
-3553 -10141 10161 0
-10142 10161 0
-3553 -10142 10162 0
-10143 10162 0
-3553 -10143 10163 0
-10144 10163 0
-3553 -10144 10164 0
-10145 10164 0
-3553 -10145 10165 0
-10146 10165 0
-3553 -10146 10166 0
-10147 10166 0
-3553 -10147 10167 0
-10148 10167 0
-3553 -10148 10168 0
-10149 10168 0
-3553 -10149 10169 0
-10150 10169 0
-3553 -10150 10170 0
-10151 10170 0
-3553 -10151 10171 0
-10152 10171 0
-3553 -10152 0
-3554 10172 0
-10153 10172 0
-3554 -10153 10173 0
-10154 10173 0
-3554 -10154 10174 0
-10155 10174 0
-3554 -10155 10175 0
-10156 10175 0
-3554 -10156 10176 0
-10157 10176 0
-3554 -10157 10177 0
-10158 10177 0
-3554 -10158 10178 0
-10159 10178 0
-3554 -10159 10179 0
-10160 10179 0
-3554 -10160 10180 0
-10161 10180 0
-3554 -10161 10181 0
-10162 10181 0
-3554 -10162 10182 0
-10163 10182 0
-3554 -10163 10183 0
-10164 10183 0
-3554 -10164 10184 0
-10165 10184 0
-3554 -10165 10185 0
-10166 10185 0
-3554 -10166 10186 0
-10167 10186 0
-3554 -10167 10187 0
-10168 10187 0
-3554 -10168 10188 0
-10169 10188 0
-3554 -10169 10189 0
-10170 10189 0
-3554 -10170 10190 0
-10171 10190 0
-3554 -10171 0
-3554 10191 0
-10172 10191 0
-3554 -10172 10192 0
-10173 10192 0
-3554 -10173 10193 0
-10174 10193 0
-3554 -10174 10194 0
-10175 10194 0
-3554 -10175 10195 0
-10176 10195 0
-3554 -10176 10196 0
-10177 10196 0
-3554 -10177 10197 0
-10178 10197 0
-3554 -10178 10198 0
-10179 10198 0
-3554 -10179 10199 0
-10180 10199 0
-3554 -10180 10200 0
-10181 10200 0
-3554 -10181 10201 0
-10182 10201 0
-3554 -10182 10202 0
-10183 10202 0
-3554 -10183 10203 0
-10184 10203 0
-3554 -10184 10204 0
-10185 10204 0
-3554 -10185 10205 0
-10186 10205 0
-3554 -10186 10206 0
-10187 10206 0
-3554 -10187 10207 0
-10188 10207 0
-3554 -10188 10208 0
-10189 10208 0
-3554 -10189 10209 0
-10190 10209 0
-3554 -10190 0
-3564 10210 0
-10191 10210 0
-3564 -10191 10211 0
-10192 10211 0
-3564 -10192 10212 0
-10193 10212 0
-3564 -10193 10213 0
-10194 10213 0
-3564 -10194 10214 0
-10195 10214 0
-3564 -10195 10215 0
-10196 10215 0
-3564 -10196 10216 0
-10197 10216 0
-3564 -10197 10217 0
-10198 10217 0
-3564 -10198 10218 0
-10199 10218 0
-3564 -10199 10219 0
-10200 10219 0
-3564 -10200 10220 0
-10201 10220 0
-3564 -10201 10221 0
-10202 10221 0
-3564 -10202 10222 0
-10203 10222 0
-3564 -10203 10223 0
-10204 10223 0
-3564 -10204 10224 0
-10205 10224 0
-3564 -10205 10225 0
-10206 10225 0
-3564 -10206 10226 0
-10207 10226 0
-3564 -10207 10227 0
-10208 10227 0
-3564 -10208 10228 0
-10209 10228 0
-3564 -10209 0
-3564 10229 0
-10210 10229 0
-3564 -10210 10230 0
-10211 10230 0
-3564 -10211 10231 0
-10212 10231 0
-3564 -10212 10232 0
-10213 10232 0
-3564 -10213 10233 0
-10214 10233 0
-3564 -10214 10234 0
-10215 10234 0
-3564 -10215 10235 0
-10216 10235 0
-3564 -10216 10236 0
-10217 10236 0
-3564 -10217 10237 0
-10218 10237 0
-3564 -10218 10238 0
-10219 10238 0
-3564 -10219 10239 0
-10220 10239 0
-3564 -10220 10240 0
-10221 10240 0
-3564 -10221 10241 0
-10222 10241 0
-3564 -10222 10242 0
-10223 10242 0
-3564 -10223 10243 0
-10224 10243 0
-3564 -10224 10244 0
-10225 10244 0
-3564 -10225 10245 0
-10226 10245 0
-3564 -10226 10246 0
-10227 10246 0
-3564 -10227 10247 0
-10228 10247 0
-3564 -10228 0
-3564 10248 0
-10229 10248 0
-3564 -10229 10249 0
-10230 10249 0
-3564 -10230 10250 0
-10231 10250 0
-3564 -10231 10251 0
-10232 10251 0
-3564 -10232 10252 0
-10233 10252 0
-3564 -10233 10253 0
-10234 10253 0
-3564 -10234 10254 0
-10235 10254 0
-3564 -10235 10255 0
-10236 10255 0
-3564 -10236 10256 0
-10237 10256 0
-3564 -10237 10257 0
-10238 10257 0
-3564 -10238 10258 0
-10239 10258 0
-3564 -10239 10259 0
-10240 10259 0
-3564 -10240 10260 0
-10241 10260 0
-3564 -10241 10261 0
-10242 10261 0
-3564 -10242 10262 0
-10243 10262 0
-3564 -10243 10263 0
-10244 10263 0
-3564 -10244 10264 0
-10245 10264 0
-3564 -10245 10265 0
-10246 10265 0
-3564 -10246 10266 0
-10247 10266 0
-3564 -10247 0
-3565 10267 0
-10248 10267 0
-3565 -10248 10268 0
-10249 10268 0
-3565 -10249 10269 0
-10250 10269 0
-3565 -10250 10270 0
-10251 10270 0
-3565 -10251 10271 0
-10252 10271 0
-3565 -10252 10272 0
-10253 10272 0
-3565 -10253 10273 0
-10254 10273 0
-3565 -10254 10274 0
-10255 10274 0
-3565 -10255 10275 0
-10256 10275 0
-3565 -10256 10276 0
-10257 10276 0
-3565 -10257 10277 0
-10258 10277 0
-3565 -10258 10278 0
-10259 10278 0
-3565 -10259 10279 0
-10260 10279 0
-3565 -10260 10280 0
-10261 10280 0
-3565 -10261 10281 0
-10262 10281 0
-3565 -10262 10282 0
-10263 10282 0
-3565 -10263 10283 0
-10264 10283 0
-3565 -10264 10284 0
-10265 10284 0
-3565 -10265 10285 0
-10266 10285 0
-3565 -10266 0
-3565 10286 0
-10267 10286 0
-3565 -10267 10287 0
-10268 10287 0
-3565 -10268 10288 0
-10269 10288 0
-3565 -10269 10289 0
-10270 10289 0
-3565 -10270 10290 0
-10271 10290 0
-3565 -10271 10291 0
-10272 10291 0
-3565 -10272 10292 0
-10273 10292 0
-3565 -10273 10293 0
-10274 10293 0
-3565 -10274 10294 0
-10275 10294 0
-3565 -10275 10295 0
-10276 10295 0
-3565 -10276 10296 0
-10277 10296 0
-3565 -10277 10297 0
-10278 10297 0
-3565 -10278 10298 0
-10279 10298 0
-3565 -10279 10299 0
-10280 10299 0
-3565 -10280 10300 0
-10281 10300 0
-3565 -10281 10301 0
-10282 10301 0
-3565 -10282 10302 0
-10283 10302 0
-3565 -10283 10303 0
-10284 10303 0
-3565 -10284 10304 0
-10285 10304 0
-3565 -10285 0
-3575 10305 0
-10286 10305 0
-3575 -10286 10306 0
-10287 10306 0
-3575 -10287 10307 0
-10288 10307 0
-3575 -10288 10308 0
-10289 10308 0
-3575 -10289 10309 0
-10290 10309 0
-3575 -10290 10310 0
-10291 10310 0
-3575 -10291 10311 0
-10292 10311 0
-3575 -10292 10312 0
-10293 10312 0
-3575 -10293 10313 0
-10294 10313 0
-3575 -10294 10314 0
-10295 10314 0
-3575 -10295 10315 0
-10296 10315 0
-3575 -10296 10316 0
-10297 10316 0
-3575 -10297 10317 0
-10298 10317 0
-3575 -10298 10318 0
-10299 10318 0
-3575 -10299 10319 0
-10300 10319 0
-3575 -10300 10320 0
-10301 10320 0
-3575 -10301 10321 0
-10302 10321 0
-3575 -10302 10322 0
-10303 10322 0
-3575 -10303 10323 0
-10304 10323 0
-3575 -10304 0
-3575 10324 0
-10305 10324 0
-3575 -10305 10325 0
-10306 10325 0
-3575 -10306 10326 0
-10307 10326 0
-3575 -10307 10327 0
-10308 10327 0
-3575 -10308 10328 0
-10309 10328 0
-3575 -10309 10329 0
-10310 10329 0
-3575 -10310 10330 0
-10311 10330 0
-3575 -10311 10331 0
-10312 10331 0
-3575 -10312 10332 0
-10313 10332 0
-3575 -10313 10333 0
-10314 10333 0
-3575 -10314 10334 0
-10315 10334 0
-3575 -10315 10335 0
-10316 10335 0
-3575 -10316 10336 0
-10317 10336 0
-3575 -10317 10337 0
-10318 10337 0
-3575 -10318 10338 0
-10319 10338 0
-3575 -10319 10339 0
-10320 10339 0
-3575 -10320 10340 0
-10321 10340 0
-3575 -10321 10341 0
-10322 10341 0
-3575 -10322 10342 0
-10323 10342 0
-3575 -10323 0
-3575 10343 0
-10324 10343 0
-3575 -10324 10344 0
-10325 10344 0
-3575 -10325 10345 0
-10326 10345 0
-3575 -10326 10346 0
-10327 10346 0
-3575 -10327 10347 0
-10328 10347 0
-3575 -10328 10348 0
-10329 10348 0
-3575 -10329 10349 0
-10330 10349 0
-3575 -10330 10350 0
-10331 10350 0
-3575 -10331 10351 0
-10332 10351 0
-3575 -10332 10352 0
-10333 10352 0
-3575 -10333 10353 0
-10334 10353 0
-3575 -10334 10354 0
-10335 10354 0
-3575 -10335 10355 0
-10336 10355 0
-3575 -10336 10356 0
-10337 10356 0
-3575 -10337 10357 0
-10338 10357 0
-3575 -10338 10358 0
-10339 10358 0
-3575 -10339 10359 0
-10340 10359 0
-3575 -10340 10360 0
-10341 10360 0
-3575 -10341 10361 0
-10342 10361 0
-3575 -10342 0
-3576 10362 0
-10343 10362 0
-3576 -10343 10363 0
-10344 10363 0
-3576 -10344 10364 0
-10345 10364 0
-3576 -10345 10365 0
-10346 10365 0
-3576 -10346 10366 0
-10347 10366 0
-3576 -10347 10367 0
-10348 10367 0
-3576 -10348 10368 0
-10349 10368 0
-3576 -10349 10369 0
-10350 10369 0
-3576 -10350 10370 0
-10351 10370 0
-3576 -10351 10371 0
-10352 10371 0
-3576 -10352 10372 0
-10353 10372 0
-3576 -10353 10373 0
-10354 10373 0
-3576 -10354 10374 0
-10355 10374 0
-3576 -10355 10375 0
-10356 10375 0
-3576 -10356 10376 0
-10357 10376 0
-3576 -10357 10377 0
-10358 10377 0
-3576 -10358 10378 0
-10359 10378 0
-3576 -10359 10379 0
-10360 10379 0
-3576 -10360 10380 0
-10361 10380 0
-3576 -10361 0
-3576 10381 0
-10362 10381 0
-3576 -10362 10382 0
-10363 10382 0
-3576 -10363 10383 0
-10364 10383 0
-3576 -10364 10384 0
-10365 10384 0
-3576 -10365 10385 0
-10366 10385 0
-3576 -10366 10386 0
-10367 10386 0
-3576 -10367 10387 0
-10368 10387 0
-3576 -10368 10388 0
-10369 10388 0
-3576 -10369 10389 0
-10370 10389 0
-3576 -10370 10390 0
-10371 10390 0
-3576 -10371 10391 0
-10372 10391 0
-3576 -10372 10392 0
-10373 10392 0
-3576 -10373 10393 0
-10374 10393 0
-3576 -10374 10394 0
-10375 10394 0
-3576 -10375 10395 0
-10376 10395 0
-3576 -10376 10396 0
-10377 10396 0
-3576 -10377 10397 0
-10378 10397 0
-3576 -10378 10398 0
-10379 10398 0
-3576 -10379 10399 0
-10380 10399 0
-3576 -10380 0
-3586 10400 0
-10381 10400 0
-3586 -10381 10401 0
-10382 10401 0
-3586 -10382 10402 0
-10383 10402 0
-3586 -10383 10403 0
-10384 10403 0
-3586 -10384 10404 0
-10385 10404 0
-3586 -10385 10405 0
-10386 10405 0
-3586 -10386 10406 0
-10387 10406 0
-3586 -10387 10407 0
-10388 10407 0
-3586 -10388 10408 0
-10389 10408 0
-3586 -10389 10409 0
-10390 10409 0
-3586 -10390 10410 0
-10391 10410 0
-3586 -10391 10411 0
-10392 10411 0
-3586 -10392 10412 0
-10393 10412 0
-3586 -10393 10413 0
-10394 10413 0
-3586 -10394 10414 0
-10395 10414 0
-3586 -10395 10415 0
-10396 10415 0
-3586 -10396 10416 0
-10397 10416 0
-3586 -10397 10417 0
-10398 10417 0
-3586 -10398 10418 0
-10399 10418 0
-3586 -10399 0
-3586 10419 0
-10400 10419 0
-3586 -10400 10420 0
-10401 10420 0
-3586 -10401 10421 0
-10402 10421 0
-3586 -10402 10422 0
-10403 10422 0
-3586 -10403 10423 0
-10404 10423 0
-3586 -10404 10424 0
-10405 10424 0
-3586 -10405 10425 0
-10406 10425 0
-3586 -10406 10426 0
-10407 10426 0
-3586 -10407 10427 0
-10408 10427 0
-3586 -10408 10428 0
-10409 10428 0
-3586 -10409 10429 0
-10410 10429 0
-3586 -10410 10430 0
-10411 10430 0
-3586 -10411 10431 0
-10412 10431 0
-3586 -10412 10432 0
-10413 10432 0
-3586 -10413 10433 0
-10414 10433 0
-3586 -10414 10434 0
-10415 10434 0
-3586 -10415 10435 0
-10416 10435 0
-3586 -10416 10436 0
-10417 10436 0
-3586 -10417 10437 0
-10418 10437 0
-3586 -10418 0
-3586 10438 0
-10419 10438 0
-3586 -10419 10439 0
-10420 10439 0
-3586 -10420 10440 0
-10421 10440 0
-3586 -10421 10441 0
-10422 10441 0
-3586 -10422 10442 0
-10423 10442 0
-3586 -10423 10443 0
-10424 10443 0
-3586 -10424 10444 0
-10425 10444 0
-3586 -10425 10445 0
-10426 10445 0
-3586 -10426 10446 0
-10427 10446 0
-3586 -10427 10447 0
-10428 10447 0
-3586 -10428 10448 0
-10429 10448 0
-3586 -10429 10449 0
-10430 10449 0
-3586 -10430 10450 0
-10431 10450 0
-3586 -10431 10451 0
-10432 10451 0
-3586 -10432 10452 0
-10433 10452 0
-3586 -10433 10453 0
-10434 10453 0
-3586 -10434 10454 0
-10435 10454 0
-3586 -10435 10455 0
-10436 10455 0
-3586 -10436 10456 0
-10437 10456 0
-3586 -10437 0
-3587 10457 0
-10438 10457 0
-3587 -10438 10458 0
-10439 10458 0
-3587 -10439 10459 0
-10440 10459 0
-3587 -10440 10460 0
-10441 10460 0
-3587 -10441 10461 0
-10442 10461 0
-3587 -10442 10462 0
-10443 10462 0
-3587 -10443 10463 0
-10444 10463 0
-3587 -10444 10464 0
-10445 10464 0
-3587 -10445 10465 0
-10446 10465 0
-3587 -10446 10466 0
-10447 10466 0
-3587 -10447 10467 0
-10448 10467 0
-3587 -10448 10468 0
-10449 10468 0
-3587 -10449 10469 0
-10450 10469 0
-3587 -10450 10470 0
-10451 10470 0
-3587 -10451 10471 0
-10452 10471 0
-3587 -10452 10472 0
-10453 10472 0
-3587 -10453 10473 0
-10454 10473 0
-3587 -10454 10474 0
-10455 10474 0
-3587 -10455 10475 0
-10456 10475 0
-3587 -10456 0
-3587 10476 0
-10457 10476 0
-3587 -10457 10477 0
-10458 10477 0
-3587 -10458 10478 0
-10459 10478 0
-3587 -10459 10479 0
-10460 10479 0
-3587 -10460 10480 0
-10461 10480 0
-3587 -10461 10481 0
-10462 10481 0
-3587 -10462 10482 0
-10463 10482 0
-3587 -10463 10483 0
-10464 10483 0
-3587 -10464 10484 0
-10465 10484 0
-3587 -10465 10485 0
-10466 10485 0
-3587 -10466 10486 0
-10467 10486 0
-3587 -10467 10487 0
-10468 10487 0
-3587 -10468 10488 0
-10469 10488 0
-3587 -10469 10489 0
-10470 10489 0
-3587 -10470 10490 0
-10471 10490 0
-3587 -10471 10491 0
-10472 10491 0
-3587 -10472 10492 0
-10473 10492 0
-3587 -10473 10493 0
-10474 10493 0
-3587 -10474 10494 0
-10475 10494 0
-3587 -10475 0
-3597 10495 0
-10476 10495 0
-3597 -10476 10496 0
-10477 10496 0
-3597 -10477 10497 0
-10478 10497 0
-3597 -10478 10498 0
-10479 10498 0
-3597 -10479 10499 0
-10480 10499 0
-3597 -10480 10500 0
-10481 10500 0
-3597 -10481 10501 0
-10482 10501 0
-3597 -10482 10502 0
-10483 10502 0
-3597 -10483 10503 0
-10484 10503 0
-3597 -10484 10504 0
-10485 10504 0
-3597 -10485 10505 0
-10486 10505 0
-3597 -10486 10506 0
-10487 10506 0
-3597 -10487 10507 0
-10488 10507 0
-3597 -10488 10508 0
-10489 10508 0
-3597 -10489 10509 0
-10490 10509 0
-3597 -10490 10510 0
-10491 10510 0
-3597 -10491 10511 0
-10492 10511 0
-3597 -10492 10512 0
-10493 10512 0
-3597 -10493 10513 0
-10494 10513 0
-3597 -10494 0
-3597 10514 0
-10495 10514 0
-3597 -10495 10515 0
-10496 10515 0
-3597 -10496 10516 0
-10497 10516 0
-3597 -10497 10517 0
-10498 10517 0
-3597 -10498 10518 0
-10499 10518 0
-3597 -10499 10519 0
-10500 10519 0
-3597 -10500 10520 0
-10501 10520 0
-3597 -10501 10521 0
-10502 10521 0
-3597 -10502 10522 0
-10503 10522 0
-3597 -10503 10523 0
-10504 10523 0
-3597 -10504 10524 0
-10505 10524 0
-3597 -10505 10525 0
-10506 10525 0
-3597 -10506 10526 0
-10507 10526 0
-3597 -10507 10527 0
-10508 10527 0
-3597 -10508 10528 0
-10509 10528 0
-3597 -10509 10529 0
-10510 10529 0
-3597 -10510 10530 0
-10511 10530 0
-3597 -10511 10531 0
-10512 10531 0
-3597 -10512 10532 0
-10513 10532 0
-3597 -10513 0
-3597 10533 0
-10514 10533 0
-3597 -10514 10534 0
-10515 10534 0
-3597 -10515 10535 0
-10516 10535 0
-3597 -10516 10536 0
-10517 10536 0
-3597 -10517 10537 0
-10518 10537 0
-3597 -10518 10538 0
-10519 10538 0
-3597 -10519 10539 0
-10520 10539 0
-3597 -10520 10540 0
-10521 10540 0
-3597 -10521 10541 0
-10522 10541 0
-3597 -10522 10542 0
-10523 10542 0
-3597 -10523 10543 0
-10524 10543 0
-3597 -10524 10544 0
-10525 10544 0
-3597 -10525 10545 0
-10526 10545 0
-3597 -10526 10546 0
-10527 10546 0
-3597 -10527 10547 0
-10528 10547 0
-3597 -10528 10548 0
-10529 10548 0
-3597 -10529 10549 0
-10530 10549 0
-3597 -10530 10550 0
-10531 10550 0
-3597 -10531 10551 0
-10532 10551 0
-3597 -10532 0
-3598 10552 0
-10533 10552 0
-3598 -10533 10553 0
-10534 10553 0
-3598 -10534 10554 0
-10535 10554 0
-3598 -10535 10555 0
-10536 10555 0
-3598 -10536 10556 0
-10537 10556 0
-3598 -10537 10557 0
-10538 10557 0
-3598 -10538 10558 0
-10539 10558 0
-3598 -10539 10559 0
-10540 10559 0
-3598 -10540 10560 0
-10541 10560 0
-3598 -10541 10561 0
-10542 10561 0
-3598 -10542 10562 0
-10543 10562 0
-3598 -10543 10563 0
-10544 10563 0
-3598 -10544 10564 0
-10545 10564 0
-3598 -10545 10565 0
-10546 10565 0
-3598 -10546 10566 0
-10547 10566 0
-3598 -10547 10567 0
-10548 10567 0
-3598 -10548 10568 0
-10549 10568 0
-3598 -10549 10569 0
-10550 10569 0
-3598 -10550 10570 0
-10551 10570 0
-3598 -10551 0
-3598 10571 0
-10552 10571 0
-3598 -10552 10572 0
-10553 10572 0
-3598 -10553 10573 0
-10554 10573 0
-3598 -10554 10574 0
-10555 10574 0
-3598 -10555 10575 0
-10556 10575 0
-3598 -10556 10576 0
-10557 10576 0
-3598 -10557 10577 0
-10558 10577 0
-3598 -10558 10578 0
-10559 10578 0
-3598 -10559 10579 0
-10560 10579 0
-3598 -10560 10580 0
-10561 10580 0
-3598 -10561 10581 0
-10562 10581 0
-3598 -10562 10582 0
-10563 10582 0
-3598 -10563 10583 0
-10564 10583 0
-3598 -10564 10584 0
-10565 10584 0
-3598 -10565 10585 0
-10566 10585 0
-3598 -10566 10586 0
-10567 10586 0
-3598 -10567 10587 0
-10568 10587 0
-3598 -10568 10588 0
-10569 10588 0
-3598 -10569 10589 0
-10570 10589 0
-3598 -10570 0
-3608 10590 0
-10571 10590 0
-3608 -10571 10591 0
-10572 10591 0
-3608 -10572 10592 0
-10573 10592 0
-3608 -10573 10593 0
-10574 10593 0
-3608 -10574 10594 0
-10575 10594 0
-3608 -10575 10595 0
-10576 10595 0
-3608 -10576 10596 0
-10577 10596 0
-3608 -10577 10597 0
-10578 10597 0
-3608 -10578 10598 0
-10579 10598 0
-3608 -10579 10599 0
-10580 10599 0
-3608 -10580 10600 0
-10581 10600 0
-3608 -10581 10601 0
-10582 10601 0
-3608 -10582 10602 0
-10583 10602 0
-3608 -10583 10603 0
-10584 10603 0
-3608 -10584 10604 0
-10585 10604 0
-3608 -10585 10605 0
-10586 10605 0
-3608 -10586 10606 0
-10587 10606 0
-3608 -10587 10607 0
-10588 10607 0
-3608 -10588 10608 0
-10589 10608 0
-3608 -10589 0
-3608 10609 0
-10590 10609 0
-3608 -10590 10610 0
-10591 10610 0
-3608 -10591 10611 0
-10592 10611 0
-3608 -10592 10612 0
-10593 10612 0
-3608 -10593 10613 0
-10594 10613 0
-3608 -10594 10614 0
-10595 10614 0
-3608 -10595 10615 0
-10596 10615 0
-3608 -10596 10616 0
-10597 10616 0
-3608 -10597 10617 0
-10598 10617 0
-3608 -10598 10618 0
-10599 10618 0
-3608 -10599 10619 0
-10600 10619 0
-3608 -10600 10620 0
-10601 10620 0
-3608 -10601 10621 0
-10602 10621 0
-3608 -10602 10622 0
-10603 10622 0
-3608 -10603 10623 0
-10604 10623 0
-3608 -10604 10624 0
-10605 10624 0
-3608 -10605 10625 0
-10606 10625 0
-3608 -10606 10626 0
-10607 10626 0
-3608 -10607 10627 0
-10608 10627 0
-3608 -10608 0
-3608 10628 0
-10609 10628 0
-3608 -10609 10629 0
-10610 10629 0
-3608 -10610 10630 0
-10611 10630 0
-3608 -10611 10631 0
-10612 10631 0
-3608 -10612 10632 0
-10613 10632 0
-3608 -10613 10633 0
-10614 10633 0
-3608 -10614 10634 0
-10615 10634 0
-3608 -10615 10635 0
-10616 10635 0
-3608 -10616 10636 0
-10617 10636 0
-3608 -10617 10637 0
-10618 10637 0
-3608 -10618 10638 0
-10619 10638 0
-3608 -10619 10639 0
-10620 10639 0
-3608 -10620 10640 0
-10621 10640 0
-3608 -10621 10641 0
-10622 10641 0
-3608 -10622 10642 0
-10623 10642 0
-3608 -10623 10643 0
-10624 10643 0
-3608 -10624 10644 0
-10625 10644 0
-3608 -10625 10645 0
-10626 10645 0
-3608 -10626 10646 0
-10627 10646 0
-3608 -10627 0
-3609 10647 0
-10628 10647 0
-3609 -10628 10648 0
-10629 10648 0
-3609 -10629 10649 0
-10630 10649 0
-3609 -10630 10650 0
-10631 10650 0
-3609 -10631 10651 0
-10632 10651 0
-3609 -10632 10652 0
-10633 10652 0
-3609 -10633 10653 0
-10634 10653 0
-3609 -10634 10654 0
-10635 10654 0
-3609 -10635 10655 0
-10636 10655 0
-3609 -10636 10656 0
-10637 10656 0
-3609 -10637 10657 0
-10638 10657 0
-3609 -10638 10658 0
-10639 10658 0
-3609 -10639 10659 0
-10640 10659 0
-3609 -10640 10660 0
-10641 10660 0
-3609 -10641 10661 0
-10642 10661 0
-3609 -10642 10662 0
-10643 10662 0
-3609 -10643 10663 0
-10644 10663 0
-3609 -10644 10664 0
-10645 10664 0
-3609 -10645 10665 0
-10646 10665 0
-3609 -10646 0
-3609 10666 0
-10647 10666 0
-3609 -10647 10667 0
-10648 10667 0
-3609 -10648 10668 0
-10649 10668 0
-3609 -10649 10669 0
-10650 10669 0
-3609 -10650 10670 0
-10651 10670 0
-3609 -10651 10671 0
-10652 10671 0
-3609 -10652 10672 0
-10653 10672 0
-3609 -10653 10673 0
-10654 10673 0
-3609 -10654 10674 0
-10655 10674 0
-3609 -10655 10675 0
-10656 10675 0
-3609 -10656 10676 0
-10657 10676 0
-3609 -10657 10677 0
-10658 10677 0
-3609 -10658 10678 0
-10659 10678 0
-3609 -10659 10679 0
-10660 10679 0
-3609 -10660 10680 0
-10661 10680 0
-3609 -10661 10681 0
-10662 10681 0
-3609 -10662 10682 0
-10663 10682 0
-3609 -10663 10683 0
-10664 10683 0
-3609 -10664 10684 0
-10665 10684 0
-3609 -10665 0
-3619 10685 0
-10666 10685 0
-3619 -10666 10686 0
-10667 10686 0
-3619 -10667 10687 0
-10668 10687 0
-3619 -10668 10688 0
-10669 10688 0
-3619 -10669 10689 0
-10670 10689 0
-3619 -10670 10690 0
-10671 10690 0
-3619 -10671 10691 0
-10672 10691 0
-3619 -10672 10692 0
-10673 10692 0
-3619 -10673 10693 0
-10674 10693 0
-3619 -10674 10694 0
-10675 10694 0
-3619 -10675 10695 0
-10676 10695 0
-3619 -10676 10696 0
-10677 10696 0
-3619 -10677 10697 0
-10678 10697 0
-3619 -10678 10698 0
-10679 10698 0
-3619 -10679 10699 0
-10680 10699 0
-3619 -10680 10700 0
-10681 10700 0
-3619 -10681 10701 0
-10682 10701 0
-3619 -10682 10702 0
-10683 10702 0
-3619 -10683 10703 0
-10684 10703 0
-3619 -10684 0
-3619 10704 0
-10685 10704 0
-3619 -10685 10705 0
-10686 10705 0
-3619 -10686 10706 0
-10687 10706 0
-3619 -10687 10707 0
-10688 10707 0
-3619 -10688 10708 0
-10689 10708 0
-3619 -10689 10709 0
-10690 10709 0
-3619 -10690 10710 0
-10691 10710 0
-3619 -10691 10711 0
-10692 10711 0
-3619 -10692 10712 0
-10693 10712 0
-3619 -10693 10713 0
-10694 10713 0
-3619 -10694 10714 0
-10695 10714 0
-3619 -10695 10715 0
-10696 10715 0
-3619 -10696 10716 0
-10697 10716 0
-3619 -10697 10717 0
-10698 10717 0
-3619 -10698 10718 0
-10699 10718 0
-3619 -10699 10719 0
-10700 10719 0
-3619 -10700 10720 0
-10701 10720 0
-3619 -10701 10721 0
-10702 10721 0
-3619 -10702 10722 0
-10703 10722 0
-3619 -10703 0
-3619 10723 0
-10704 10723 0
-3619 -10704 10724 0
-10705 10724 0
-3619 -10705 10725 0
-10706 10725 0
-3619 -10706 10726 0
-10707 10726 0
-3619 -10707 10727 0
-10708 10727 0
-3619 -10708 10728 0
-10709 10728 0
-3619 -10709 10729 0
-10710 10729 0
-3619 -10710 10730 0
-10711 10730 0
-3619 -10711 10731 0
-10712 10731 0
-3619 -10712 10732 0
-10713 10732 0
-3619 -10713 10733 0
-10714 10733 0
-3619 -10714 10734 0
-10715 10734 0
-3619 -10715 10735 0
-10716 10735 0
-3619 -10716 10736 0
-10717 10736 0
-3619 -10717 10737 0
-10718 10737 0
-3619 -10718 10738 0
-10719 10738 0
-3619 -10719 10739 0
-10720 10739 0
-3619 -10720 10740 0
-10721 10740 0
-3619 -10721 10741 0
-10722 10741 0
-3619 -10722 0
-3620 10742 0
-10723 10742 0
-3620 -10723 10743 0
-10724 10743 0
-3620 -10724 10744 0
-10725 10744 0
-3620 -10725 10745 0
-10726 10745 0
-3620 -10726 10746 0
-10727 10746 0
-3620 -10727 10747 0
-10728 10747 0
-3620 -10728 10748 0
-10729 10748 0
-3620 -10729 10749 0
-10730 10749 0
-3620 -10730 10750 0
-10731 10750 0
-3620 -10731 10751 0
-10732 10751 0
-3620 -10732 10752 0
-10733 10752 0
-3620 -10733 10753 0
-10734 10753 0
-3620 -10734 10754 0
-10735 10754 0
-3620 -10735 10755 0
-10736 10755 0
-3620 -10736 10756 0
-10737 10756 0
-3620 -10737 10757 0
-10738 10757 0
-3620 -10738 10758 0
-10739 10758 0
-3620 -10739 10759 0
-10740 10759 0
-3620 -10740 10760 0
-10741 10760 0
-3620 -10741 0
-3620 10761 0
-10742 10761 0
-3620 -10742 10762 0
-10743 10762 0
-3620 -10743 10763 0
-10744 10763 0
-3620 -10744 10764 0
-10745 10764 0
-3620 -10745 10765 0
-10746 10765 0
-3620 -10746 10766 0
-10747 10766 0
-3620 -10747 10767 0
-10748 10767 0
-3620 -10748 10768 0
-10749 10768 0
-3620 -10749 10769 0
-10750 10769 0
-3620 -10750 10770 0
-10751 10770 0
-3620 -10751 10771 0
-10752 10771 0
-3620 -10752 10772 0
-10753 10772 0
-3620 -10753 10773 0
-10754 10773 0
-3620 -10754 10774 0
-10755 10774 0
-3620 -10755 10775 0
-10756 10775 0
-3620 -10756 10776 0
-10757 10776 0
-3620 -10757 10777 0
-10758 10777 0
-3620 -10758 10778 0
-10759 10778 0
-3620 -10759 10779 0
-10760 10779 0
-3620 -10760 0
-3630 10780 0
-10761 10780 0
-3630 -10761 10781 0
-10762 10781 0
-3630 -10762 10782 0
-10763 10782 0
-3630 -10763 10783 0
-10764 10783 0
-3630 -10764 10784 0
-10765 10784 0
-3630 -10765 10785 0
-10766 10785 0
-3630 -10766 10786 0
-10767 10786 0
-3630 -10767 10787 0
-10768 10787 0
-3630 -10768 10788 0
-10769 10788 0
-3630 -10769 10789 0
-10770 10789 0
-3630 -10770 10790 0
-10771 10790 0
-3630 -10771 10791 0
-10772 10791 0
-3630 -10772 10792 0
-10773 10792 0
-3630 -10773 10793 0
-10774 10793 0
-3630 -10774 10794 0
-10775 10794 0
-3630 -10775 10795 0
-10776 10795 0
-3630 -10776 10796 0
-10777 10796 0
-3630 -10777 10797 0
-10778 10797 0
-3630 -10778 10798 0
-10779 10798 0
-3630 -10779 0
-3630 10799 0
-10780 10799 0
-3630 -10780 10800 0
-10781 10800 0
-3630 -10781 10801 0
-10782 10801 0
-3630 -10782 10802 0
-10783 10802 0
-3630 -10783 10803 0
-10784 10803 0
-3630 -10784 10804 0
-10785 10804 0
-3630 -10785 10805 0
-10786 10805 0
-3630 -10786 10806 0
-10787 10806 0
-3630 -10787 10807 0
-10788 10807 0
-3630 -10788 10808 0
-10789 10808 0
-3630 -10789 10809 0
-10790 10809 0
-3630 -10790 10810 0
-10791 10810 0
-3630 -10791 10811 0
-10792 10811 0
-3630 -10792 10812 0
-10793 10812 0
-3630 -10793 10813 0
-10794 10813 0
-3630 -10794 10814 0
-10795 10814 0
-3630 -10795 10815 0
-10796 10815 0
-3630 -10796 10816 0
-10797 10816 0
-3630 -10797 10817 0
-10798 10817 0
-3630 -10798 0
-3630 10818 0
-10799 10818 0
-3630 -10799 10819 0
-10800 10819 0
-3630 -10800 10820 0
-10801 10820 0
-3630 -10801 10821 0
-10802 10821 0
-3630 -10802 10822 0
-10803 10822 0
-3630 -10803 10823 0
-10804 10823 0
-3630 -10804 10824 0
-10805 10824 0
-3630 -10805 10825 0
-10806 10825 0
-3630 -10806 10826 0
-10807 10826 0
-3630 -10807 10827 0
-10808 10827 0
-3630 -10808 10828 0
-10809 10828 0
-3630 -10809 10829 0
-10810 10829 0
-3630 -10810 10830 0
-10811 10830 0
-3630 -10811 10831 0
-10812 10831 0
-3630 -10812 10832 0
-10813 10832 0
-3630 -10813 10833 0
-10814 10833 0
-3630 -10814 10834 0
-10815 10834 0
-3630 -10815 10835 0
-10816 10835 0
-3630 -10816 10836 0
-10817 10836 0
-3630 -10817 0
-3631 10837 0
-10818 10837 0
-3631 -10818 10838 0
-10819 10838 0
-3631 -10819 10839 0
-10820 10839 0
-3631 -10820 10840 0
-10821 10840 0
-3631 -10821 10841 0
-10822 10841 0
-3631 -10822 10842 0
-10823 10842 0
-3631 -10823 10843 0
-10824 10843 0
-3631 -10824 10844 0
-10825 10844 0
-3631 -10825 10845 0
-10826 10845 0
-3631 -10826 10846 0
-10827 10846 0
-3631 -10827 10847 0
-10828 10847 0
-3631 -10828 10848 0
-10829 10848 0
-3631 -10829 10849 0
-10830 10849 0
-3631 -10830 10850 0
-10831 10850 0
-3631 -10831 10851 0
-10832 10851 0
-3631 -10832 10852 0
-10833 10852 0
-3631 -10833 10853 0
-10834 10853 0
-3631 -10834 10854 0
-10835 10854 0
-3631 -10835 10855 0
-10836 10855 0
-3631 -10836 0
-3631 10856 0
-10837 10856 0
-3631 -10837 10857 0
-10838 10857 0
-3631 -10838 10858 0
-10839 10858 0
-3631 -10839 10859 0
-10840 10859 0
-3631 -10840 10860 0
-10841 10860 0
-3631 -10841 10861 0
-10842 10861 0
-3631 -10842 10862 0
-10843 10862 0
-3631 -10843 10863 0
-10844 10863 0
-3631 -10844 10864 0
-10845 10864 0
-3631 -10845 10865 0
-10846 10865 0
-3631 -10846 10866 0
-10847 10866 0
-3631 -10847 10867 0
-10848 10867 0
-3631 -10848 10868 0
-10849 10868 0
-3631 -10849 10869 0
-10850 10869 0
-3631 -10850 10870 0
-10851 10870 0
-3631 -10851 10871 0
-10852 10871 0
-3631 -10852 10872 0
-10853 10872 0
-3631 -10853 10873 0
-10854 10873 0
-3631 -10854 10874 0
-10855 10874 0
-3631 -10855 0
-3641 10875 0
-10856 10875 0
-3641 -10856 10876 0
-10857 10876 0
-3641 -10857 10877 0
-10858 10877 0
-3641 -10858 10878 0
-10859 10878 0
-3641 -10859 10879 0
-10860 10879 0
-3641 -10860 10880 0
-10861 10880 0
-3641 -10861 10881 0
-10862 10881 0
-3641 -10862 10882 0
-10863 10882 0
-3641 -10863 10883 0
-10864 10883 0
-3641 -10864 10884 0
-10865 10884 0
-3641 -10865 10885 0
-10866 10885 0
-3641 -10866 10886 0
-10867 10886 0
-3641 -10867 10887 0
-10868 10887 0
-3641 -10868 10888 0
-10869 10888 0
-3641 -10869 10889 0
-10870 10889 0
-3641 -10870 10890 0
-10871 10890 0
-3641 -10871 10891 0
-10872 10891 0
-3641 -10872 10892 0
-10873 10892 0
-3641 -10873 10893 0
-10874 10893 0
-3641 -10874 0
-3641 10894 0
-10875 10894 0
-3641 -10875 10895 0
-10876 10895 0
-3641 -10876 10896 0
-10877 10896 0
-3641 -10877 10897 0
-10878 10897 0
-3641 -10878 10898 0
-10879 10898 0
-3641 -10879 10899 0
-10880 10899 0
-3641 -10880 10900 0
-10881 10900 0
-3641 -10881 10901 0
-10882 10901 0
-3641 -10882 10902 0
-10883 10902 0
-3641 -10883 10903 0
-10884 10903 0
-3641 -10884 10904 0
-10885 10904 0
-3641 -10885 10905 0
-10886 10905 0
-3641 -10886 10906 0
-10887 10906 0
-3641 -10887 10907 0
-10888 10907 0
-3641 -10888 10908 0
-10889 10908 0
-3641 -10889 10909 0
-10890 10909 0
-3641 -10890 10910 0
-10891 10910 0
-3641 -10891 10911 0
-10892 10911 0
-3641 -10892 10912 0
-10893 10912 0
-3641 -10893 0
-3641 10913 0
-10894 10913 0
-3641 -10894 10914 0
-10895 10914 0
-3641 -10895 10915 0
-10896 10915 0
-3641 -10896 10916 0
-10897 10916 0
-3641 -10897 10917 0
-10898 10917 0
-3641 -10898 10918 0
-10899 10918 0
-3641 -10899 10919 0
-10900 10919 0
-3641 -10900 10920 0
-10901 10920 0
-3641 -10901 10921 0
-10902 10921 0
-3641 -10902 10922 0
-10903 10922 0
-3641 -10903 10923 0
-10904 10923 0
-3641 -10904 10924 0
-10905 10924 0
-3641 -10905 10925 0
-10906 10925 0
-3641 -10906 10926 0
-10907 10926 0
-3641 -10907 10927 0
-10908 10927 0
-3641 -10908 10928 0
-10909 10928 0
-3641 -10909 10929 0
-10910 10929 0
-3641 -10910 10930 0
-10911 10930 0
-3641 -10911 10931 0
-10912 10931 0
-3641 -10912 0
-3642 10932 0
-10913 10932 0
-3642 -10913 10933 0
-10914 10933 0
-3642 -10914 10934 0
-10915 10934 0
-3642 -10915 10935 0
-10916 10935 0
-3642 -10916 10936 0
-10917 10936 0
-3642 -10917 10937 0
-10918 10937 0
-3642 -10918 10938 0
-10919 10938 0
-3642 -10919 10939 0
-10920 10939 0
-3642 -10920 10940 0
-10921 10940 0
-3642 -10921 10941 0
-10922 10941 0
-3642 -10922 10942 0
-10923 10942 0
-3642 -10923 10943 0
-10924 10943 0
-3642 -10924 10944 0
-10925 10944 0
-3642 -10925 10945 0
-10926 10945 0
-3642 -10926 10946 0
-10927 10946 0
-3642 -10927 10947 0
-10928 10947 0
-3642 -10928 10948 0
-10929 10948 0
-3642 -10929 10949 0
-10930 10949 0
-3642 -10930 10950 0
-10931 10950 0
-3642 -10931 0
-3642 10951 0
-10932 10951 0
-3642 -10932 10952 0
-10933 10952 0
-3642 -10933 10953 0
-10934 10953 0
-3642 -10934 10954 0
-10935 10954 0
-3642 -10935 10955 0
-10936 10955 0
-3642 -10936 10956 0
-10937 10956 0
-3642 -10937 10957 0
-10938 10957 0
-3642 -10938 10958 0
-10939 10958 0
-3642 -10939 10959 0
-10940 10959 0
-3642 -10940 10960 0
-10941 10960 0
-3642 -10941 10961 0
-10942 10961 0
-3642 -10942 10962 0
-10943 10962 0
-3642 -10943 10963 0
-10944 10963 0
-3642 -10944 10964 0
-10945 10964 0
-3642 -10945 10965 0
-10946 10965 0
-3642 -10946 10966 0
-10947 10966 0
-3642 -10947 10967 0
-10948 10967 0
-3642 -10948 10968 0
-10949 10968 0
-3642 -10949 10969 0
-10950 10969 0
-3642 -10950 0
-3652 10970 0
-10951 10970 0
-3652 -10951 10971 0
-10952 10971 0
-3652 -10952 10972 0
-10953 10972 0
-3652 -10953 10973 0
-10954 10973 0
-3652 -10954 10974 0
-10955 10974 0
-3652 -10955 10975 0
-10956 10975 0
-3652 -10956 10976 0
-10957 10976 0
-3652 -10957 10977 0
-10958 10977 0
-3652 -10958 10978 0
-10959 10978 0
-3652 -10959 10979 0
-10960 10979 0
-3652 -10960 10980 0
-10961 10980 0
-3652 -10961 10981 0
-10962 10981 0
-3652 -10962 10982 0
-10963 10982 0
-3652 -10963 10983 0
-10964 10983 0
-3652 -10964 10984 0
-10965 10984 0
-3652 -10965 10985 0
-10966 10985 0
-3652 -10966 10986 0
-10967 10986 0
-3652 -10967 10987 0
-10968 10987 0
-3652 -10968 10988 0
-10969 10988 0
-3652 -10969 0
-3652 10989 0
-10970 10989 0
-3652 -10970 10990 0
-10971 10990 0
-3652 -10971 10991 0
-10972 10991 0
-3652 -10972 10992 0
-10973 10992 0
-3652 -10973 10993 0
-10974 10993 0
-3652 -10974 10994 0
-10975 10994 0
-3652 -10975 10995 0
-10976 10995 0
-3652 -10976 10996 0
-10977 10996 0
-3652 -10977 10997 0
-10978 10997 0
-3652 -10978 10998 0
-10979 10998 0
-3652 -10979 10999 0
-10980 10999 0
-3652 -10980 11000 0
-10981 11000 0
-3652 -10981 11001 0
-10982 11001 0
-3652 -10982 11002 0
-10983 11002 0
-3652 -10983 11003 0
-10984 11003 0
-3652 -10984 11004 0
-10985 11004 0
-3652 -10985 11005 0
-10986 11005 0
-3652 -10986 11006 0
-10987 11006 0
-3652 -10987 11007 0
-10988 11007 0
-3652 -10988 0
-3652 11008 0
-10989 11008 0
-3652 -10989 11009 0
-10990 11009 0
-3652 -10990 11010 0
-10991 11010 0
-3652 -10991 11011 0
-10992 11011 0
-3652 -10992 11012 0
-10993 11012 0
-3652 -10993 11013 0
-10994 11013 0
-3652 -10994 11014 0
-10995 11014 0
-3652 -10995 11015 0
-10996 11015 0
-3652 -10996 11016 0
-10997 11016 0
-3652 -10997 11017 0
-10998 11017 0
-3652 -10998 11018 0
-10999 11018 0
-3652 -10999 11019 0
-11000 11019 0
-3652 -11000 11020 0
-11001 11020 0
-3652 -11001 11021 0
-11002 11021 0
-3652 -11002 11022 0
-11003 11022 0
-3652 -11003 11023 0
-11004 11023 0
-3652 -11004 11024 0
-11005 11024 0
-3652 -11005 11025 0
-11006 11025 0
-3652 -11006 11026 0
-11007 11026 0
-3652 -11007 0
-3653 11027 0
-11008 11027 0
-3653 -11008 11028 0
-11009 11028 0
-3653 -11009 11029 0
-11010 11029 0
-3653 -11010 11030 0
-11011 11030 0
-3653 -11011 11031 0
-11012 11031 0
-3653 -11012 11032 0
-11013 11032 0
-3653 -11013 11033 0
-11014 11033 0
-3653 -11014 11034 0
-11015 11034 0
-3653 -11015 11035 0
-11016 11035 0
-3653 -11016 11036 0
-11017 11036 0
-3653 -11017 11037 0
-11018 11037 0
-3653 -11018 11038 0
-11019 11038 0
-3653 -11019 11039 0
-11020 11039 0
-3653 -11020 11040 0
-11021 11040 0
-3653 -11021 11041 0
-11022 11041 0
-3653 -11022 11042 0
-11023 11042 0
-3653 -11023 11043 0
-11024 11043 0
-3653 -11024 11044 0
-11025 11044 0
-3653 -11025 11045 0
-11026 11045 0
-3653 -11026 0
-3653 11046 0
-11027 11046 0
-3653 -11027 11047 0
-11028 11047 0
-3653 -11028 11048 0
-11029 11048 0
-3653 -11029 11049 0
-11030 11049 0
-3653 -11030 11050 0
-11031 11050 0
-3653 -11031 11051 0
-11032 11051 0
-3653 -11032 11052 0
-11033 11052 0
-3653 -11033 11053 0
-11034 11053 0
-3653 -11034 11054 0
-11035 11054 0
-3653 -11035 11055 0
-11036 11055 0
-3653 -11036 11056 0
-11037 11056 0
-3653 -11037 11057 0
-11038 11057 0
-3653 -11038 11058 0
-11039 11058 0
-3653 -11039 11059 0
-11040 11059 0
-3653 -11040 11060 0
-11041 11060 0
-3653 -11041 11061 0
-11042 11061 0
-3653 -11042 11062 0
-11043 11062 0
-3653 -11043 11063 0
-11044 11063 0
-3653 -11044 11064 0
-11045 11064 0
-3653 -11045 0
-3663 11065 0
-11046 11065 0
-3663 -11046 11066 0
-11047 11066 0
-3663 -11047 11067 0
-11048 11067 0
-3663 -11048 11068 0
-11049 11068 0
-3663 -11049 11069 0
-11050 11069 0
-3663 -11050 11070 0
-11051 11070 0
-3663 -11051 11071 0
-11052 11071 0
-3663 -11052 11072 0
-11053 11072 0
-3663 -11053 11073 0
-11054 11073 0
-3663 -11054 11074 0
-11055 11074 0
-3663 -11055 11075 0
-11056 11075 0
-3663 -11056 11076 0
-11057 11076 0
-3663 -11057 11077 0
-11058 11077 0
-3663 -11058 11078 0
-11059 11078 0
-3663 -11059 11079 0
-11060 11079 0
-3663 -11060 11080 0
-11061 11080 0
-3663 -11061 11081 0
-11062 11081 0
-3663 -11062 11082 0
-11063 11082 0
-3663 -11063 11083 0
-11064 11083 0
-3663 -11064 0
-3663 11084 0
-11065 11084 0
-3663 -11065 11085 0
-11066 11085 0
-3663 -11066 11086 0
-11067 11086 0
-3663 -11067 11087 0
-11068 11087 0
-3663 -11068 11088 0
-11069 11088 0
-3663 -11069 11089 0
-11070 11089 0
-3663 -11070 11090 0
-11071 11090 0
-3663 -11071 11091 0
-11072 11091 0
-3663 -11072 11092 0
-11073 11092 0
-3663 -11073 11093 0
-11074 11093 0
-3663 -11074 11094 0
-11075 11094 0
-3663 -11075 11095 0
-11076 11095 0
-3663 -11076 11096 0
-11077 11096 0
-3663 -11077 11097 0
-11078 11097 0
-3663 -11078 11098 0
-11079 11098 0
-3663 -11079 11099 0
-11080 11099 0
-3663 -11080 11100 0
-11081 11100 0
-3663 -11081 11101 0
-11082 11101 0
-3663 -11082 11102 0
-11083 11102 0
-3663 -11083 0
-3663 11103 0
-11084 11103 0
-3663 -11084 11104 0
-11085 11104 0
-3663 -11085 11105 0
-11086 11105 0
-3663 -11086 11106 0
-11087 11106 0
-3663 -11087 11107 0
-11088 11107 0
-3663 -11088 11108 0
-11089 11108 0
-3663 -11089 11109 0
-11090 11109 0
-3663 -11090 11110 0
-11091 11110 0
-3663 -11091 11111 0
-11092 11111 0
-3663 -11092 11112 0
-11093 11112 0
-3663 -11093 11113 0
-11094 11113 0
-3663 -11094 11114 0
-11095 11114 0
-3663 -11095 11115 0
-11096 11115 0
-3663 -11096 11116 0
-11097 11116 0
-3663 -11097 11117 0
-11098 11117 0
-3663 -11098 11118 0
-11099 11118 0
-3663 -11099 11119 0
-11100 11119 0
-3663 -11100 11120 0
-11101 11120 0
-3663 -11101 11121 0
-11102 11121 0
-3663 -11102 0
-3664 11122 0
-11103 11122 0
-3664 -11103 11123 0
-11104 11123 0
-3664 -11104 11124 0
-11105 11124 0
-3664 -11105 11125 0
-11106 11125 0
-3664 -11106 11126 0
-11107 11126 0
-3664 -11107 11127 0
-11108 11127 0
-3664 -11108 11128 0
-11109 11128 0
-3664 -11109 11129 0
-11110 11129 0
-3664 -11110 11130 0
-11111 11130 0
-3664 -11111 11131 0
-11112 11131 0
-3664 -11112 11132 0
-11113 11132 0
-3664 -11113 11133 0
-11114 11133 0
-3664 -11114 11134 0
-11115 11134 0
-3664 -11115 11135 0
-11116 11135 0
-3664 -11116 11136 0
-11117 11136 0
-3664 -11117 11137 0
-11118 11137 0
-3664 -11118 11138 0
-11119 11138 0
-3664 -11119 11139 0
-11120 11139 0
-3664 -11120 11140 0
-11121 11140 0
-3664 -11121 0
-3664 11141 0
-11122 11141 0
-3664 -11122 11142 0
-11123 11142 0
-3664 -11123 11143 0
-11124 11143 0
-3664 -11124 11144 0
-11125 11144 0
-3664 -11125 11145 0
-11126 11145 0
-3664 -11126 11146 0
-11127 11146 0
-3664 -11127 11147 0
-11128 11147 0
-3664 -11128 11148 0
-11129 11148 0
-3664 -11129 11149 0
-11130 11149 0
-3664 -11130 11150 0
-11131 11150 0
-3664 -11131 11151 0
-11132 11151 0
-3664 -11132 11152 0
-11133 11152 0
-3664 -11133 11153 0
-11134 11153 0
-3664 -11134 11154 0
-11135 11154 0
-3664 -11135 11155 0
-11136 11155 0
-3664 -11136 11156 0
-11137 11156 0
-3664 -11137 11157 0
-11138 11157 0
-3664 -11138 11158 0
-11139 11158 0
-3664 -11139 11159 0
-11140 11159 0
-3664 -11140 0
-3674 11160 0
-11141 11160 0
-3674 -11141 11161 0
-11142 11161 0
-3674 -11142 11162 0
-11143 11162 0
-3674 -11143 11163 0
-11144 11163 0
-3674 -11144 11164 0
-11145 11164 0
-3674 -11145 11165 0
-11146 11165 0
-3674 -11146 11166 0
-11147 11166 0
-3674 -11147 11167 0
-11148 11167 0
-3674 -11148 11168 0
-11149 11168 0
-3674 -11149 11169 0
-11150 11169 0
-3674 -11150 11170 0
-11151 11170 0
-3674 -11151 11171 0
-11152 11171 0
-3674 -11152 11172 0
-11153 11172 0
-3674 -11153 11173 0
-11154 11173 0
-3674 -11154 11174 0
-11155 11174 0
-3674 -11155 11175 0
-11156 11175 0
-3674 -11156 11176 0
-11157 11176 0
-3674 -11157 11177 0
-11158 11177 0
-3674 -11158 11178 0
-11159 11178 0
-3674 -11159 0
-3674 11179 0
-11160 11179 0
-3674 -11160 11180 0
-11161 11180 0
-3674 -11161 11181 0
-11162 11181 0
-3674 -11162 11182 0
-11163 11182 0
-3674 -11163 11183 0
-11164 11183 0
-3674 -11164 11184 0
-11165 11184 0
-3674 -11165 11185 0
-11166 11185 0
-3674 -11166 11186 0
-11167 11186 0
-3674 -11167 11187 0
-11168 11187 0
-3674 -11168 11188 0
-11169 11188 0
-3674 -11169 11189 0
-11170 11189 0
-3674 -11170 11190 0
-11171 11190 0
-3674 -11171 11191 0
-11172 11191 0
-3674 -11172 11192 0
-11173 11192 0
-3674 -11173 11193 0
-11174 11193 0
-3674 -11174 11194 0
-11175 11194 0
-3674 -11175 11195 0
-11176 11195 0
-3674 -11176 11196 0
-11177 11196 0
-3674 -11177 11197 0
-11178 11197 0
-3674 -11178 0
-3674 11198 0
-11179 11198 0
-3674 -11179 11199 0
-11180 11199 0
-3674 -11180 11200 0
-11181 11200 0
-3674 -11181 11201 0
-11182 11201 0
-3674 -11182 11202 0
-11183 11202 0
-3674 -11183 11203 0
-11184 11203 0
-3674 -11184 11204 0
-11185 11204 0
-3674 -11185 11205 0
-11186 11205 0
-3674 -11186 11206 0
-11187 11206 0
-3674 -11187 11207 0
-11188 11207 0
-3674 -11188 11208 0
-11189 11208 0
-3674 -11189 11209 0
-11190 11209 0
-3674 -11190 11210 0
-11191 11210 0
-3674 -11191 11211 0
-11192 11211 0
-3674 -11192 11212 0
-11193 11212 0
-3674 -11193 11213 0
-11194 11213 0
-3674 -11194 11214 0
-11195 11214 0
-3674 -11195 11215 0
-11196 11215 0
-3674 -11196 11216 0
-11197 11216 0
-3674 -11197 0
-3675 11217 0
-11198 11217 0
-3675 -11198 11218 0
-11199 11218 0
-3675 -11199 11219 0
-11200 11219 0
-3675 -11200 11220 0
-11201 11220 0
-3675 -11201 11221 0
-11202 11221 0
-3675 -11202 11222 0
-11203 11222 0
-3675 -11203 11223 0
-11204 11223 0
-3675 -11204 11224 0
-11205 11224 0
-3675 -11205 11225 0
-11206 11225 0
-3675 -11206 11226 0
-11207 11226 0
-3675 -11207 11227 0
-11208 11227 0
-3675 -11208 11228 0
-11209 11228 0
-3675 -11209 11229 0
-11210 11229 0
-3675 -11210 11230 0
-11211 11230 0
-3675 -11211 11231 0
-11212 11231 0
-3675 -11212 11232 0
-11213 11232 0
-3675 -11213 11233 0
-11214 11233 0
-3675 -11214 11234 0
-11215 11234 0
-3675 -11215 11235 0
-11216 11235 0
-3675 -11216 0
-3675 11236 0
-11217 11236 0
-3675 -11217 11237 0
-11218 11237 0
-3675 -11218 11238 0
-11219 11238 0
-3675 -11219 11239 0
-11220 11239 0
-3675 -11220 11240 0
-11221 11240 0
-3675 -11221 11241 0
-11222 11241 0
-3675 -11222 11242 0
-11223 11242 0
-3675 -11223 11243 0
-11224 11243 0
-3675 -11224 11244 0
-11225 11244 0
-3675 -11225 11245 0
-11226 11245 0
-3675 -11226 11246 0
-11227 11246 0
-3675 -11227 11247 0
-11228 11247 0
-3675 -11228 11248 0
-11229 11248 0
-3675 -11229 11249 0
-11230 11249 0
-3675 -11230 11250 0
-11231 11250 0
-3675 -11231 11251 0
-11232 11251 0
-3675 -11232 11252 0
-11233 11252 0
-3675 -11233 11253 0
-11234 11253 0
-3675 -11234 11254 0
-11235 11254 0
-3675 -11235 0
-3685 11255 0
-11236 11255 0
-3685 -11236 11256 0
-11237 11256 0
-3685 -11237 11257 0
-11238 11257 0
-3685 -11238 11258 0
-11239 11258 0
-3685 -11239 11259 0
-11240 11259 0
-3685 -11240 11260 0
-11241 11260 0
-3685 -11241 11261 0
-11242 11261 0
-3685 -11242 11262 0
-11243 11262 0
-3685 -11243 11263 0
-11244 11263 0
-3685 -11244 11264 0
-11245 11264 0
-3685 -11245 11265 0
-11246 11265 0
-3685 -11246 11266 0
-11247 11266 0
-3685 -11247 11267 0
-11248 11267 0
-3685 -11248 11268 0
-11249 11268 0
-3685 -11249 11269 0
-11250 11269 0
-3685 -11250 11270 0
-11251 11270 0
-3685 -11251 11271 0
-11252 11271 0
-3685 -11252 11272 0
-11253 11272 0
-3685 -11253 11273 0
-11254 11273 0
-3685 -11254 0
-3685 11274 0
-11255 11274 0
-3685 -11255 11275 0
-11256 11275 0
-3685 -11256 11276 0
-11257 11276 0
-3685 -11257 11277 0
-11258 11277 0
-3685 -11258 11278 0
-11259 11278 0
-3685 -11259 11279 0
-11260 11279 0
-3685 -11260 11280 0
-11261 11280 0
-3685 -11261 11281 0
-11262 11281 0
-3685 -11262 11282 0
-11263 11282 0
-3685 -11263 11283 0
-11264 11283 0
-3685 -11264 11284 0
-11265 11284 0
-3685 -11265 11285 0
-11266 11285 0
-3685 -11266 11286 0
-11267 11286 0
-3685 -11267 11287 0
-11268 11287 0
-3685 -11268 11288 0
-11269 11288 0
-3685 -11269 11289 0
-11270 11289 0
-3685 -11270 11290 0
-11271 11290 0
-3685 -11271 11291 0
-11272 11291 0
-3685 -11272 11292 0
-11273 11292 0
-3685 -11273 0
-3685 11293 0
-11274 11293 0
-3685 -11274 11294 0
-11275 11294 0
-3685 -11275 11295 0
-11276 11295 0
-3685 -11276 11296 0
-11277 11296 0
-3685 -11277 11297 0
-11278 11297 0
-3685 -11278 11298 0
-11279 11298 0
-3685 -11279 11299 0
-11280 11299 0
-3685 -11280 11300 0
-11281 11300 0
-3685 -11281 11301 0
-11282 11301 0
-3685 -11282 11302 0
-11283 11302 0
-3685 -11283 11303 0
-11284 11303 0
-3685 -11284 11304 0
-11285 11304 0
-3685 -11285 11305 0
-11286 11305 0
-3685 -11286 11306 0
-11287 11306 0
-3685 -11287 11307 0
-11288 11307 0
-3685 -11288 11308 0
-11289 11308 0
-3685 -11289 11309 0
-11290 11309 0
-3685 -11290 11310 0
-11291 11310 0
-3685 -11291 11311 0
-11292 11311 0
-3685 -11292 0
-3686 11312 0
-11293 11312 0
-3686 -11293 11313 0
-11294 11313 0
-3686 -11294 11314 0
-11295 11314 0
-3686 -11295 11315 0
-11296 11315 0
-3686 -11296 11316 0
-11297 11316 0
-3686 -11297 11317 0
-11298 11317 0
-3686 -11298 11318 0
-11299 11318 0
-3686 -11299 11319 0
-11300 11319 0
-3686 -11300 11320 0
-11301 11320 0
-3686 -11301 11321 0
-11302 11321 0
-3686 -11302 11322 0
-11303 11322 0
-3686 -11303 11323 0
-11304 11323 0
-3686 -11304 11324 0
-11305 11324 0
-3686 -11305 11325 0
-11306 11325 0
-3686 -11306 11326 0
-11307 11326 0
-3686 -11307 11327 0
-11308 11327 0
-3686 -11308 11328 0
-11309 11328 0
-3686 -11309 11329 0
-11310 11329 0
-3686 -11310 11330 0
-11311 11330 0
-3686 -11311 0
-3686 11331 0
-11312 11331 0
-3686 -11312 11332 0
-11313 11332 0
-3686 -11313 11333 0
-11314 11333 0
-3686 -11314 11334 0
-11315 11334 0
-3686 -11315 11335 0
-11316 11335 0
-3686 -11316 11336 0
-11317 11336 0
-3686 -11317 11337 0
-11318 11337 0
-3686 -11318 11338 0
-11319 11338 0
-3686 -11319 11339 0
-11320 11339 0
-3686 -11320 11340 0
-11321 11340 0
-3686 -11321 11341 0
-11322 11341 0
-3686 -11322 11342 0
-11323 11342 0
-3686 -11323 11343 0
-11324 11343 0
-3686 -11324 11344 0
-11325 11344 0
-3686 -11325 11345 0
-11326 11345 0
-3686 -11326 11346 0
-11327 11346 0
-3686 -11327 11347 0
-11328 11347 0
-3686 -11328 11348 0
-11329 11348 0
-3686 -11329 11349 0
-11330 11349 0
-3686 -11330 0
-3696 11350 0
-11331 11350 0
-3696 -11331 11351 0
-11332 11351 0
-3696 -11332 11352 0
-11333 11352 0
-3696 -11333 11353 0
-11334 11353 0
-3696 -11334 11354 0
-11335 11354 0
-3696 -11335 11355 0
-11336 11355 0
-3696 -11336 11356 0
-11337 11356 0
-3696 -11337 11357 0
-11338 11357 0
-3696 -11338 11358 0
-11339 11358 0
-3696 -11339 11359 0
-11340 11359 0
-3696 -11340 11360 0
-11341 11360 0
-3696 -11341 11361 0
-11342 11361 0
-3696 -11342 11362 0
-11343 11362 0
-3696 -11343 11363 0
-11344 11363 0
-3696 -11344 11364 0
-11345 11364 0
-3696 -11345 11365 0
-11346 11365 0
-3696 -11346 11366 0
-11347 11366 0
-3696 -11347 11367 0
-11348 11367 0
-3696 -11348 11368 0
-11349 11368 0
-3696 -11349 0
-3696 11369 0
-11350 11369 0
-3696 -11350 11370 0
-11351 11370 0
-3696 -11351 11371 0
-11352 11371 0
-3696 -11352 11372 0
-11353 11372 0
-3696 -11353 11373 0
-11354 11373 0
-3696 -11354 11374 0
-11355 11374 0
-3696 -11355 11375 0
-11356 11375 0
-3696 -11356 11376 0
-11357 11376 0
-3696 -11357 11377 0
-11358 11377 0
-3696 -11358 11378 0
-11359 11378 0
-3696 -11359 11379 0
-11360 11379 0
-3696 -11360 11380 0
-11361 11380 0
-3696 -11361 11381 0
-11362 11381 0
-3696 -11362 11382 0
-11363 11382 0
-3696 -11363 11383 0
-11364 11383 0
-3696 -11364 11384 0
-11365 11384 0
-3696 -11365 11385 0
-11366 11385 0
-3696 -11366 11386 0
-11367 11386 0
-3696 -11367 11387 0
-11368 11387 0
-3696 -11368 0
-3696 11388 0
-11369 11388 0
-3696 -11369 11389 0
-11370 11389 0
-3696 -11370 11390 0
-11371 11390 0
-3696 -11371 11391 0
-11372 11391 0
-3696 -11372 11392 0
-11373 11392 0
-3696 -11373 11393 0
-11374 11393 0
-3696 -11374 11394 0
-11375 11394 0
-3696 -11375 11395 0
-11376 11395 0
-3696 -11376 11396 0
-11377 11396 0
-3696 -11377 11397 0
-11378 11397 0
-3696 -11378 11398 0
-11379 11398 0
-3696 -11379 11399 0
-11380 11399 0
-3696 -11380 11400 0
-11381 11400 0
-3696 -11381 11401 0
-11382 11401 0
-3696 -11382 11402 0
-11383 11402 0
-3696 -11383 11403 0
-11384 11403 0
-3696 -11384 11404 0
-11385 11404 0
-3696 -11385 11405 0
-11386 11405 0
-3696 -11386 11406 0
-11387 11406 0
-3696 -11387 0
-3697 11407 0
-11388 11407 0
-3697 -11388 11408 0
-11389 11408 0
-3697 -11389 11409 0
-11390 11409 0
-3697 -11390 11410 0
-11391 11410 0
-3697 -11391 11411 0
-11392 11411 0
-3697 -11392 11412 0
-11393 11412 0
-3697 -11393 11413 0
-11394 11413 0
-3697 -11394 11414 0
-11395 11414 0
-3697 -11395 11415 0
-11396 11415 0
-3697 -11396 11416 0
-11397 11416 0
-3697 -11397 11417 0
-11398 11417 0
-3697 -11398 11418 0
-11399 11418 0
-3697 -11399 11419 0
-11400 11419 0
-3697 -11400 11420 0
-11401 11420 0
-3697 -11401 11421 0
-11402 11421 0
-3697 -11402 11422 0
-11403 11422 0
-3697 -11403 11423 0
-11404 11423 0
-3697 -11404 11424 0
-11405 11424 0
-3697 -11405 11425 0
-11406 11425 0
-3697 -11406 0
-3697 11426 0
-11407 11426 0
-3697 -11407 11427 0
-11408 11427 0
-3697 -11408 11428 0
-11409 11428 0
-3697 -11409 11429 0
-11410 11429 0
-3697 -11410 11430 0
-11411 11430 0
-3697 -11411 11431 0
-11412 11431 0
-3697 -11412 11432 0
-11413 11432 0
-3697 -11413 11433 0
-11414 11433 0
-3697 -11414 11434 0
-11415 11434 0
-3697 -11415 11435 0
-11416 11435 0
-3697 -11416 11436 0
-11417 11436 0
-3697 -11417 11437 0
-11418 11437 0
-3697 -11418 11438 0
-11419 11438 0
-3697 -11419 11439 0
-11420 11439 0
-3697 -11420 11440 0
-11421 11440 0
-3697 -11421 11441 0
-11422 11441 0
-3697 -11422 11442 0
-11423 11442 0
-3697 -11423 11443 0
-11424 11443 0
-3697 -11424 11444 0
-11425 11444 0
-3697 -11425 0
-3707 11445 0
-11426 11445 0
-3707 -11426 11446 0
-11427 11446 0
-3707 -11427 11447 0
-11428 11447 0
-3707 -11428 11448 0
-11429 11448 0
-3707 -11429 11449 0
-11430 11449 0
-3707 -11430 11450 0
-11431 11450 0
-3707 -11431 11451 0
-11432 11451 0
-3707 -11432 11452 0
-11433 11452 0
-3707 -11433 11453 0
-11434 11453 0
-3707 -11434 11454 0
-11435 11454 0
-3707 -11435 11455 0
-11436 11455 0
-3707 -11436 11456 0
-11437 11456 0
-3707 -11437 11457 0
-11438 11457 0
-3707 -11438 11458 0
-11439 11458 0
-3707 -11439 11459 0
-11440 11459 0
-3707 -11440 11460 0
-11441 11460 0
-3707 -11441 11461 0
-11442 11461 0
-3707 -11442 11462 0
-11443 11462 0
-3707 -11443 11463 0
-11444 11463 0
-3707 -11444 0
-3707 11464 0
-11445 11464 0
-3707 -11445 11465 0
-11446 11465 0
-3707 -11446 11466 0
-11447 11466 0
-3707 -11447 11467 0
-11448 11467 0
-3707 -11448 11468 0
-11449 11468 0
-3707 -11449 11469 0
-11450 11469 0
-3707 -11450 11470 0
-11451 11470 0
-3707 -11451 11471 0
-11452 11471 0
-3707 -11452 11472 0
-11453 11472 0
-3707 -11453 11473 0
-11454 11473 0
-3707 -11454 11474 0
-11455 11474 0
-3707 -11455 11475 0
-11456 11475 0
-3707 -11456 11476 0
-11457 11476 0
-3707 -11457 11477 0
-11458 11477 0
-3707 -11458 11478 0
-11459 11478 0
-3707 -11459 11479 0
-11460 11479 0
-3707 -11460 11480 0
-11461 11480 0
-3707 -11461 11481 0
-11462 11481 0
-3707 -11462 11482 0
-11463 11482 0
-3707 -11463 0
-3707 11483 0
-11464 11483 0
-3707 -11464 11484 0
-11465 11484 0
-3707 -11465 11485 0
-11466 11485 0
-3707 -11466 11486 0
-11467 11486 0
-3707 -11467 11487 0
-11468 11487 0
-3707 -11468 11488 0
-11469 11488 0
-3707 -11469 11489 0
-11470 11489 0
-3707 -11470 11490 0
-11471 11490 0
-3707 -11471 11491 0
-11472 11491 0
-3707 -11472 11492 0
-11473 11492 0
-3707 -11473 11493 0
-11474 11493 0
-3707 -11474 11494 0
-11475 11494 0
-3707 -11475 11495 0
-11476 11495 0
-3707 -11476 11496 0
-11477 11496 0
-3707 -11477 11497 0
-11478 11497 0
-3707 -11478 11498 0
-11479 11498 0
-3707 -11479 11499 0
-11480 11499 0
-3707 -11480 11500 0
-11481 11500 0
-3707 -11481 11501 0
-11482 11501 0
-3707 -11482 0
-3708 11502 0
-11483 11502 0
-3708 -11483 11503 0
-11484 11503 0
-3708 -11484 11504 0
-11485 11504 0
-3708 -11485 11505 0
-11486 11505 0
-3708 -11486 11506 0
-11487 11506 0
-3708 -11487 11507 0
-11488 11507 0
-3708 -11488 11508 0
-11489 11508 0
-3708 -11489 11509 0
-11490 11509 0
-3708 -11490 11510 0
-11491 11510 0
-3708 -11491 11511 0
-11492 11511 0
-3708 -11492 11512 0
-11493 11512 0
-3708 -11493 11513 0
-11494 11513 0
-3708 -11494 11514 0
-11495 11514 0
-3708 -11495 11515 0
-11496 11515 0
-3708 -11496 11516 0
-11497 11516 0
-3708 -11497 11517 0
-11498 11517 0
-3708 -11498 11518 0
-11499 11518 0
-3708 -11499 11519 0
-11500 11519 0
-3708 -11500 11520 0
-11501 11520 0
-3708 -11501 0
-3708 11521 0
-11502 11521 0
-3708 -11502 11522 0
-11503 11522 0
-3708 -11503 11523 0
-11504 11523 0
-3708 -11504 11524 0
-11505 11524 0
-3708 -11505 11525 0
-11506 11525 0
-3708 -11506 11526 0
-11507 11526 0
-3708 -11507 11527 0
-11508 11527 0
-3708 -11508 11528 0
-11509 11528 0
-3708 -11509 11529 0
-11510 11529 0
-3708 -11510 11530 0
-11511 11530 0
-3708 -11511 11531 0
-11512 11531 0
-3708 -11512 11532 0
-11513 11532 0
-3708 -11513 11533 0
-11514 11533 0
-3708 -11514 11534 0
-11515 11534 0
-3708 -11515 11535 0
-11516 11535 0
-3708 -11516 11536 0
-11517 11536 0
-3708 -11517 11537 0
-11518 11537 0
-3708 -11518 11538 0
-11519 11538 0
-3708 -11519 11539 0
-11520 11539 0
-3708 -11520 0
-3718 11540 0
-11521 11540 0
-3718 -11521 11541 0
-11522 11541 0
-3718 -11522 11542 0
-11523 11542 0
-3718 -11523 11543 0
-11524 11543 0
-3718 -11524 11544 0
-11525 11544 0
-3718 -11525 11545 0
-11526 11545 0
-3718 -11526 11546 0
-11527 11546 0
-3718 -11527 11547 0
-11528 11547 0
-3718 -11528 11548 0
-11529 11548 0
-3718 -11529 11549 0
-11530 11549 0
-3718 -11530 11550 0
-11531 11550 0
-3718 -11531 11551 0
-11532 11551 0
-3718 -11532 11552 0
-11533 11552 0
-3718 -11533 11553 0
-11534 11553 0
-3718 -11534 11554 0
-11535 11554 0
-3718 -11535 11555 0
-11536 11555 0
-3718 -11536 11556 0
-11537 11556 0
-3718 -11537 11557 0
-11538 11557 0
-3718 -11538 11558 0
-11539 11558 0
-3718 -11539 0
-3718 11559 0
-11540 11559 0
-3718 -11540 11560 0
-11541 11560 0
-3718 -11541 11561 0
-11542 11561 0
-3718 -11542 11562 0
-11543 11562 0
-3718 -11543 11563 0
-11544 11563 0
-3718 -11544 11564 0
-11545 11564 0
-3718 -11545 11565 0
-11546 11565 0
-3718 -11546 11566 0
-11547 11566 0
-3718 -11547 11567 0
-11548 11567 0
-3718 -11548 11568 0
-11549 11568 0
-3718 -11549 11569 0
-11550 11569 0
-3718 -11550 11570 0
-11551 11570 0
-3718 -11551 11571 0
-11552 11571 0
-3718 -11552 11572 0
-11553 11572 0
-3718 -11553 11573 0
-11554 11573 0
-3718 -11554 11574 0
-11555 11574 0
-3718 -11555 11575 0
-11556 11575 0
-3718 -11556 11576 0
-11557 11576 0
-3718 -11557 11577 0
-11558 11577 0
-3718 -11558 0
-3718 11578 0
-11559 11578 0
-3718 -11559 11579 0
-11560 11579 0
-3718 -11560 11580 0
-11561 11580 0
-3718 -11561 11581 0
-11562 11581 0
-3718 -11562 11582 0
-11563 11582 0
-3718 -11563 11583 0
-11564 11583 0
-3718 -11564 11584 0
-11565 11584 0
-3718 -11565 11585 0
-11566 11585 0
-3718 -11566 11586 0
-11567 11586 0
-3718 -11567 11587 0
-11568 11587 0
-3718 -11568 11588 0
-11569 11588 0
-3718 -11569 11589 0
-11570 11589 0
-3718 -11570 11590 0
-11571 11590 0
-3718 -11571 11591 0
-11572 11591 0
-3718 -11572 11592 0
-11573 11592 0
-3718 -11573 11593 0
-11574 11593 0
-3718 -11574 11594 0
-11575 11594 0
-3718 -11575 11595 0
-11576 11595 0
-3718 -11576 11596 0
-11577 11596 0
-3718 -11577 0
-3719 11597 0
-11578 11597 0
-3719 -11578 11598 0
-11579 11598 0
-3719 -11579 11599 0
-11580 11599 0
-3719 -11580 11600 0
-11581 11600 0
-3719 -11581 11601 0
-11582 11601 0
-3719 -11582 11602 0
-11583 11602 0
-3719 -11583 11603 0
-11584 11603 0
-3719 -11584 11604 0
-11585 11604 0
-3719 -11585 11605 0
-11586 11605 0
-3719 -11586 11606 0
-11587 11606 0
-3719 -11587 11607 0
-11588 11607 0
-3719 -11588 11608 0
-11589 11608 0
-3719 -11589 11609 0
-11590 11609 0
-3719 -11590 11610 0
-11591 11610 0
-3719 -11591 11611 0
-11592 11611 0
-3719 -11592 11612 0
-11593 11612 0
-3719 -11593 11613 0
-11594 11613 0
-3719 -11594 11614 0
-11595 11614 0
-3719 -11595 11615 0
-11596 11615 0
-3719 -11596 0
-3719 11616 0
-11597 11616 0
-3719 -11597 11617 0
-11598 11617 0
-3719 -11598 11618 0
-11599 11618 0
-3719 -11599 11619 0
-11600 11619 0
-3719 -11600 11620 0
-11601 11620 0
-3719 -11601 11621 0
-11602 11621 0
-3719 -11602 11622 0
-11603 11622 0
-3719 -11603 11623 0
-11604 11623 0
-3719 -11604 11624 0
-11605 11624 0
-3719 -11605 11625 0
-11606 11625 0
-3719 -11606 11626 0
-11607 11626 0
-3719 -11607 11627 0
-11608 11627 0
-3719 -11608 11628 0
-11609 11628 0
-3719 -11609 11629 0
-11610 11629 0
-3719 -11610 11630 0
-11611 11630 0
-3719 -11611 11631 0
-11612 11631 0
-3719 -11612 11632 0
-11613 11632 0
-3719 -11613 11633 0
-11614 11633 0
-3719 -11614 11634 0
-11615 11634 0
-3719 -11615 0
-3729 11635 0
-11616 11635 0
-3729 -11616 11636 0
-11617 11636 0
-3729 -11617 11637 0
-11618 11637 0
-3729 -11618 11638 0
-11619 11638 0
-3729 -11619 11639 0
-11620 11639 0
-3729 -11620 11640 0
-11621 11640 0
-3729 -11621 11641 0
-11622 11641 0
-3729 -11622 11642 0
-11623 11642 0
-3729 -11623 11643 0
-11624 11643 0
-3729 -11624 11644 0
-11625 11644 0
-3729 -11625 11645 0
-11626 11645 0
-3729 -11626 11646 0
-11627 11646 0
-3729 -11627 11647 0
-11628 11647 0
-3729 -11628 11648 0
-11629 11648 0
-3729 -11629 11649 0
-11630 11649 0
-3729 -11630 11650 0
-11631 11650 0
-3729 -11631 11651 0
-11632 11651 0
-3729 -11632 11652 0
-11633 11652 0
-3729 -11633 11653 0
-11634 11653 0
-3729 -11634 0
-3729 11654 0
-11635 11654 0
-3729 -11635 11655 0
-11636 11655 0
-3729 -11636 11656 0
-11637 11656 0
-3729 -11637 11657 0
-11638 11657 0
-3729 -11638 11658 0
-11639 11658 0
-3729 -11639 11659 0
-11640 11659 0
-3729 -11640 11660 0
-11641 11660 0
-3729 -11641 11661 0
-11642 11661 0
-3729 -11642 11662 0
-11643 11662 0
-3729 -11643 11663 0
-11644 11663 0
-3729 -11644 11664 0
-11645 11664 0
-3729 -11645 11665 0
-11646 11665 0
-3729 -11646 11666 0
-11647 11666 0
-3729 -11647 11667 0
-11648 11667 0
-3729 -11648 11668 0
-11649 11668 0
-3729 -11649 11669 0
-11650 11669 0
-3729 -11650 11670 0
-11651 11670 0
-3729 -11651 11671 0
-11652 11671 0
-3729 -11652 11672 0
-11653 11672 0
-3729 -11653 0
-3729 11673 0
-11654 11673 0
-3729 -11654 11674 0
-11655 11674 0
-3729 -11655 11675 0
-11656 11675 0
-3729 -11656 11676 0
-11657 11676 0
-3729 -11657 11677 0
-11658 11677 0
-3729 -11658 11678 0
-11659 11678 0
-3729 -11659 11679 0
-11660 11679 0
-3729 -11660 11680 0
-11661 11680 0
-3729 -11661 11681 0
-11662 11681 0
-3729 -11662 11682 0
-11663 11682 0
-3729 -11663 11683 0
-11664 11683 0
-3729 -11664 11684 0
-11665 11684 0
-3729 -11665 11685 0
-11666 11685 0
-3729 -11666 11686 0
-11667 11686 0
-3729 -11667 11687 0
-11668 11687 0
-3729 -11668 11688 0
-11669 11688 0
-3729 -11669 11689 0
-11670 11689 0
-3729 -11670 11690 0
-11671 11690 0
-3729 -11671 11691 0
-11672 11691 0
-3729 -11672 0
-3730 11692 0
-11673 11692 0
-3730 -11673 11693 0
-11674 11693 0
-3730 -11674 11694 0
-11675 11694 0
-3730 -11675 11695 0
-11676 11695 0
-3730 -11676 11696 0
-11677 11696 0
-3730 -11677 11697 0
-11678 11697 0
-3730 -11678 11698 0
-11679 11698 0
-3730 -11679 11699 0
-11680 11699 0
-3730 -11680 11700 0
-11681 11700 0
-3730 -11681 11701 0
-11682 11701 0
-3730 -11682 11702 0
-11683 11702 0
-3730 -11683 11703 0
-11684 11703 0
-3730 -11684 11704 0
-11685 11704 0
-3730 -11685 11705 0
-11686 11705 0
-3730 -11686 11706 0
-11687 11706 0
-3730 -11687 11707 0
-11688 11707 0
-3730 -11688 11708 0
-11689 11708 0
-3730 -11689 11709 0
-11690 11709 0
-3730 -11690 11710 0
-11691 11710 0
-3730 -11691 0
-3730 11711 0
-11692 11711 0
-3730 -11692 11712 0
-11693 11712 0
-3730 -11693 11713 0
-11694 11713 0
-3730 -11694 11714 0
-11695 11714 0
-3730 -11695 11715 0
-11696 11715 0
-3730 -11696 11716 0
-11697 11716 0
-3730 -11697 11717 0
-11698 11717 0
-3730 -11698 11718 0
-11699 11718 0
-3730 -11699 11719 0
-11700 11719 0
-3730 -11700 11720 0
-11701 11720 0
-3730 -11701 11721 0
-11702 11721 0
-3730 -11702 11722 0
-11703 11722 0
-3730 -11703 11723 0
-11704 11723 0
-3730 -11704 11724 0
-11705 11724 0
-3730 -11705 11725 0
-11706 11725 0
-3730 -11706 11726 0
-11707 11726 0
-3730 -11707 11727 0
-11708 11727 0
-3730 -11708 11728 0
-11709 11728 0
-3730 -11709 11729 0
-11710 11729 0
-3730 -11710 0
-3740 11730 0
-11711 11730 0
-3740 -11711 11731 0
-11712 11731 0
-3740 -11712 11732 0
-11713 11732 0
-3740 -11713 11733 0
-11714 11733 0
-3740 -11714 11734 0
-11715 11734 0
-3740 -11715 11735 0
-11716 11735 0
-3740 -11716 11736 0
-11717 11736 0
-3740 -11717 11737 0
-11718 11737 0
-3740 -11718 11738 0
-11719 11738 0
-3740 -11719 11739 0
-11720 11739 0
-3740 -11720 11740 0
-11721 11740 0
-3740 -11721 11741 0
-11722 11741 0
-3740 -11722 11742 0
-11723 11742 0
-3740 -11723 11743 0
-11724 11743 0
-3740 -11724 11744 0
-11725 11744 0
-3740 -11725 11745 0
-11726 11745 0
-3740 -11726 11746 0
-11727 11746 0
-3740 -11727 11747 0
-11728 11747 0
-3740 -11728 11748 0
-11729 11748 0
-3740 -11729 0
-3740 11749 0
-11730 11749 0
-3740 -11730 11750 0
-11731 11750 0
-3740 -11731 11751 0
-11732 11751 0
-3740 -11732 11752 0
-11733 11752 0
-3740 -11733 11753 0
-11734 11753 0
-3740 -11734 11754 0
-11735 11754 0
-3740 -11735 11755 0
-11736 11755 0
-3740 -11736 11756 0
-11737 11756 0
-3740 -11737 11757 0
-11738 11757 0
-3740 -11738 11758 0
-11739 11758 0
-3740 -11739 11759 0
-11740 11759 0
-3740 -11740 11760 0
-11741 11760 0
-3740 -11741 11761 0
-11742 11761 0
-3740 -11742 11762 0
-11743 11762 0
-3740 -11743 11763 0
-11744 11763 0
-3740 -11744 11764 0
-11745 11764 0
-3740 -11745 11765 0
-11746 11765 0
-3740 -11746 11766 0
-11747 11766 0
-3740 -11747 11767 0
-11748 11767 0
-3740 -11748 0
-3740 11768 0
-11749 11768 0
-3740 -11749 11769 0
-11750 11769 0
-3740 -11750 11770 0
-11751 11770 0
-3740 -11751 11771 0
-11752 11771 0
-3740 -11752 11772 0
-11753 11772 0
-3740 -11753 11773 0
-11754 11773 0
-3740 -11754 11774 0
-11755 11774 0
-3740 -11755 11775 0
-11756 11775 0
-3740 -11756 11776 0
-11757 11776 0
-3740 -11757 11777 0
-11758 11777 0
-3740 -11758 11778 0
-11759 11778 0
-3740 -11759 11779 0
-11760 11779 0
-3740 -11760 11780 0
-11761 11780 0
-3740 -11761 11781 0
-11762 11781 0
-3740 -11762 11782 0
-11763 11782 0
-3740 -11763 11783 0
-11764 11783 0
-3740 -11764 11784 0
-11765 11784 0
-3740 -11765 11785 0
-11766 11785 0
-3740 -11766 11786 0
-11767 11786 0
-3740 -11767 0
-3741 11787 0
-11768 11787 0
-3741 -11768 11788 0
-11769 11788 0
-3741 -11769 11789 0
-11770 11789 0
-3741 -11770 11790 0
-11771 11790 0
-3741 -11771 11791 0
-11772 11791 0
-3741 -11772 11792 0
-11773 11792 0
-3741 -11773 11793 0
-11774 11793 0
-3741 -11774 11794 0
-11775 11794 0
-3741 -11775 11795 0
-11776 11795 0
-3741 -11776 11796 0
-11777 11796 0
-3741 -11777 11797 0
-11778 11797 0
-3741 -11778 11798 0
-11779 11798 0
-3741 -11779 11799 0
-11780 11799 0
-3741 -11780 11800 0
-11781 11800 0
-3741 -11781 11801 0
-11782 11801 0
-3741 -11782 11802 0
-11783 11802 0
-3741 -11783 11803 0
-11784 11803 0
-3741 -11784 11804 0
-11785 11804 0
-3741 -11785 11805 0
-11786 11805 0
-3741 -11786 0
-3741 11806 0
-11787 11806 0
-3741 -11787 11807 0
-11788 11807 0
-3741 -11788 11808 0
-11789 11808 0
-3741 -11789 11809 0
-11790 11809 0
-3741 -11790 11810 0
-11791 11810 0
-3741 -11791 11811 0
-11792 11811 0
-3741 -11792 11812 0
-11793 11812 0
-3741 -11793 11813 0
-11794 11813 0
-3741 -11794 11814 0
-11795 11814 0
-3741 -11795 11815 0
-11796 11815 0
-3741 -11796 11816 0
-11797 11816 0
-3741 -11797 11817 0
-11798 11817 0
-3741 -11798 11818 0
-11799 11818 0
-3741 -11799 11819 0
-11800 11819 0
-3741 -11800 11820 0
-11801 11820 0
-3741 -11801 11821 0
-11802 11821 0
-3741 -11802 11822 0
-11803 11822 0
-3741 -11803 11823 0
-11804 11823 0
-3741 -11804 11824 0
-11805 11824 0
-3741 -11805 0
-3751 11825 0
-11806 11825 0
-3751 -11806 11826 0
-11807 11826 0
-3751 -11807 11827 0
-11808 11827 0
-3751 -11808 11828 0
-11809 11828 0
-3751 -11809 11829 0
-11810 11829 0
-3751 -11810 11830 0
-11811 11830 0
-3751 -11811 11831 0
-11812 11831 0
-3751 -11812 11832 0
-11813 11832 0
-3751 -11813 11833 0
-11814 11833 0
-3751 -11814 11834 0
-11815 11834 0
-3751 -11815 11835 0
-11816 11835 0
-3751 -11816 11836 0
-11817 11836 0
-3751 -11817 11837 0
-11818 11837 0
-3751 -11818 11838 0
-11819 11838 0
-3751 -11819 11839 0
-11820 11839 0
-3751 -11820 11840 0
-11821 11840 0
-3751 -11821 11841 0
-11822 11841 0
-3751 -11822 11842 0
-11823 11842 0
-3751 -11823 11843 0
-11824 11843 0
-3751 -11824 0
-3751 11844 0
-11825 11844 0
-3751 -11825 11845 0
-11826 11845 0
-3751 -11826 11846 0
-11827 11846 0
-3751 -11827 11847 0
-11828 11847 0
-3751 -11828 11848 0
-11829 11848 0
-3751 -11829 11849 0
-11830 11849 0
-3751 -11830 11850 0
-11831 11850 0
-3751 -11831 11851 0
-11832 11851 0
-3751 -11832 11852 0
-11833 11852 0
-3751 -11833 11853 0
-11834 11853 0
-3751 -11834 11854 0
-11835 11854 0
-3751 -11835 11855 0
-11836 11855 0
-3751 -11836 11856 0
-11837 11856 0
-3751 -11837 11857 0
-11838 11857 0
-3751 -11838 11858 0
-11839 11858 0
-3751 -11839 11859 0
-11840 11859 0
-3751 -11840 11860 0
-11841 11860 0
-3751 -11841 11861 0
-11842 11861 0
-3751 -11842 11862 0
-11843 11862 0
-3751 -11843 0
-3751 11863 0
-11844 11863 0
-3751 -11844 11864 0
-11845 11864 0
-3751 -11845 11865 0
-11846 11865 0
-3751 -11846 11866 0
-11847 11866 0
-3751 -11847 11867 0
-11848 11867 0
-3751 -11848 11868 0
-11849 11868 0
-3751 -11849 11869 0
-11850 11869 0
-3751 -11850 11870 0
-11851 11870 0
-3751 -11851 11871 0
-11852 11871 0
-3751 -11852 11872 0
-11853 11872 0
-3751 -11853 11873 0
-11854 11873 0
-3751 -11854 11874 0
-11855 11874 0
-3751 -11855 11875 0
-11856 11875 0
-3751 -11856 11876 0
-11857 11876 0
-3751 -11857 11877 0
-11858 11877 0
-3751 -11858 11878 0
-11859 11878 0
-3751 -11859 11879 0
-11860 11879 0
-3751 -11860 11880 0
-11861 11880 0
-3751 -11861 11881 0
-11862 11881 0
-3751 -11862 0
-3752 11882 0
-11863 11882 0
-3752 -11863 11883 0
-11864 11883 0
-3752 -11864 11884 0
-11865 11884 0
-3752 -11865 11885 0
-11866 11885 0
-3752 -11866 11886 0
-11867 11886 0
-3752 -11867 11887 0
-11868 11887 0
-3752 -11868 11888 0
-11869 11888 0
-3752 -11869 11889 0
-11870 11889 0
-3752 -11870 11890 0
-11871 11890 0
-3752 -11871 11891 0
-11872 11891 0
-3752 -11872 11892 0
-11873 11892 0
-3752 -11873 11893 0
-11874 11893 0
-3752 -11874 11894 0
-11875 11894 0
-3752 -11875 11895 0
-11876 11895 0
-3752 -11876 11896 0
-11877 11896 0
-3752 -11877 11897 0
-11878 11897 0
-3752 -11878 11898 0
-11879 11898 0
-3752 -11879 11899 0
-11880 11899 0
-3752 -11880 11900 0
-11881 11900 0
-3752 -11881 0
-3752 11901 0
-11882 11901 0
-3752 -11882 11902 0
-11883 11902 0
-3752 -11883 11903 0
-11884 11903 0
-3752 -11884 11904 0
-11885 11904 0
-3752 -11885 11905 0
-11886 11905 0
-3752 -11886 11906 0
-11887 11906 0
-3752 -11887 11907 0
-11888 11907 0
-3752 -11888 11908 0
-11889 11908 0
-3752 -11889 11909 0
-11890 11909 0
-3752 -11890 11910 0
-11891 11910 0
-3752 -11891 11911 0
-11892 11911 0
-3752 -11892 11912 0
-11893 11912 0
-3752 -11893 11913 0
-11894 11913 0
-3752 -11894 11914 0
-11895 11914 0
-3752 -11895 11915 0
-11896 11915 0
-3752 -11896 11916 0
-11897 11916 0
-3752 -11897 11917 0
-11898 11917 0
-3752 -11898 11918 0
-11899 11918 0
-3752 -11899 11919 0
-11900 11919 0
-3752 -11900 0
-3762 11920 0
-11901 11920 0
-3762 -11901 11921 0
-11902 11921 0
-3762 -11902 11922 0
-11903 11922 0
-3762 -11903 11923 0
-11904 11923 0
-3762 -11904 11924 0
-11905 11924 0
-3762 -11905 11925 0
-11906 11925 0
-3762 -11906 11926 0
-11907 11926 0
-3762 -11907 11927 0
-11908 11927 0
-3762 -11908 11928 0
-11909 11928 0
-3762 -11909 11929 0
-11910 11929 0
-3762 -11910 11930 0
-11911 11930 0
-3762 -11911 11931 0
-11912 11931 0
-3762 -11912 11932 0
-11913 11932 0
-3762 -11913 11933 0
-11914 11933 0
-3762 -11914 11934 0
-11915 11934 0
-3762 -11915 11935 0
-11916 11935 0
-3762 -11916 11936 0
-11917 11936 0
-3762 -11917 11937 0
-11918 11937 0
-3762 -11918 11938 0
-11919 11938 0
-3762 -11919 0
-3762 11939 0
-11920 11939 0
-3762 -11920 11940 0
-11921 11940 0
-3762 -11921 11941 0
-11922 11941 0
-3762 -11922 11942 0
-11923 11942 0
-3762 -11923 11943 0
-11924 11943 0
-3762 -11924 11944 0
-11925 11944 0
-3762 -11925 11945 0
-11926 11945 0
-3762 -11926 11946 0
-11927 11946 0
-3762 -11927 11947 0
-11928 11947 0
-3762 -11928 11948 0
-11929 11948 0
-3762 -11929 11949 0
-11930 11949 0
-3762 -11930 11950 0
-11931 11950 0
-3762 -11931 11951 0
-11932 11951 0
-3762 -11932 11952 0
-11933 11952 0
-3762 -11933 11953 0
-11934 11953 0
-3762 -11934 11954 0
-11935 11954 0
-3762 -11935 11955 0
-11936 11955 0
-3762 -11936 11956 0
-11937 11956 0
-3762 -11937 11957 0
-11938 11957 0
-3762 -11938 0
-3762 11958 0
-11939 11958 0
-3762 -11939 11959 0
-11940 11959 0
-3762 -11940 11960 0
-11941 11960 0
-3762 -11941 11961 0
-11942 11961 0
-3762 -11942 11962 0
-11943 11962 0
-3762 -11943 11963 0
-11944 11963 0
-3762 -11944 11964 0
-11945 11964 0
-3762 -11945 11965 0
-11946 11965 0
-3762 -11946 11966 0
-11947 11966 0
-3762 -11947 11967 0
-11948 11967 0
-3762 -11948 11968 0
-11949 11968 0
-3762 -11949 11969 0
-11950 11969 0
-3762 -11950 11970 0
-11951 11970 0
-3762 -11951 11971 0
-11952 11971 0
-3762 -11952 11972 0
-11953 11972 0
-3762 -11953 11973 0
-11954 11973 0
-3762 -11954 11974 0
-11955 11974 0
-3762 -11955 11975 0
-11956 11975 0
-3762 -11956 11976 0
-11957 11976 0
-3762 -11957 0
-3763 11977 0
-11958 11977 0
-3763 -11958 11978 0
-11959 11978 0
-3763 -11959 11979 0
-11960 11979 0
-3763 -11960 11980 0
-11961 11980 0
-3763 -11961 11981 0
-11962 11981 0
-3763 -11962 11982 0
-11963 11982 0
-3763 -11963 11983 0
-11964 11983 0
-3763 -11964 11984 0
-11965 11984 0
-3763 -11965 11985 0
-11966 11985 0
-3763 -11966 11986 0
-11967 11986 0
-3763 -11967 11987 0
-11968 11987 0
-3763 -11968 11988 0
-11969 11988 0
-3763 -11969 11989 0
-11970 11989 0
-3763 -11970 11990 0
-11971 11990 0
-3763 -11971 11991 0
-11972 11991 0
-3763 -11972 11992 0
-11973 11992 0
-3763 -11973 11993 0
-11974 11993 0
-3763 -11974 11994 0
-11975 11994 0
-3763 -11975 11995 0
-11976 11995 0
-3763 -11976 0
-3763 11996 0
-11977 11996 0
-3763 -11977 11997 0
-11978 11997 0
-3763 -11978 11998 0
-11979 11998 0
-3763 -11979 11999 0
-11980 11999 0
-3763 -11980 12000 0
-11981 12000 0
-3763 -11981 12001 0
-11982 12001 0
-3763 -11982 12002 0
-11983 12002 0
-3763 -11983 12003 0
-11984 12003 0
-3763 -11984 12004 0
-11985 12004 0
-3763 -11985 12005 0
-11986 12005 0
-3763 -11986 12006 0
-11987 12006 0
-3763 -11987 12007 0
-11988 12007 0
-3763 -11988 12008 0
-11989 12008 0
-3763 -11989 12009 0
-11990 12009 0
-3763 -11990 12010 0
-11991 12010 0
-3763 -11991 12011 0
-11992 12011 0
-3763 -11992 12012 0
-11993 12012 0
-3763 -11993 12013 0
-11994 12013 0
-3763 -11994 12014 0
-11995 12014 0
-3763 -11995 0
-3773 12015 0
-11996 12015 0
-3773 -11996 12016 0
-11997 12016 0
-3773 -11997 12017 0
-11998 12017 0
-3773 -11998 12018 0
-11999 12018 0
-3773 -11999 12019 0
-12000 12019 0
-3773 -12000 12020 0
-12001 12020 0
-3773 -12001 12021 0
-12002 12021 0
-3773 -12002 12022 0
-12003 12022 0
-3773 -12003 12023 0
-12004 12023 0
-3773 -12004 12024 0
-12005 12024 0
-3773 -12005 12025 0
-12006 12025 0
-3773 -12006 12026 0
-12007 12026 0
-3773 -12007 12027 0
-12008 12027 0
-3773 -12008 12028 0
-12009 12028 0
-3773 -12009 12029 0
-12010 12029 0
-3773 -12010 12030 0
-12011 12030 0
-3773 -12011 12031 0
-12012 12031 0
-3773 -12012 12032 0
-12013 12032 0
-3773 -12013 12033 0
-12014 12033 0
-3773 -12014 0
-3773 12034 0
-12015 12034 0
-3773 -12015 12035 0
-12016 12035 0
-3773 -12016 12036 0
-12017 12036 0
-3773 -12017 12037 0
-12018 12037 0
-3773 -12018 12038 0
-12019 12038 0
-3773 -12019 12039 0
-12020 12039 0
-3773 -12020 12040 0
-12021 12040 0
-3773 -12021 12041 0
-12022 12041 0
-3773 -12022 12042 0
-12023 12042 0
-3773 -12023 12043 0
-12024 12043 0
-3773 -12024 12044 0
-12025 12044 0
-3773 -12025 12045 0
-12026 12045 0
-3773 -12026 12046 0
-12027 12046 0
-3773 -12027 12047 0
-12028 12047 0
-3773 -12028 12048 0
-12029 12048 0
-3773 -12029 12049 0
-12030 12049 0
-3773 -12030 12050 0
-12031 12050 0
-3773 -12031 12051 0
-12032 12051 0
-3773 -12032 12052 0
-12033 12052 0
-3773 -12033 0
-3773 12053 0
-12034 12053 0
-3773 -12034 12054 0
-12035 12054 0
-3773 -12035 12055 0
-12036 12055 0
-3773 -12036 12056 0
-12037 12056 0
-3773 -12037 12057 0
-12038 12057 0
-3773 -12038 12058 0
-12039 12058 0
-3773 -12039 12059 0
-12040 12059 0
-3773 -12040 12060 0
-12041 12060 0
-3773 -12041 12061 0
-12042 12061 0
-3773 -12042 12062 0
-12043 12062 0
-3773 -12043 12063 0
-12044 12063 0
-3773 -12044 12064 0
-12045 12064 0
-3773 -12045 12065 0
-12046 12065 0
-3773 -12046 12066 0
-12047 12066 0
-3773 -12047 12067 0
-12048 12067 0
-3773 -12048 12068 0
-12049 12068 0
-3773 -12049 12069 0
-12050 12069 0
-3773 -12050 12070 0
-12051 12070 0
-3773 -12051 12071 0
-12052 12071 0
-3773 -12052 0
-3774 12072 0
-12053 12072 0
-3774 -12053 12073 0
-12054 12073 0
-3774 -12054 12074 0
-12055 12074 0
-3774 -12055 12075 0
-12056 12075 0
-3774 -12056 12076 0
-12057 12076 0
-3774 -12057 12077 0
-12058 12077 0
-3774 -12058 12078 0
-12059 12078 0
-3774 -12059 12079 0
-12060 12079 0
-3774 -12060 12080 0
-12061 12080 0
-3774 -12061 12081 0
-12062 12081 0
-3774 -12062 12082 0
-12063 12082 0
-3774 -12063 12083 0
-12064 12083 0
-3774 -12064 12084 0
-12065 12084 0
-3774 -12065 12085 0
-12066 12085 0
-3774 -12066 12086 0
-12067 12086 0
-3774 -12067 12087 0
-12068 12087 0
-3774 -12068 12088 0
-12069 12088 0
-3774 -12069 12089 0
-12070 12089 0
-3774 -12070 12090 0
-12071 12090 0
-3774 -12071 0
-3774 12091 0
-12072 12091 0
-3774 -12072 12092 0
-12073 12092 0
-3774 -12073 12093 0
-12074 12093 0
-3774 -12074 12094 0
-12075 12094 0
-3774 -12075 12095 0
-12076 12095 0
-3774 -12076 12096 0
-12077 12096 0
-3774 -12077 12097 0
-12078 12097 0
-3774 -12078 12098 0
-12079 12098 0
-3774 -12079 12099 0
-12080 12099 0
-3774 -12080 12100 0
-12081 12100 0
-3774 -12081 12101 0
-12082 12101 0
-3774 -12082 12102 0
-12083 12102 0
-3774 -12083 12103 0
-12084 12103 0
-3774 -12084 12104 0
-12085 12104 0
-3774 -12085 12105 0
-12086 12105 0
-3774 -12086 12106 0
-12087 12106 0
-3774 -12087 12107 0
-12088 12107 0
-3774 -12088 12108 0
-12089 12108 0
-3774 -12089 12109 0
-12090 12109 0
-3774 -12090 0
-3784 12110 0
-12091 12110 0
-3784 -12091 12111 0
-12092 12111 0
-3784 -12092 12112 0
-12093 12112 0
-3784 -12093 12113 0
-12094 12113 0
-3784 -12094 12114 0
-12095 12114 0
-3784 -12095 12115 0
-12096 12115 0
-3784 -12096 12116 0
-12097 12116 0
-3784 -12097 12117 0
-12098 12117 0
-3784 -12098 12118 0
-12099 12118 0
-3784 -12099 12119 0
-12100 12119 0
-3784 -12100 12120 0
-12101 12120 0
-3784 -12101 12121 0
-12102 12121 0
-3784 -12102 12122 0
-12103 12122 0
-3784 -12103 12123 0
-12104 12123 0
-3784 -12104 12124 0
-12105 12124 0
-3784 -12105 12125 0
-12106 12125 0
-3784 -12106 12126 0
-12107 12126 0
-3784 -12107 12127 0
-12108 12127 0
-3784 -12108 12128 0
-12109 12128 0
-3784 -12109 0
-3784 12129 0
-12110 12129 0
-3784 -12110 12130 0
-12111 12130 0
-3784 -12111 12131 0
-12112 12131 0
-3784 -12112 12132 0
-12113 12132 0
-3784 -12113 12133 0
-12114 12133 0
-3784 -12114 12134 0
-12115 12134 0
-3784 -12115 12135 0
-12116 12135 0
-3784 -12116 12136 0
-12117 12136 0
-3784 -12117 12137 0
-12118 12137 0
-3784 -12118 12138 0
-12119 12138 0
-3784 -12119 12139 0
-12120 12139 0
-3784 -12120 12140 0
-12121 12140 0
-3784 -12121 12141 0
-12122 12141 0
-3784 -12122 12142 0
-12123 12142 0
-3784 -12123 12143 0
-12124 12143 0
-3784 -12124 12144 0
-12125 12144 0
-3784 -12125 12145 0
-12126 12145 0
-3784 -12126 12146 0
-12127 12146 0
-3784 -12127 12147 0
-12128 12147 0
-3784 -12128 0
-3784 12148 0
-12129 12148 0
-3784 -12129 12149 0
-12130 12149 0
-3784 -12130 12150 0
-12131 12150 0
-3784 -12131 12151 0
-12132 12151 0
-3784 -12132 12152 0
-12133 12152 0
-3784 -12133 12153 0
-12134 12153 0
-3784 -12134 12154 0
-12135 12154 0
-3784 -12135 12155 0
-12136 12155 0
-3784 -12136 12156 0
-12137 12156 0
-3784 -12137 12157 0
-12138 12157 0
-3784 -12138 12158 0
-12139 12158 0
-3784 -12139 12159 0
-12140 12159 0
-3784 -12140 12160 0
-12141 12160 0
-3784 -12141 12161 0
-12142 12161 0
-3784 -12142 12162 0
-12143 12162 0
-3784 -12143 12163 0
-12144 12163 0
-3784 -12144 12164 0
-12145 12164 0
-3784 -12145 12165 0
-12146 12165 0
-3784 -12146 12166 0
-12147 12166 0
-3784 -12147 0
-3785 12167 0
-12148 12167 0
-3785 -12148 12168 0
-12149 12168 0
-3785 -12149 12169 0
-12150 12169 0
-3785 -12150 12170 0
-12151 12170 0
-3785 -12151 12171 0
-12152 12171 0
-3785 -12152 12172 0
-12153 12172 0
-3785 -12153 12173 0
-12154 12173 0
-3785 -12154 12174 0
-12155 12174 0
-3785 -12155 12175 0
-12156 12175 0
-3785 -12156 12176 0
-12157 12176 0
-3785 -12157 12177 0
-12158 12177 0
-3785 -12158 12178 0
-12159 12178 0
-3785 -12159 12179 0
-12160 12179 0
-3785 -12160 12180 0
-12161 12180 0
-3785 -12161 12181 0
-12162 12181 0
-3785 -12162 12182 0
-12163 12182 0
-3785 -12163 12183 0
-12164 12183 0
-3785 -12164 12184 0
-12165 12184 0
-3785 -12165 12185 0
-12166 12185 0
-3785 -12166 0
-3785 12186 0
-12167 12186 0
-3785 -12167 12187 0
-12168 12187 0
-3785 -12168 12188 0
-12169 12188 0
-3785 -12169 12189 0
-12170 12189 0
-3785 -12170 12190 0
-12171 12190 0
-3785 -12171 12191 0
-12172 12191 0
-3785 -12172 12192 0
-12173 12192 0
-3785 -12173 12193 0
-12174 12193 0
-3785 -12174 12194 0
-12175 12194 0
-3785 -12175 12195 0
-12176 12195 0
-3785 -12176 12196 0
-12177 12196 0
-3785 -12177 12197 0
-12178 12197 0
-3785 -12178 12198 0
-12179 12198 0
-3785 -12179 12199 0
-12180 12199 0
-3785 -12180 12200 0
-12181 12200 0
-3785 -12181 12201 0
-12182 12201 0
-3785 -12182 12202 0
-12183 12202 0
-3785 -12183 12203 0
-12184 12203 0
-3785 -12184 12204 0
-12185 12204 0
-3785 -12185 0
-3795 12205 0
-12186 12205 0
-3795 -12186 12206 0
-12187 12206 0
-3795 -12187 12207 0
-12188 12207 0
-3795 -12188 12208 0
-12189 12208 0
-3795 -12189 12209 0
-12190 12209 0
-3795 -12190 12210 0
-12191 12210 0
-3795 -12191 12211 0
-12192 12211 0
-3795 -12192 12212 0
-12193 12212 0
-3795 -12193 12213 0
-12194 12213 0
-3795 -12194 12214 0
-12195 12214 0
-3795 -12195 12215 0
-12196 12215 0
-3795 -12196 12216 0
-12197 12216 0
-3795 -12197 12217 0
-12198 12217 0
-3795 -12198 12218 0
-12199 12218 0
-3795 -12199 12219 0
-12200 12219 0
-3795 -12200 12220 0
-12201 12220 0
-3795 -12201 12221 0
-12202 12221 0
-3795 -12202 12222 0
-12203 12222 0
-3795 -12203 12223 0
-12204 12223 0
-3795 -12204 0
-3795 12224 0
-12205 12224 0
-3795 -12205 12225 0
-12206 12225 0
-3795 -12206 12226 0
-12207 12226 0
-3795 -12207 12227 0
-12208 12227 0
-3795 -12208 12228 0
-12209 12228 0
-3795 -12209 12229 0
-12210 12229 0
-3795 -12210 12230 0
-12211 12230 0
-3795 -12211 12231 0
-12212 12231 0
-3795 -12212 12232 0
-12213 12232 0
-3795 -12213 12233 0
-12214 12233 0
-3795 -12214 12234 0
-12215 12234 0
-3795 -12215 12235 0
-12216 12235 0
-3795 -12216 12236 0
-12217 12236 0
-3795 -12217 12237 0
-12218 12237 0
-3795 -12218 12238 0
-12219 12238 0
-3795 -12219 12239 0
-12220 12239 0
-3795 -12220 12240 0
-12221 12240 0
-3795 -12221 12241 0
-12222 12241 0
-3795 -12222 12242 0
-12223 12242 0
-3795 -12223 0
-3795 12243 0
-12224 12243 0
-3795 -12224 12244 0
-12225 12244 0
-3795 -12225 12245 0
-12226 12245 0
-3795 -12226 12246 0
-12227 12246 0
-3795 -12227 12247 0
-12228 12247 0
-3795 -12228 12248 0
-12229 12248 0
-3795 -12229 12249 0
-12230 12249 0
-3795 -12230 12250 0
-12231 12250 0
-3795 -12231 12251 0
-12232 12251 0
-3795 -12232 12252 0
-12233 12252 0
-3795 -12233 12253 0
-12234 12253 0
-3795 -12234 12254 0
-12235 12254 0
-3795 -12235 12255 0
-12236 12255 0
-3795 -12236 12256 0
-12237 12256 0
-3795 -12237 12257 0
-12238 12257 0
-3795 -12238 12258 0
-12239 12258 0
-3795 -12239 12259 0
-12240 12259 0
-3795 -12240 12260 0
-12241 12260 0
-3795 -12241 12261 0
-12242 12261 0
-3795 -12242 0
-3796 12262 0
-12243 12262 0
-3796 -12243 12263 0
-12244 12263 0
-3796 -12244 12264 0
-12245 12264 0
-3796 -12245 12265 0
-12246 12265 0
-3796 -12246 12266 0
-12247 12266 0
-3796 -12247 12267 0
-12248 12267 0
-3796 -12248 12268 0
-12249 12268 0
-3796 -12249 12269 0
-12250 12269 0
-3796 -12250 12270 0
-12251 12270 0
-3796 -12251 12271 0
-12252 12271 0
-3796 -12252 12272 0
-12253 12272 0
-3796 -12253 12273 0
-12254 12273 0
-3796 -12254 12274 0
-12255 12274 0
-3796 -12255 12275 0
-12256 12275 0
-3796 -12256 12276 0
-12257 12276 0
-3796 -12257 12277 0
-12258 12277 0
-3796 -12258 12278 0
-12259 12278 0
-3796 -12259 12279 0
-12260 12279 0
-3796 -12260 12280 0
-12261 12280 0
-3796 -12261 0
-3796 12281 0
-12262 12281 0
-3796 -12262 12282 0
-12263 12282 0
-3796 -12263 12283 0
-12264 12283 0
-3796 -12264 12284 0
-12265 12284 0
-3796 -12265 12285 0
-12266 12285 0
-3796 -12266 12286 0
-12267 12286 0
-3796 -12267 12287 0
-12268 12287 0
-3796 -12268 12288 0
-12269 12288 0
-3796 -12269 12289 0
-12270 12289 0
-3796 -12270 12290 0
-12271 12290 0
-3796 -12271 12291 0
-12272 12291 0
-3796 -12272 12292 0
-12273 12292 0
-3796 -12273 12293 0
-12274 12293 0
-3796 -12274 12294 0
-12275 12294 0
-3796 -12275 12295 0
-12276 12295 0
-3796 -12276 12296 0
-12277 12296 0
-3796 -12277 12297 0
-12278 12297 0
-3796 -12278 12298 0
-12279 12298 0
-3796 -12279 12299 0
-12280 12299 0
-3796 -12280 0
-3806 12300 0
-12281 12300 0
-3806 -12281 12301 0
-12282 12301 0
-3806 -12282 12302 0
-12283 12302 0
-3806 -12283 12303 0
-12284 12303 0
-3806 -12284 12304 0
-12285 12304 0
-3806 -12285 12305 0
-12286 12305 0
-3806 -12286 12306 0
-12287 12306 0
-3806 -12287 12307 0
-12288 12307 0
-3806 -12288 12308 0
-12289 12308 0
-3806 -12289 12309 0
-12290 12309 0
-3806 -12290 12310 0
-12291 12310 0
-3806 -12291 12311 0
-12292 12311 0
-3806 -12292 12312 0
-12293 12312 0
-3806 -12293 12313 0
-12294 12313 0
-3806 -12294 12314 0
-12295 12314 0
-3806 -12295 12315 0
-12296 12315 0
-3806 -12296 12316 0
-12297 12316 0
-3806 -12297 12317 0
-12298 12317 0
-3806 -12298 12318 0
-12299 12318 0
-3806 -12299 0
-3806 12319 0
-12300 12319 0
-3806 -12300 12320 0
-12301 12320 0
-3806 -12301 12321 0
-12302 12321 0
-3806 -12302 12322 0
-12303 12322 0
-3806 -12303 12323 0
-12304 12323 0
-3806 -12304 12324 0
-12305 12324 0
-3806 -12305 12325 0
-12306 12325 0
-3806 -12306 12326 0
-12307 12326 0
-3806 -12307 12327 0
-12308 12327 0
-3806 -12308 12328 0
-12309 12328 0
-3806 -12309 12329 0
-12310 12329 0
-3806 -12310 12330 0
-12311 12330 0
-3806 -12311 12331 0
-12312 12331 0
-3806 -12312 12332 0
-12313 12332 0
-3806 -12313 12333 0
-12314 12333 0
-3806 -12314 12334 0
-12315 12334 0
-3806 -12315 12335 0
-12316 12335 0
-3806 -12316 12336 0
-12317 12336 0
-3806 -12317 12337 0
-12318 12337 0
-3806 -12318 0
-3806 12338 0
-12319 12338 0
-3806 -12319 12339 0
-12320 12339 0
-3806 -12320 12340 0
-12321 12340 0
-3806 -12321 12341 0
-12322 12341 0
-3806 -12322 12342 0
-12323 12342 0
-3806 -12323 12343 0
-12324 12343 0
-3806 -12324 12344 0
-12325 12344 0
-3806 -12325 12345 0
-12326 12345 0
-3806 -12326 12346 0
-12327 12346 0
-3806 -12327 12347 0
-12328 12347 0
-3806 -12328 12348 0
-12329 12348 0
-3806 -12329 12349 0
-12330 12349 0
-3806 -12330 12350 0
-12331 12350 0
-3806 -12331 12351 0
-12332 12351 0
-3806 -12332 12352 0
-12333 12352 0
-3806 -12333 12353 0
-12334 12353 0
-3806 -12334 12354 0
-12335 12354 0
-3806 -12335 12355 0
-12336 12355 0
-3806 -12336 12356 0
-12337 12356 0
-3806 -12337 0
-3807 12357 0
-12338 12357 0
-3807 -12338 12358 0
-12339 12358 0
-3807 -12339 12359 0
-12340 12359 0
-3807 -12340 12360 0
-12341 12360 0
-3807 -12341 12361 0
-12342 12361 0
-3807 -12342 12362 0
-12343 12362 0
-3807 -12343 12363 0
-12344 12363 0
-3807 -12344 12364 0
-12345 12364 0
-3807 -12345 12365 0
-12346 12365 0
-3807 -12346 12366 0
-12347 12366 0
-3807 -12347 12367 0
-12348 12367 0
-3807 -12348 12368 0
-12349 12368 0
-3807 -12349 12369 0
-12350 12369 0
-3807 -12350 12370 0
-12351 12370 0
-3807 -12351 12371 0
-12352 12371 0
-3807 -12352 12372 0
-12353 12372 0
-3807 -12353 12373 0
-12354 12373 0
-3807 -12354 12374 0
-12355 12374 0
-3807 -12355 12375 0
-12356 12375 0
-3807 -12356 0
-3807 12376 0
-12357 12376 0
-3807 -12357 12377 0
-12358 12377 0
-3807 -12358 12378 0
-12359 12378 0
-3807 -12359 12379 0
-12360 12379 0
-3807 -12360 12380 0
-12361 12380 0
-3807 -12361 12381 0
-12362 12381 0
-3807 -12362 12382 0
-12363 12382 0
-3807 -12363 12383 0
-12364 12383 0
-3807 -12364 12384 0
-12365 12384 0
-3807 -12365 12385 0
-12366 12385 0
-3807 -12366 12386 0
-12367 12386 0
-3807 -12367 12387 0
-12368 12387 0
-3807 -12368 12388 0
-12369 12388 0
-3807 -12369 12389 0
-12370 12389 0
-3807 -12370 12390 0
-12371 12390 0
-3807 -12371 12391 0
-12372 12391 0
-3807 -12372 12392 0
-12373 12392 0
-3807 -12373 12393 0
-12374 12393 0
-3807 -12374 12394 0
-12375 12394 0
-3807 -12375 0
-3817 12395 0
-12376 12395 0
-3817 -12376 12396 0
-12377 12396 0
-3817 -12377 12397 0
-12378 12397 0
-3817 -12378 12398 0
-12379 12398 0
-3817 -12379 12399 0
-12380 12399 0
-3817 -12380 12400 0
-12381 12400 0
-3817 -12381 12401 0
-12382 12401 0
-3817 -12382 12402 0
-12383 12402 0
-3817 -12383 12403 0
-12384 12403 0
-3817 -12384 12404 0
-12385 12404 0
-3817 -12385 12405 0
-12386 12405 0
-3817 -12386 12406 0
-12387 12406 0
-3817 -12387 12407 0
-12388 12407 0
-3817 -12388 12408 0
-12389 12408 0
-3817 -12389 12409 0
-12390 12409 0
-3817 -12390 12410 0
-12391 12410 0
-3817 -12391 12411 0
-12392 12411 0
-3817 -12392 12412 0
-12393 12412 0
-3817 -12393 12413 0
-12394 12413 0
-3817 -12394 0
-3817 12414 0
-12395 12414 0
-3817 -12395 12415 0
-12396 12415 0
-3817 -12396 12416 0
-12397 12416 0
-3817 -12397 12417 0
-12398 12417 0
-3817 -12398 12418 0
-12399 12418 0
-3817 -12399 12419 0
-12400 12419 0
-3817 -12400 12420 0
-12401 12420 0
-3817 -12401 12421 0
-12402 12421 0
-3817 -12402 12422 0
-12403 12422 0
-3817 -12403 12423 0
-12404 12423 0
-3817 -12404 12424 0
-12405 12424 0
-3817 -12405 12425 0
-12406 12425 0
-3817 -12406 12426 0
-12407 12426 0
-3817 -12407 12427 0
-12408 12427 0
-3817 -12408 12428 0
-12409 12428 0
-3817 -12409 12429 0
-12410 12429 0
-3817 -12410 12430 0
-12411 12430 0
-3817 -12411 12431 0
-12412 12431 0
-3817 -12412 12432 0
-12413 12432 0
-3817 -12413 0
-3817 12433 0
-12414 12433 0
-3817 -12414 12434 0
-12415 12434 0
-3817 -12415 12435 0
-12416 12435 0
-3817 -12416 12436 0
-12417 12436 0
-3817 -12417 12437 0
-12418 12437 0
-3817 -12418 12438 0
-12419 12438 0
-3817 -12419 12439 0
-12420 12439 0
-3817 -12420 12440 0
-12421 12440 0
-3817 -12421 12441 0
-12422 12441 0
-3817 -12422 12442 0
-12423 12442 0
-3817 -12423 12443 0
-12424 12443 0
-3817 -12424 12444 0
-12425 12444 0
-3817 -12425 12445 0
-12426 12445 0
-3817 -12426 12446 0
-12427 12446 0
-3817 -12427 12447 0
-12428 12447 0
-3817 -12428 12448 0
-12429 12448 0
-3817 -12429 12449 0
-12430 12449 0
-3817 -12430 12450 0
-12431 12450 0
-3817 -12431 12451 0
-12432 12451 0
-3817 -12432 0
-3818 12452 0
-12433 12452 0
-3818 -12433 12453 0
-12434 12453 0
-3818 -12434 12454 0
-12435 12454 0
-3818 -12435 12455 0
-12436 12455 0
-3818 -12436 12456 0
-12437 12456 0
-3818 -12437 12457 0
-12438 12457 0
-3818 -12438 12458 0
-12439 12458 0
-3818 -12439 12459 0
-12440 12459 0
-3818 -12440 12460 0
-12441 12460 0
-3818 -12441 12461 0
-12442 12461 0
-3818 -12442 12462 0
-12443 12462 0
-3818 -12443 12463 0
-12444 12463 0
-3818 -12444 12464 0
-12445 12464 0
-3818 -12445 12465 0
-12446 12465 0
-3818 -12446 12466 0
-12447 12466 0
-3818 -12447 12467 0
-12448 12467 0
-3818 -12448 12468 0
-12449 12468 0
-3818 -12449 12469 0
-12450 12469 0
-3818 -12450 12470 0
-12451 12470 0
-3818 -12451 0
-3818 12471 0
-12452 12471 0
-3818 -12452 12472 0
-12453 12472 0
-3818 -12453 12473 0
-12454 12473 0
-3818 -12454 12474 0
-12455 12474 0
-3818 -12455 12475 0
-12456 12475 0
-3818 -12456 12476 0
-12457 12476 0
-3818 -12457 12477 0
-12458 12477 0
-3818 -12458 12478 0
-12459 12478 0
-3818 -12459 12479 0
-12460 12479 0
-3818 -12460 12480 0
-12461 12480 0
-3818 -12461 12481 0
-12462 12481 0
-3818 -12462 12482 0
-12463 12482 0
-3818 -12463 12483 0
-12464 12483 0
-3818 -12464 12484 0
-12465 12484 0
-3818 -12465 12485 0
-12466 12485 0
-3818 -12466 12486 0
-12467 12486 0
-3818 -12467 12487 0
-12468 12487 0
-3818 -12468 12488 0
-12469 12488 0
-3818 -12469 12489 0
-12470 12489 0
-3818 -12470 0
-3828 12490 0
-12471 12490 0
-3828 -12471 12491 0
-12472 12491 0
-3828 -12472 12492 0
-12473 12492 0
-3828 -12473 12493 0
-12474 12493 0
-3828 -12474 12494 0
-12475 12494 0
-3828 -12475 12495 0
-12476 12495 0
-3828 -12476 12496 0
-12477 12496 0
-3828 -12477 12497 0
-12478 12497 0
-3828 -12478 12498 0
-12479 12498 0
-3828 -12479 12499 0
-12480 12499 0
-3828 -12480 12500 0
-12481 12500 0
-3828 -12481 12501 0
-12482 12501 0
-3828 -12482 12502 0
-12483 12502 0
-3828 -12483 12503 0
-12484 12503 0
-3828 -12484 12504 0
-12485 12504 0
-3828 -12485 12505 0
-12486 12505 0
-3828 -12486 12506 0
-12487 12506 0
-3828 -12487 12507 0
-12488 12507 0
-3828 -12488 12508 0
-12489 12508 0
-3828 -12489 0
-3828 12509 0
-12490 12509 0
-3828 -12490 12510 0
-12491 12510 0
-3828 -12491 12511 0
-12492 12511 0
-3828 -12492 12512 0
-12493 12512 0
-3828 -12493 12513 0
-12494 12513 0
-3828 -12494 12514 0
-12495 12514 0
-3828 -12495 12515 0
-12496 12515 0
-3828 -12496 12516 0
-12497 12516 0
-3828 -12497 12517 0
-12498 12517 0
-3828 -12498 12518 0
-12499 12518 0
-3828 -12499 12519 0
-12500 12519 0
-3828 -12500 12520 0
-12501 12520 0
-3828 -12501 12521 0
-12502 12521 0
-3828 -12502 12522 0
-12503 12522 0
-3828 -12503 12523 0
-12504 12523 0
-3828 -12504 12524 0
-12505 12524 0
-3828 -12505 12525 0
-12506 12525 0
-3828 -12506 12526 0
-12507 12526 0
-3828 -12507 12527 0
-12508 12527 0
-3828 -12508 0
-3828 12528 0
-12509 12528 0
-3828 -12509 12529 0
-12510 12529 0
-3828 -12510 12530 0
-12511 12530 0
-3828 -12511 12531 0
-12512 12531 0
-3828 -12512 12532 0
-12513 12532 0
-3828 -12513 12533 0
-12514 12533 0
-3828 -12514 12534 0
-12515 12534 0
-3828 -12515 12535 0
-12516 12535 0
-3828 -12516 12536 0
-12517 12536 0
-3828 -12517 12537 0
-12518 12537 0
-3828 -12518 12538 0
-12519 12538 0
-3828 -12519 12539 0
-12520 12539 0
-3828 -12520 12540 0
-12521 12540 0
-3828 -12521 12541 0
-12522 12541 0
-3828 -12522 12542 0
-12523 12542 0
-3828 -12523 12543 0
-12524 12543 0
-3828 -12524 12544 0
-12525 12544 0
-3828 -12525 12545 0
-12526 12545 0
-3828 -12526 12546 0
-12527 12546 0
-3828 -12527 0
-3829 12547 0
-12528 12547 0
-3829 -12528 12548 0
-12529 12548 0
-3829 -12529 12549 0
-12530 12549 0
-3829 -12530 12550 0
-12531 12550 0
-3829 -12531 12551 0
-12532 12551 0
-3829 -12532 12552 0
-12533 12552 0
-3829 -12533 12553 0
-12534 12553 0
-3829 -12534 12554 0
-12535 12554 0
-3829 -12535 12555 0
-12536 12555 0
-3829 -12536 12556 0
-12537 12556 0
-3829 -12537 12557 0
-12538 12557 0
-3829 -12538 12558 0
-12539 12558 0
-3829 -12539 12559 0
-12540 12559 0
-3829 -12540 12560 0
-12541 12560 0
-3829 -12541 12561 0
-12542 12561 0
-3829 -12542 12562 0
-12543 12562 0
-3829 -12543 12563 0
-12544 12563 0
-3829 -12544 12564 0
-12545 12564 0
-3829 -12545 12565 0
-12546 12565 0
-3829 -12546 0
-3829 12566 0
-12547 12566 0
-3829 -12547 12567 0
-12548 12567 0
-3829 -12548 12568 0
-12549 12568 0
-3829 -12549 12569 0
-12550 12569 0
-3829 -12550 12570 0
-12551 12570 0
-3829 -12551 12571 0
-12552 12571 0
-3829 -12552 12572 0
-12553 12572 0
-3829 -12553 12573 0
-12554 12573 0
-3829 -12554 12574 0
-12555 12574 0
-3829 -12555 12575 0
-12556 12575 0
-3829 -12556 12576 0
-12557 12576 0
-3829 -12557 12577 0
-12558 12577 0
-3829 -12558 12578 0
-12559 12578 0
-3829 -12559 12579 0
-12560 12579 0
-3829 -12560 12580 0
-12561 12580 0
-3829 -12561 12581 0
-12562 12581 0
-3829 -12562 12582 0
-12563 12582 0
-3829 -12563 12583 0
-12564 12583 0
-3829 -12564 12584 0
-12565 12584 0
-3829 -12565 0
-3839 12585 0
-12566 12585 0
-3839 -12566 12586 0
-12567 12586 0
-3839 -12567 12587 0
-12568 12587 0
-3839 -12568 12588 0
-12569 12588 0
-3839 -12569 12589 0
-12570 12589 0
-3839 -12570 12590 0
-12571 12590 0
-3839 -12571 12591 0
-12572 12591 0
-3839 -12572 12592 0
-12573 12592 0
-3839 -12573 12593 0
-12574 12593 0
-3839 -12574 12594 0
-12575 12594 0
-3839 -12575 12595 0
-12576 12595 0
-3839 -12576 12596 0
-12577 12596 0
-3839 -12577 12597 0
-12578 12597 0
-3839 -12578 12598 0
-12579 12598 0
-3839 -12579 12599 0
-12580 12599 0
-3839 -12580 12600 0
-12581 12600 0
-3839 -12581 12601 0
-12582 12601 0
-3839 -12582 12602 0
-12583 12602 0
-3839 -12583 12603 0
-12584 12603 0
-3839 -12584 0
-3839 12604 0
-12585 12604 0
-3839 -12585 12605 0
-12586 12605 0
-3839 -12586 12606 0
-12587 12606 0
-3839 -12587 12607 0
-12588 12607 0
-3839 -12588 12608 0
-12589 12608 0
-3839 -12589 12609 0
-12590 12609 0
-3839 -12590 12610 0
-12591 12610 0
-3839 -12591 12611 0
-12592 12611 0
-3839 -12592 12612 0
-12593 12612 0
-3839 -12593 12613 0
-12594 12613 0
-3839 -12594 12614 0
-12595 12614 0
-3839 -12595 12615 0
-12596 12615 0
-3839 -12596 12616 0
-12597 12616 0
-3839 -12597 12617 0
-12598 12617 0
-3839 -12598 12618 0
-12599 12618 0
-3839 -12599 12619 0
-12600 12619 0
-3839 -12600 12620 0
-12601 12620 0
-3839 -12601 12621 0
-12602 12621 0
-3839 -12602 12622 0
-12603 12622 0
-3839 -12603 0
-3839 12623 0
-12604 12623 0
-3839 -12604 12624 0
-12605 12624 0
-3839 -12605 12625 0
-12606 12625 0
-3839 -12606 12626 0
-12607 12626 0
-3839 -12607 12627 0
-12608 12627 0
-3839 -12608 12628 0
-12609 12628 0
-3839 -12609 12629 0
-12610 12629 0
-3839 -12610 12630 0
-12611 12630 0
-3839 -12611 12631 0
-12612 12631 0
-3839 -12612 12632 0
-12613 12632 0
-3839 -12613 12633 0
-12614 12633 0
-3839 -12614 12634 0
-12615 12634 0
-3839 -12615 12635 0
-12616 12635 0
-3839 -12616 12636 0
-12617 12636 0
-3839 -12617 12637 0
-12618 12637 0
-3839 -12618 12638 0
-12619 12638 0
-3839 -12619 12639 0
-12620 12639 0
-3839 -12620 12640 0
-12621 12640 0
-3839 -12621 12641 0
-12622 12641 0
-3839 -12622 0
-3840 12642 0
-12623 12642 0
-3840 -12623 12643 0
-12624 12643 0
-3840 -12624 12644 0
-12625 12644 0
-3840 -12625 12645 0
-12626 12645 0
-3840 -12626 12646 0
-12627 12646 0
-3840 -12627 12647 0
-12628 12647 0
-3840 -12628 12648 0
-12629 12648 0
-3840 -12629 12649 0
-12630 12649 0
-3840 -12630 12650 0
-12631 12650 0
-3840 -12631 12651 0
-12632 12651 0
-3840 -12632 12652 0
-12633 12652 0
-3840 -12633 12653 0
-12634 12653 0
-3840 -12634 12654 0
-12635 12654 0
-3840 -12635 12655 0
-12636 12655 0
-3840 -12636 12656 0
-12637 12656 0
-3840 -12637 12657 0
-12638 12657 0
-3840 -12638 12658 0
-12639 12658 0
-3840 -12639 12659 0
-12640 12659 0
-3840 -12640 12660 0
-12641 12660 0
-3840 -12641 0
-3840 12661 0
-12642 12661 0
-3840 -12642 12662 0
-12643 12662 0
-3840 -12643 12663 0
-12644 12663 0
-3840 -12644 12664 0
-12645 12664 0
-3840 -12645 12665 0
-12646 12665 0
-3840 -12646 12666 0
-12647 12666 0
-3840 -12647 12667 0
-12648 12667 0
-3840 -12648 12668 0
-12649 12668 0
-3840 -12649 12669 0
-12650 12669 0
-3840 -12650 12670 0
-12651 12670 0
-3840 -12651 12671 0
-12652 12671 0
-3840 -12652 12672 0
-12653 12672 0
-3840 -12653 12673 0
-12654 12673 0
-3840 -12654 12674 0
-12655 12674 0
-3840 -12655 12675 0
-12656 12675 0
-3840 -12656 12676 0
-12657 12676 0
-3840 -12657 12677 0
-12658 12677 0
-3840 -12658 12678 0
-12659 12678 0
-3840 -12659 12679 0
-12660 12679 0
-3840 -12660 0
-3850 12680 0
-12661 12680 0
-3850 -12661 12681 0
-12662 12681 0
-3850 -12662 12682 0
-12663 12682 0
-3850 -12663 12683 0
-12664 12683 0
-3850 -12664 12684 0
-12665 12684 0
-3850 -12665 12685 0
-12666 12685 0
-3850 -12666 12686 0
-12667 12686 0
-3850 -12667 12687 0
-12668 12687 0
-3850 -12668 12688 0
-12669 12688 0
-3850 -12669 12689 0
-12670 12689 0
-3850 -12670 12690 0
-12671 12690 0
-3850 -12671 12691 0
-12672 12691 0
-3850 -12672 12692 0
-12673 12692 0
-3850 -12673 12693 0
-12674 12693 0
-3850 -12674 12694 0
-12675 12694 0
-3850 -12675 12695 0
-12676 12695 0
-3850 -12676 12696 0
-12677 12696 0
-3850 -12677 12697 0
-12678 12697 0
-3850 -12678 12698 0
-12679 12698 0
-3850 -12679 0
-3850 12699 0
-12680 12699 0
-3850 -12680 12700 0
-12681 12700 0
-3850 -12681 12701 0
-12682 12701 0
-3850 -12682 12702 0
-12683 12702 0
-3850 -12683 12703 0
-12684 12703 0
-3850 -12684 12704 0
-12685 12704 0
-3850 -12685 12705 0
-12686 12705 0
-3850 -12686 12706 0
-12687 12706 0
-3850 -12687 12707 0
-12688 12707 0
-3850 -12688 12708 0
-12689 12708 0
-3850 -12689 12709 0
-12690 12709 0
-3850 -12690 12710 0
-12691 12710 0
-3850 -12691 12711 0
-12692 12711 0
-3850 -12692 12712 0
-12693 12712 0
-3850 -12693 12713 0
-12694 12713 0
-3850 -12694 12714 0
-12695 12714 0
-3850 -12695 12715 0
-12696 12715 0
-3850 -12696 12716 0
-12697 12716 0
-3850 -12697 12717 0
-12698 12717 0
-3850 -12698 0
-3850 12718 0
-12699 12718 0
-3850 -12699 12719 0
-12700 12719 0
-3850 -12700 12720 0
-12701 12720 0
-3850 -12701 12721 0
-12702 12721 0
-3850 -12702 12722 0
-12703 12722 0
-3850 -12703 12723 0
-12704 12723 0
-3850 -12704 12724 0
-12705 12724 0
-3850 -12705 12725 0
-12706 12725 0
-3850 -12706 12726 0
-12707 12726 0
-3850 -12707 12727 0
-12708 12727 0
-3850 -12708 12728 0
-12709 12728 0
-3850 -12709 12729 0
-12710 12729 0
-3850 -12710 12730 0
-12711 12730 0
-3850 -12711 12731 0
-12712 12731 0
-3850 -12712 12732 0
-12713 12732 0
-3850 -12713 12733 0
-12714 12733 0
-3850 -12714 12734 0
-12715 12734 0
-3850 -12715 12735 0
-12716 12735 0
-3850 -12716 12736 0
-12717 12736 0
-3850 -12717 0
-3851 12737 0
-12718 12737 0
-3851 -12718 12738 0
-12719 12738 0
-3851 -12719 12739 0
-12720 12739 0
-3851 -12720 12740 0
-12721 12740 0
-3851 -12721 12741 0
-12722 12741 0
-3851 -12722 12742 0
-12723 12742 0
-3851 -12723 12743 0
-12724 12743 0
-3851 -12724 12744 0
-12725 12744 0
-3851 -12725 12745 0
-12726 12745 0
-3851 -12726 12746 0
-12727 12746 0
-3851 -12727 12747 0
-12728 12747 0
-3851 -12728 12748 0
-12729 12748 0
-3851 -12729 12749 0
-12730 12749 0
-3851 -12730 12750 0
-12731 12750 0
-3851 -12731 12751 0
-12732 12751 0
-3851 -12732 12752 0
-12733 12752 0
-3851 -12733 12753 0
-12734 12753 0
-3851 -12734 12754 0
-12735 12754 0
-3851 -12735 12755 0
-12736 12755 0
-3851 -12736 0
-3851 12756 0
-12737 12756 0
-3851 -12737 12757 0
-12738 12757 0
-3851 -12738 12758 0
-12739 12758 0
-3851 -12739 12759 0
-12740 12759 0
-3851 -12740 12760 0
-12741 12760 0
-3851 -12741 12761 0
-12742 12761 0
-3851 -12742 12762 0
-12743 12762 0
-3851 -12743 12763 0
-12744 12763 0
-3851 -12744 12764 0
-12745 12764 0
-3851 -12745 12765 0
-12746 12765 0
-3851 -12746 12766 0
-12747 12766 0
-3851 -12747 12767 0
-12748 12767 0
-3851 -12748 12768 0
-12749 12768 0
-3851 -12749 12769 0
-12750 12769 0
-3851 -12750 12770 0
-12751 12770 0
-3851 -12751 12771 0
-12752 12771 0
-3851 -12752 12772 0
-12753 12772 0
-3851 -12753 12773 0
-12754 12773 0
-3851 -12754 12774 0
-12755 12774 0
-3851 -12755 0
-3861 12775 0
-12756 12775 0
-3861 -12756 12776 0
-12757 12776 0
-3861 -12757 12777 0
-12758 12777 0
-3861 -12758 12778 0
-12759 12778 0
-3861 -12759 12779 0
-12760 12779 0
-3861 -12760 12780 0
-12761 12780 0
-3861 -12761 12781 0
-12762 12781 0
-3861 -12762 12782 0
-12763 12782 0
-3861 -12763 12783 0
-12764 12783 0
-3861 -12764 12784 0
-12765 12784 0
-3861 -12765 12785 0
-12766 12785 0
-3861 -12766 12786 0
-12767 12786 0
-3861 -12767 12787 0
-12768 12787 0
-3861 -12768 12788 0
-12769 12788 0
-3861 -12769 12789 0
-12770 12789 0
-3861 -12770 12790 0
-12771 12790 0
-3861 -12771 12791 0
-12772 12791 0
-3861 -12772 12792 0
-12773 12792 0
-3861 -12773 12793 0
-12774 12793 0
-3861 -12774 0
-3861 12794 0
-12775 12794 0
-3861 -12775 12795 0
-12776 12795 0
-3861 -12776 12796 0
-12777 12796 0
-3861 -12777 12797 0
-12778 12797 0
-3861 -12778 12798 0
-12779 12798 0
-3861 -12779 12799 0
-12780 12799 0
-3861 -12780 12800 0
-12781 12800 0
-3861 -12781 12801 0
-12782 12801 0
-3861 -12782 12802 0
-12783 12802 0
-3861 -12783 12803 0
-12784 12803 0
-3861 -12784 12804 0
-12785 12804 0
-3861 -12785 12805 0
-12786 12805 0
-3861 -12786 12806 0
-12787 12806 0
-3861 -12787 12807 0
-12788 12807 0
-3861 -12788 12808 0
-12789 12808 0
-3861 -12789 12809 0
-12790 12809 0
-3861 -12790 12810 0
-12791 12810 0
-3861 -12791 12811 0
-12792 12811 0
-3861 -12792 12812 0
-12793 12812 0
-3861 -12793 0
-3861 12813 0
-12794 12813 0
-3861 -12794 12814 0
-12795 12814 0
-3861 -12795 12815 0
-12796 12815 0
-3861 -12796 12816 0
-12797 12816 0
-3861 -12797 12817 0
-12798 12817 0
-3861 -12798 12818 0
-12799 12818 0
-3861 -12799 12819 0
-12800 12819 0
-3861 -12800 12820 0
-12801 12820 0
-3861 -12801 12821 0
-12802 12821 0
-3861 -12802 12822 0
-12803 12822 0
-3861 -12803 12823 0
-12804 12823 0
-3861 -12804 12824 0
-12805 12824 0
-3861 -12805 12825 0
-12806 12825 0
-3861 -12806 12826 0
-12807 12826 0
-3861 -12807 12827 0
-12808 12827 0
-3861 -12808 12828 0
-12809 12828 0
-3861 -12809 12829 0
-12810 12829 0
-3861 -12810 12830 0
-12811 12830 0
-3861 -12811 12831 0
-12812 12831 0
-3861 -12812 0
-3862 12832 0
-12813 12832 0
-3862 -12813 12833 0
-12814 12833 0
-3862 -12814 12834 0
-12815 12834 0
-3862 -12815 12835 0
-12816 12835 0
-3862 -12816 12836 0
-12817 12836 0
-3862 -12817 12837 0
-12818 12837 0
-3862 -12818 12838 0
-12819 12838 0
-3862 -12819 12839 0
-12820 12839 0
-3862 -12820 12840 0
-12821 12840 0
-3862 -12821 12841 0
-12822 12841 0
-3862 -12822 12842 0
-12823 12842 0
-3862 -12823 12843 0
-12824 12843 0
-3862 -12824 12844 0
-12825 12844 0
-3862 -12825 12845 0
-12826 12845 0
-3862 -12826 12846 0
-12827 12846 0
-3862 -12827 12847 0
-12828 12847 0
-3862 -12828 12848 0
-12829 12848 0
-3862 -12829 12849 0
-12830 12849 0
-3862 -12830 12850 0
-12831 12850 0
-3862 -12831 0
-3862 12851 0
-12832 12851 0
-3862 -12832 12852 0
-12833 12852 0
-3862 -12833 12853 0
-12834 12853 0
-3862 -12834 12854 0
-12835 12854 0
-3862 -12835 12855 0
-12836 12855 0
-3862 -12836 12856 0
-12837 12856 0
-3862 -12837 12857 0
-12838 12857 0
-3862 -12838 12858 0
-12839 12858 0
-3862 -12839 12859 0
-12840 12859 0
-3862 -12840 12860 0
-12841 12860 0
-3862 -12841 12861 0
-12842 12861 0
-3862 -12842 12862 0
-12843 12862 0
-3862 -12843 12863 0
-12844 12863 0
-3862 -12844 12864 0
-12845 12864 0
-3862 -12845 12865 0
-12846 12865 0
-3862 -12846 12866 0
-12847 12866 0
-3862 -12847 12867 0
-12848 12867 0
-3862 -12848 12868 0
-12849 12868 0
-3862 -12849 12869 0
-12850 12869 0
-3862 -12850 0
-3872 12870 0
-12851 12870 0
-3872 -12851 12871 0
-12852 12871 0
-3872 -12852 12872 0
-12853 12872 0
-3872 -12853 12873 0
-12854 12873 0
-3872 -12854 12874 0
-12855 12874 0
-3872 -12855 12875 0
-12856 12875 0
-3872 -12856 12876 0
-12857 12876 0
-3872 -12857 12877 0
-12858 12877 0
-3872 -12858 12878 0
-12859 12878 0
-3872 -12859 12879 0
-12860 12879 0
-3872 -12860 12880 0
-12861 12880 0
-3872 -12861 12881 0
-12862 12881 0
-3872 -12862 12882 0
-12863 12882 0
-3872 -12863 12883 0
-12864 12883 0
-3872 -12864 12884 0
-12865 12884 0
-3872 -12865 12885 0
-12866 12885 0
-3872 -12866 12886 0
-12867 12886 0
-3872 -12867 12887 0
-12868 12887 0
-3872 -12868 12888 0
-12869 12888 0
-3872 -12869 0
-3872 12889 0
-12870 12889 0
-3872 -12870 12890 0
-12871 12890 0
-3872 -12871 12891 0
-12872 12891 0
-3872 -12872 12892 0
-12873 12892 0
-3872 -12873 12893 0
-12874 12893 0
-3872 -12874 12894 0
-12875 12894 0
-3872 -12875 12895 0
-12876 12895 0
-3872 -12876 12896 0
-12877 12896 0
-3872 -12877 12897 0
-12878 12897 0
-3872 -12878 12898 0
-12879 12898 0
-3872 -12879 12899 0
-12880 12899 0
-3872 -12880 12900 0
-12881 12900 0
-3872 -12881 12901 0
-12882 12901 0
-3872 -12882 12902 0
-12883 12902 0
-3872 -12883 12903 0
-12884 12903 0
-3872 -12884 12904 0
-12885 12904 0
-3872 -12885 12905 0
-12886 12905 0
-3872 -12886 12906 0
-12887 12906 0
-3872 -12887 12907 0
-12888 12907 0
-3872 -12888 0
-3872 12908 0
-12889 12908 0
-3872 -12889 12909 0
-12890 12909 0
-3872 -12890 12910 0
-12891 12910 0
-3872 -12891 12911 0
-12892 12911 0
-3872 -12892 12912 0
-12893 12912 0
-3872 -12893 12913 0
-12894 12913 0
-3872 -12894 12914 0
-12895 12914 0
-3872 -12895 12915 0
-12896 12915 0
-3872 -12896 12916 0
-12897 12916 0
-3872 -12897 12917 0
-12898 12917 0
-3872 -12898 12918 0
-12899 12918 0
-3872 -12899 12919 0
-12900 12919 0
-3872 -12900 12920 0
-12901 12920 0
-3872 -12901 12921 0
-12902 12921 0
-3872 -12902 12922 0
-12903 12922 0
-3872 -12903 12923 0
-12904 12923 0
-3872 -12904 12924 0
-12905 12924 0
-3872 -12905 12925 0
-12906 12925 0
-3872 -12906 12926 0
-12907 12926 0
-3872 -12907 0
-3873 12927 0
-12908 12927 0
-3873 -12908 12928 0
-12909 12928 0
-3873 -12909 12929 0
-12910 12929 0
-3873 -12910 12930 0
-12911 12930 0
-3873 -12911 12931 0
-12912 12931 0
-3873 -12912 12932 0
-12913 12932 0
-3873 -12913 12933 0
-12914 12933 0
-3873 -12914 12934 0
-12915 12934 0
-3873 -12915 12935 0
-12916 12935 0
-3873 -12916 12936 0
-12917 12936 0
-3873 -12917 12937 0
-12918 12937 0
-3873 -12918 12938 0
-12919 12938 0
-3873 -12919 12939 0
-12920 12939 0
-3873 -12920 12940 0
-12921 12940 0
-3873 -12921 12941 0
-12922 12941 0
-3873 -12922 12942 0
-12923 12942 0
-3873 -12923 12943 0
-12924 12943 0
-3873 -12924 12944 0
-12925 12944 0
-3873 -12925 12945 0
-12926 12945 0
-3873 -12926 0
-3873 12946 0
-12927 12946 0
-3873 -12927 12947 0
-12928 12947 0
-3873 -12928 12948 0
-12929 12948 0
-3873 -12929 12949 0
-12930 12949 0
-3873 -12930 12950 0
-12931 12950 0
-3873 -12931 12951 0
-12932 12951 0
-3873 -12932 12952 0
-12933 12952 0
-3873 -12933 12953 0
-12934 12953 0
-3873 -12934 12954 0
-12935 12954 0
-3873 -12935 12955 0
-12936 12955 0
-3873 -12936 12956 0
-12937 12956 0
-3873 -12937 12957 0
-12938 12957 0
-3873 -12938 12958 0
-12939 12958 0
-3873 -12939 12959 0
-12940 12959 0
-3873 -12940 12960 0
-12941 12960 0
-3873 -12941 12961 0
-12942 12961 0
-3873 -12942 12962 0
-12943 12962 0
-3873 -12943 12963 0
-12944 12963 0
-3873 -12944 12964 0
-12945 12964 0
-3873 -12945 0
-5517 12965 0
-12946 12965 0
-5517 -12946 12966 0
-12947 12966 0
-5517 -12947 12967 0
-12948 12967 0
-5517 -12948 12968 0
-12949 12968 0
-5517 -12949 12969 0
-12950 12969 0
-5517 -12950 12970 0
-12951 12970 0
-5517 -12951 12971 0
-12952 12971 0
-5517 -12952 12972 0
-12953 12972 0
-5517 -12953 12973 0
-12954 12973 0
-5517 -12954 12974 0
-12955 12974 0
-5517 -12955 12975 0
-12956 12975 0
-5517 -12956 12976 0
-12957 12976 0
-5517 -12957 12977 0
-12958 12977 0
-5517 -12958 12978 0
-12959 12978 0
-5517 -12959 12979 0
-12960 12979 0
-5517 -12960 12980 0
-12961 12980 0
-5517 -12961 12981 0
-12962 12981 0
-5517 -12962 12982 0
-12963 12982 0
-5517 -12963 12983 0
-12964 12983 0
-5517 -12964 0
-5517 12984 0
-12965 12984 0
-5517 -12965 12985 0
-12966 12985 0
-5517 -12966 12986 0
-12967 12986 0
-5517 -12967 12987 0
-12968 12987 0
-5517 -12968 12988 0
-12969 12988 0
-5517 -12969 12989 0
-12970 12989 0
-5517 -12970 12990 0
-12971 12990 0
-5517 -12971 12991 0
-12972 12991 0
-5517 -12972 12992 0
-12973 12992 0
-5517 -12973 12993 0
-12974 12993 0
-5517 -12974 12994 0
-12975 12994 0
-5517 -12975 12995 0
-12976 12995 0
-5517 -12976 12996 0
-12977 12996 0
-5517 -12977 12997 0
-12978 12997 0
-5517 -12978 12998 0
-12979 12998 0
-5517 -12979 12999 0
-12980 12999 0
-5517 -12980 13000 0
-12981 13000 0
-5517 -12981 13001 0
-12982 13001 0
-5517 -12982 13002 0
-12983 13002 0
-5517 -12983 0
-5517 13003 0
-12984 13003 0
-5517 -12984 13004 0
-12985 13004 0
-5517 -12985 13005 0
-12986 13005 0
-5517 -12986 13006 0
-12987 13006 0
-5517 -12987 13007 0
-12988 13007 0
-5517 -12988 13008 0
-12989 13008 0
-5517 -12989 13009 0
-12990 13009 0
-5517 -12990 13010 0
-12991 13010 0
-5517 -12991 13011 0
-12992 13011 0
-5517 -12992 13012 0
-12993 13012 0
-5517 -12993 13013 0
-12994 13013 0
-5517 -12994 13014 0
-12995 13014 0
-5517 -12995 13015 0
-12996 13015 0
-5517 -12996 13016 0
-12997 13016 0
-5517 -12997 13017 0
-12998 13017 0
-5517 -12998 13018 0
-12999 13018 0
-5517 -12999 13019 0
-13000 13019 0
-5517 -13000 13020 0
-13001 13020 0
-5517 -13001 13021 0
-13002 13021 0
-5517 -13002 0
-5518 13022 0
-13003 13022 0
-5518 -13003 13023 0
-13004 13023 0
-5518 -13004 13024 0
-13005 13024 0
-5518 -13005 13025 0
-13006 13025 0
-5518 -13006 13026 0
-13007 13026 0
-5518 -13007 13027 0
-13008 13027 0
-5518 -13008 13028 0
-13009 13028 0
-5518 -13009 13029 0
-13010 13029 0
-5518 -13010 13030 0
-13011 13030 0
-5518 -13011 13031 0
-13012 13031 0
-5518 -13012 13032 0
-13013 13032 0
-5518 -13013 13033 0
-13014 13033 0
-5518 -13014 13034 0
-13015 13034 0
-5518 -13015 13035 0
-13016 13035 0
-5518 -13016 13036 0
-13017 13036 0
-5518 -13017 13037 0
-13018 13037 0
-5518 -13018 13038 0
-13019 13038 0
-5518 -13019 13039 0
-13020 13039 0
-5518 -13020 13040 0
-13021 13040 0
-5518 -13021 0
-5518 13041 0
-13022 13041 0
-5518 -13022 13042 0
-13023 13042 0
-5518 -13023 13043 0
-13024 13043 0
-5518 -13024 13044 0
-13025 13044 0
-5518 -13025 13045 0
-13026 13045 0
-5518 -13026 13046 0
-13027 13046 0
-5518 -13027 13047 0
-13028 13047 0
-5518 -13028 13048 0
-13029 13048 0
-5518 -13029 13049 0
-13030 13049 0
-5518 -13030 13050 0
-13031 13050 0
-5518 -13031 13051 0
-13032 13051 0
-5518 -13032 13052 0
-13033 13052 0
-5518 -13033 13053 0
-13034 13053 0
-5518 -13034 13054 0
-13035 13054 0
-5518 -13035 13055 0
-13036 13055 0
-5518 -13036 13056 0
-13037 13056 0
-5518 -13037 13057 0
-13038 13057 0
-5518 -13038 13058 0
-13039 13058 0
-5518 -13039 13059 0
-13040 13059 0
-5518 -13040 0
-5528 13060 0
-13041 13060 0
-5528 -13041 13061 0
-13042 13061 0
-5528 -13042 13062 0
-13043 13062 0
-5528 -13043 13063 0
-13044 13063 0
-5528 -13044 13064 0
-13045 13064 0
-5528 -13045 13065 0
-13046 13065 0
-5528 -13046 13066 0
-13047 13066 0
-5528 -13047 13067 0
-13048 13067 0
-5528 -13048 13068 0
-13049 13068 0
-5528 -13049 13069 0
-13050 13069 0
-5528 -13050 13070 0
-13051 13070 0
-5528 -13051 13071 0
-13052 13071 0
-5528 -13052 13072 0
-13053 13072 0
-5528 -13053 13073 0
-13054 13073 0
-5528 -13054 13074 0
-13055 13074 0
-5528 -13055 13075 0
-13056 13075 0
-5528 -13056 13076 0
-13057 13076 0
-5528 -13057 13077 0
-13058 13077 0
-5528 -13058 13078 0
-13059 13078 0
-5528 -13059 0
-5528 13079 0
-13060 13079 0
-5528 -13060 13080 0
-13061 13080 0
-5528 -13061 13081 0
-13062 13081 0
-5528 -13062 13082 0
-13063 13082 0
-5528 -13063 13083 0
-13064 13083 0
-5528 -13064 13084 0
-13065 13084 0
-5528 -13065 13085 0
-13066 13085 0
-5528 -13066 13086 0
-13067 13086 0
-5528 -13067 13087 0
-13068 13087 0
-5528 -13068 13088 0
-13069 13088 0
-5528 -13069 13089 0
-13070 13089 0
-5528 -13070 13090 0
-13071 13090 0
-5528 -13071 13091 0
-13072 13091 0
-5528 -13072 13092 0
-13073 13092 0
-5528 -13073 13093 0
-13074 13093 0
-5528 -13074 13094 0
-13075 13094 0
-5528 -13075 13095 0
-13076 13095 0
-5528 -13076 13096 0
-13077 13096 0
-5528 -13077 13097 0
-13078 13097 0
-5528 -13078 0
-5528 13098 0
-13079 13098 0
-5528 -13079 13099 0
-13080 13099 0
-5528 -13080 13100 0
-13081 13100 0
-5528 -13081 13101 0
-13082 13101 0
-5528 -13082 13102 0
-13083 13102 0
-5528 -13083 13103 0
-13084 13103 0
-5528 -13084 13104 0
-13085 13104 0
-5528 -13085 13105 0
-13086 13105 0
-5528 -13086 13106 0
-13087 13106 0
-5528 -13087 13107 0
-13088 13107 0
-5528 -13088 13108 0
-13089 13108 0
-5528 -13089 13109 0
-13090 13109 0
-5528 -13090 13110 0
-13091 13110 0
-5528 -13091 13111 0
-13092 13111 0
-5528 -13092 13112 0
-13093 13112 0
-5528 -13093 13113 0
-13094 13113 0
-5528 -13094 13114 0
-13095 13114 0
-5528 -13095 13115 0
-13096 13115 0
-5528 -13096 13116 0
-13097 13116 0
-5528 -13097 0
-5529 13117 0
-13098 13117 0
-5529 -13098 13118 0
-13099 13118 0
-5529 -13099 13119 0
-13100 13119 0
-5529 -13100 13120 0
-13101 13120 0
-5529 -13101 13121 0
-13102 13121 0
-5529 -13102 13122 0
-13103 13122 0
-5529 -13103 13123 0
-13104 13123 0
-5529 -13104 13124 0
-13105 13124 0
-5529 -13105 13125 0
-13106 13125 0
-5529 -13106 13126 0
-13107 13126 0
-5529 -13107 13127 0
-13108 13127 0
-5529 -13108 13128 0
-13109 13128 0
-5529 -13109 13129 0
-13110 13129 0
-5529 -13110 13130 0
-13111 13130 0
-5529 -13111 13131 0
-13112 13131 0
-5529 -13112 13132 0
-13113 13132 0
-5529 -13113 13133 0
-13114 13133 0
-5529 -13114 13134 0
-13115 13134 0
-5529 -13115 13135 0
-13116 13135 0
-5529 -13116 0
-5529 13136 0
-13117 13136 0
-5529 -13117 13137 0
-13118 13137 0
-5529 -13118 13138 0
-13119 13138 0
-5529 -13119 13139 0
-13120 13139 0
-5529 -13120 13140 0
-13121 13140 0
-5529 -13121 13141 0
-13122 13141 0
-5529 -13122 13142 0
-13123 13142 0
-5529 -13123 13143 0
-13124 13143 0
-5529 -13124 13144 0
-13125 13144 0
-5529 -13125 13145 0
-13126 13145 0
-5529 -13126 13146 0
-13127 13146 0
-5529 -13127 13147 0
-13128 13147 0
-5529 -13128 13148 0
-13129 13148 0
-5529 -13129 13149 0
-13130 13149 0
-5529 -13130 13150 0
-13131 13150 0
-5529 -13131 13151 0
-13132 13151 0
-5529 -13132 13152 0
-13133 13152 0
-5529 -13133 13153 0
-13134 13153 0
-5529 -13134 13154 0
-13135 13154 0
-5529 -13135 0
-5539 13155 0
-13136 13155 0
-5539 -13136 13156 0
-13137 13156 0
-5539 -13137 13157 0
-13138 13157 0
-5539 -13138 13158 0
-13139 13158 0
-5539 -13139 13159 0
-13140 13159 0
-5539 -13140 13160 0
-13141 13160 0
-5539 -13141 13161 0
-13142 13161 0
-5539 -13142 13162 0
-13143 13162 0
-5539 -13143 13163 0
-13144 13163 0
-5539 -13144 13164 0
-13145 13164 0
-5539 -13145 13165 0
-13146 13165 0
-5539 -13146 13166 0
-13147 13166 0
-5539 -13147 13167 0
-13148 13167 0
-5539 -13148 13168 0
-13149 13168 0
-5539 -13149 13169 0
-13150 13169 0
-5539 -13150 13170 0
-13151 13170 0
-5539 -13151 13171 0
-13152 13171 0
-5539 -13152 13172 0
-13153 13172 0
-5539 -13153 13173 0
-13154 13173 0
-5539 -13154 0
-5539 13174 0
-13155 13174 0
-5539 -13155 13175 0
-13156 13175 0
-5539 -13156 13176 0
-13157 13176 0
-5539 -13157 13177 0
-13158 13177 0
-5539 -13158 13178 0
-13159 13178 0
-5539 -13159 13179 0
-13160 13179 0
-5539 -13160 13180 0
-13161 13180 0
-5539 -13161 13181 0
-13162 13181 0
-5539 -13162 13182 0
-13163 13182 0
-5539 -13163 13183 0
-13164 13183 0
-5539 -13164 13184 0
-13165 13184 0
-5539 -13165 13185 0
-13166 13185 0
-5539 -13166 13186 0
-13167 13186 0
-5539 -13167 13187 0
-13168 13187 0
-5539 -13168 13188 0
-13169 13188 0
-5539 -13169 13189 0
-13170 13189 0
-5539 -13170 13190 0
-13171 13190 0
-5539 -13171 13191 0
-13172 13191 0
-5539 -13172 13192 0
-13173 13192 0
-5539 -13173 0
-5539 13193 0
-13174 13193 0
-5539 -13174 13194 0
-13175 13194 0
-5539 -13175 13195 0
-13176 13195 0
-5539 -13176 13196 0
-13177 13196 0
-5539 -13177 13197 0
-13178 13197 0
-5539 -13178 13198 0
-13179 13198 0
-5539 -13179 13199 0
-13180 13199 0
-5539 -13180 13200 0
-13181 13200 0
-5539 -13181 13201 0
-13182 13201 0
-5539 -13182 13202 0
-13183 13202 0
-5539 -13183 13203 0
-13184 13203 0
-5539 -13184 13204 0
-13185 13204 0
-5539 -13185 13205 0
-13186 13205 0
-5539 -13186 13206 0
-13187 13206 0
-5539 -13187 13207 0
-13188 13207 0
-5539 -13188 13208 0
-13189 13208 0
-5539 -13189 13209 0
-13190 13209 0
-5539 -13190 13210 0
-13191 13210 0
-5539 -13191 13211 0
-13192 13211 0
-5539 -13192 0
-5540 13212 0
-13193 13212 0
-5540 -13193 13213 0
-13194 13213 0
-5540 -13194 13214 0
-13195 13214 0
-5540 -13195 13215 0
-13196 13215 0
-5540 -13196 13216 0
-13197 13216 0
-5540 -13197 13217 0
-13198 13217 0
-5540 -13198 13218 0
-13199 13218 0
-5540 -13199 13219 0
-13200 13219 0
-5540 -13200 13220 0
-13201 13220 0
-5540 -13201 13221 0
-13202 13221 0
-5540 -13202 13222 0
-13203 13222 0
-5540 -13203 13223 0
-13204 13223 0
-5540 -13204 13224 0
-13205 13224 0
-5540 -13205 13225 0
-13206 13225 0
-5540 -13206 13226 0
-13207 13226 0
-5540 -13207 13227 0
-13208 13227 0
-5540 -13208 13228 0
-13209 13228 0
-5540 -13209 13229 0
-13210 13229 0
-5540 -13210 13230 0
-13211 13230 0
-5540 -13211 0
-5540 13231 0
-13212 13231 0
-5540 -13212 13232 0
-13213 13232 0
-5540 -13213 13233 0
-13214 13233 0
-5540 -13214 13234 0
-13215 13234 0
-5540 -13215 13235 0
-13216 13235 0
-5540 -13216 13236 0
-13217 13236 0
-5540 -13217 13237 0
-13218 13237 0
-5540 -13218 13238 0
-13219 13238 0
-5540 -13219 13239 0
-13220 13239 0
-5540 -13220 13240 0
-13221 13240 0
-5540 -13221 13241 0
-13222 13241 0
-5540 -13222 13242 0
-13223 13242 0
-5540 -13223 13243 0
-13224 13243 0
-5540 -13224 13244 0
-13225 13244 0
-5540 -13225 13245 0
-13226 13245 0
-5540 -13226 13246 0
-13227 13246 0
-5540 -13227 13247 0
-13228 13247 0
-5540 -13228 13248 0
-13229 13248 0
-5540 -13229 13249 0
-13230 13249 0
-5540 -13230 0
-5550 13250 0
-13231 13250 0
-5550 -13231 13251 0
-13232 13251 0
-5550 -13232 13252 0
-13233 13252 0
-5550 -13233 13253 0
-13234 13253 0
-5550 -13234 13254 0
-13235 13254 0
-5550 -13235 13255 0
-13236 13255 0
-5550 -13236 13256 0
-13237 13256 0
-5550 -13237 13257 0
-13238 13257 0
-5550 -13238 13258 0
-13239 13258 0
-5550 -13239 13259 0
-13240 13259 0
-5550 -13240 13260 0
-13241 13260 0
-5550 -13241 13261 0
-13242 13261 0
-5550 -13242 13262 0
-13243 13262 0
-5550 -13243 13263 0
-13244 13263 0
-5550 -13244 13264 0
-13245 13264 0
-5550 -13245 13265 0
-13246 13265 0
-5550 -13246 13266 0
-13247 13266 0
-5550 -13247 13267 0
-13248 13267 0
-5550 -13248 13268 0
-13249 13268 0
-5550 -13249 0
-5550 13269 0
-13250 13269 0
-5550 -13250 13270 0
-13251 13270 0
-5550 -13251 13271 0
-13252 13271 0
-5550 -13252 13272 0
-13253 13272 0
-5550 -13253 13273 0
-13254 13273 0
-5550 -13254 13274 0
-13255 13274 0
-5550 -13255 13275 0
-13256 13275 0
-5550 -13256 13276 0
-13257 13276 0
-5550 -13257 13277 0
-13258 13277 0
-5550 -13258 13278 0
-13259 13278 0
-5550 -13259 13279 0
-13260 13279 0
-5550 -13260 13280 0
-13261 13280 0
-5550 -13261 13281 0
-13262 13281 0
-5550 -13262 13282 0
-13263 13282 0
-5550 -13263 13283 0
-13264 13283 0
-5550 -13264 13284 0
-13265 13284 0
-5550 -13265 13285 0
-13266 13285 0
-5550 -13266 13286 0
-13267 13286 0
-5550 -13267 13287 0
-13268 13287 0
-5550 -13268 0
-5550 13288 0
-13269 13288 0
-5550 -13269 13289 0
-13270 13289 0
-5550 -13270 13290 0
-13271 13290 0
-5550 -13271 13291 0
-13272 13291 0
-5550 -13272 13292 0
-13273 13292 0
-5550 -13273 13293 0
-13274 13293 0
-5550 -13274 13294 0
-13275 13294 0
-5550 -13275 13295 0
-13276 13295 0
-5550 -13276 13296 0
-13277 13296 0
-5550 -13277 13297 0
-13278 13297 0
-5550 -13278 13298 0
-13279 13298 0
-5550 -13279 13299 0
-13280 13299 0
-5550 -13280 13300 0
-13281 13300 0
-5550 -13281 13301 0
-13282 13301 0
-5550 -13282 13302 0
-13283 13302 0
-5550 -13283 13303 0
-13284 13303 0
-5550 -13284 13304 0
-13285 13304 0
-5550 -13285 13305 0
-13286 13305 0
-5550 -13286 13306 0
-13287 13306 0
-5550 -13287 0
-5551 13307 0
-13288 13307 0
-5551 -13288 13308 0
-13289 13308 0
-5551 -13289 13309 0
-13290 13309 0
-5551 -13290 13310 0
-13291 13310 0
-5551 -13291 13311 0
-13292 13311 0
-5551 -13292 13312 0
-13293 13312 0
-5551 -13293 13313 0
-13294 13313 0
-5551 -13294 13314 0
-13295 13314 0
-5551 -13295 13315 0
-13296 13315 0
-5551 -13296 13316 0
-13297 13316 0
-5551 -13297 13317 0
-13298 13317 0
-5551 -13298 13318 0
-13299 13318 0
-5551 -13299 13319 0
-13300 13319 0
-5551 -13300 13320 0
-13301 13320 0
-5551 -13301 13321 0
-13302 13321 0
-5551 -13302 13322 0
-13303 13322 0
-5551 -13303 13323 0
-13304 13323 0
-5551 -13304 13324 0
-13305 13324 0
-5551 -13305 13325 0
-13306 13325 0
-5551 -13306 0
-5551 13326 0
-13307 13326 0
-5551 -13307 13327 0
-13308 13327 0
-5551 -13308 13328 0
-13309 13328 0
-5551 -13309 13329 0
-13310 13329 0
-5551 -13310 13330 0
-13311 13330 0
-5551 -13311 13331 0
-13312 13331 0
-5551 -13312 13332 0
-13313 13332 0
-5551 -13313 13333 0
-13314 13333 0
-5551 -13314 13334 0
-13315 13334 0
-5551 -13315 13335 0
-13316 13335 0
-5551 -13316 13336 0
-13317 13336 0
-5551 -13317 13337 0
-13318 13337 0
-5551 -13318 13338 0
-13319 13338 0
-5551 -13319 13339 0
-13320 13339 0
-5551 -13320 13340 0
-13321 13340 0
-5551 -13321 13341 0
-13322 13341 0
-5551 -13322 13342 0
-13323 13342 0
-5551 -13323 13343 0
-13324 13343 0
-5551 -13324 13344 0
-13325 13344 0
-5551 -13325 0
-5561 13345 0
-13326 13345 0
-5561 -13326 13346 0
-13327 13346 0
-5561 -13327 13347 0
-13328 13347 0
-5561 -13328 13348 0
-13329 13348 0
-5561 -13329 13349 0
-13330 13349 0
-5561 -13330 13350 0
-13331 13350 0
-5561 -13331 13351 0
-13332 13351 0
-5561 -13332 13352 0
-13333 13352 0
-5561 -13333 13353 0
-13334 13353 0
-5561 -13334 13354 0
-13335 13354 0
-5561 -13335 13355 0
-13336 13355 0
-5561 -13336 13356 0
-13337 13356 0
-5561 -13337 13357 0
-13338 13357 0
-5561 -13338 13358 0
-13339 13358 0
-5561 -13339 13359 0
-13340 13359 0
-5561 -13340 13360 0
-13341 13360 0
-5561 -13341 13361 0
-13342 13361 0
-5561 -13342 13362 0
-13343 13362 0
-5561 -13343 13363 0
-13344 13363 0
-5561 -13344 0
-5561 13364 0
-13345 13364 0
-5561 -13345 13365 0
-13346 13365 0
-5561 -13346 13366 0
-13347 13366 0
-5561 -13347 13367 0
-13348 13367 0
-5561 -13348 13368 0
-13349 13368 0
-5561 -13349 13369 0
-13350 13369 0
-5561 -13350 13370 0
-13351 13370 0
-5561 -13351 13371 0
-13352 13371 0
-5561 -13352 13372 0
-13353 13372 0
-5561 -13353 13373 0
-13354 13373 0
-5561 -13354 13374 0
-13355 13374 0
-5561 -13355 13375 0
-13356 13375 0
-5561 -13356 13376 0
-13357 13376 0
-5561 -13357 13377 0
-13358 13377 0
-5561 -13358 13378 0
-13359 13378 0
-5561 -13359 13379 0
-13360 13379 0
-5561 -13360 13380 0
-13361 13380 0
-5561 -13361 13381 0
-13362 13381 0
-5561 -13362 13382 0
-13363 13382 0
-5561 -13363 0
-5561 13383 0
-13364 13383 0
-5561 -13364 13384 0
-13365 13384 0
-5561 -13365 13385 0
-13366 13385 0
-5561 -13366 13386 0
-13367 13386 0
-5561 -13367 13387 0
-13368 13387 0
-5561 -13368 13388 0
-13369 13388 0
-5561 -13369 13389 0
-13370 13389 0
-5561 -13370 13390 0
-13371 13390 0
-5561 -13371 13391 0
-13372 13391 0
-5561 -13372 13392 0
-13373 13392 0
-5561 -13373 13393 0
-13374 13393 0
-5561 -13374 13394 0
-13375 13394 0
-5561 -13375 13395 0
-13376 13395 0
-5561 -13376 13396 0
-13377 13396 0
-5561 -13377 13397 0
-13378 13397 0
-5561 -13378 13398 0
-13379 13398 0
-5561 -13379 13399 0
-13380 13399 0
-5561 -13380 13400 0
-13381 13400 0
-5561 -13381 13401 0
-13382 13401 0
-5561 -13382 0
-5562 13402 0
-13383 13402 0
-5562 -13383 13403 0
-13384 13403 0
-5562 -13384 13404 0
-13385 13404 0
-5562 -13385 13405 0
-13386 13405 0
-5562 -13386 13406 0
-13387 13406 0
-5562 -13387 13407 0
-13388 13407 0
-5562 -13388 13408 0
-13389 13408 0
-5562 -13389 13409 0
-13390 13409 0
-5562 -13390 13410 0
-13391 13410 0
-5562 -13391 13411 0
-13392 13411 0
-5562 -13392 13412 0
-13393 13412 0
-5562 -13393 13413 0
-13394 13413 0
-5562 -13394 13414 0
-13395 13414 0
-5562 -13395 13415 0
-13396 13415 0
-5562 -13396 13416 0
-13397 13416 0
-5562 -13397 13417 0
-13398 13417 0
-5562 -13398 13418 0
-13399 13418 0
-5562 -13399 13419 0
-13400 13419 0
-5562 -13400 13420 0
-13401 13420 0
-5562 -13401 0
-5562 13421 0
-13402 13421 0
-5562 -13402 13422 0
-13403 13422 0
-5562 -13403 13423 0
-13404 13423 0
-5562 -13404 13424 0
-13405 13424 0
-5562 -13405 13425 0
-13406 13425 0
-5562 -13406 13426 0
-13407 13426 0
-5562 -13407 13427 0
-13408 13427 0
-5562 -13408 13428 0
-13409 13428 0
-5562 -13409 13429 0
-13410 13429 0
-5562 -13410 13430 0
-13411 13430 0
-5562 -13411 13431 0
-13412 13431 0
-5562 -13412 13432 0
-13413 13432 0
-5562 -13413 13433 0
-13414 13433 0
-5562 -13414 13434 0
-13415 13434 0
-5562 -13415 13435 0
-13416 13435 0
-5562 -13416 13436 0
-13417 13436 0
-5562 -13417 13437 0
-13418 13437 0
-5562 -13418 13438 0
-13419 13438 0
-5562 -13419 13439 0
-13420 13439 0
-5562 -13420 0
-5572 13440 0
-13421 13440 0
-5572 -13421 13441 0
-13422 13441 0
-5572 -13422 13442 0
-13423 13442 0
-5572 -13423 13443 0
-13424 13443 0
-5572 -13424 13444 0
-13425 13444 0
-5572 -13425 13445 0
-13426 13445 0
-5572 -13426 13446 0
-13427 13446 0
-5572 -13427 13447 0
-13428 13447 0
-5572 -13428 13448 0
-13429 13448 0
-5572 -13429 13449 0
-13430 13449 0
-5572 -13430 13450 0
-13431 13450 0
-5572 -13431 13451 0
-13432 13451 0
-5572 -13432 13452 0
-13433 13452 0
-5572 -13433 13453 0
-13434 13453 0
-5572 -13434 13454 0
-13435 13454 0
-5572 -13435 13455 0
-13436 13455 0
-5572 -13436 13456 0
-13437 13456 0
-5572 -13437 13457 0
-13438 13457 0
-5572 -13438 13458 0
-13439 13458 0
-5572 -13439 0
-5572 13459 0
-13440 13459 0
-5572 -13440 13460 0
-13441 13460 0
-5572 -13441 13461 0
-13442 13461 0
-5572 -13442 13462 0
-13443 13462 0
-5572 -13443 13463 0
-13444 13463 0
-5572 -13444 13464 0
-13445 13464 0
-5572 -13445 13465 0
-13446 13465 0
-5572 -13446 13466 0
-13447 13466 0
-5572 -13447 13467 0
-13448 13467 0
-5572 -13448 13468 0
-13449 13468 0
-5572 -13449 13469 0
-13450 13469 0
-5572 -13450 13470 0
-13451 13470 0
-5572 -13451 13471 0
-13452 13471 0
-5572 -13452 13472 0
-13453 13472 0
-5572 -13453 13473 0
-13454 13473 0
-5572 -13454 13474 0
-13455 13474 0
-5572 -13455 13475 0
-13456 13475 0
-5572 -13456 13476 0
-13457 13476 0
-5572 -13457 13477 0
-13458 13477 0
-5572 -13458 0
-5572 13478 0
-13459 13478 0
-5572 -13459 13479 0
-13460 13479 0
-5572 -13460 13480 0
-13461 13480 0
-5572 -13461 13481 0
-13462 13481 0
-5572 -13462 13482 0
-13463 13482 0
-5572 -13463 13483 0
-13464 13483 0
-5572 -13464 13484 0
-13465 13484 0
-5572 -13465 13485 0
-13466 13485 0
-5572 -13466 13486 0
-13467 13486 0
-5572 -13467 13487 0
-13468 13487 0
-5572 -13468 13488 0
-13469 13488 0
-5572 -13469 13489 0
-13470 13489 0
-5572 -13470 13490 0
-13471 13490 0
-5572 -13471 13491 0
-13472 13491 0
-5572 -13472 13492 0
-13473 13492 0
-5572 -13473 13493 0
-13474 13493 0
-5572 -13474 13494 0
-13475 13494 0
-5572 -13475 13495 0
-13476 13495 0
-5572 -13476 13496 0
-13477 13496 0
-5572 -13477 0
-5573 13497 0
-13478 13497 0
-5573 -13478 13498 0
-13479 13498 0
-5573 -13479 13499 0
-13480 13499 0
-5573 -13480 13500 0
-13481 13500 0
-5573 -13481 13501 0
-13482 13501 0
-5573 -13482 13502 0
-13483 13502 0
-5573 -13483 13503 0
-13484 13503 0
-5573 -13484 13504 0
-13485 13504 0
-5573 -13485 13505 0
-13486 13505 0
-5573 -13486 13506 0
-13487 13506 0
-5573 -13487 13507 0
-13488 13507 0
-5573 -13488 13508 0
-13489 13508 0
-5573 -13489 13509 0
-13490 13509 0
-5573 -13490 13510 0
-13491 13510 0
-5573 -13491 13511 0
-13492 13511 0
-5573 -13492 13512 0
-13493 13512 0
-5573 -13493 13513 0
-13494 13513 0
-5573 -13494 13514 0
-13495 13514 0
-5573 -13495 13515 0
-13496 13515 0
-5573 -13496 0
-5573 13516 0
-13497 13516 0
-5573 -13497 13517 0
-13498 13517 0
-5573 -13498 13518 0
-13499 13518 0
-5573 -13499 13519 0
-13500 13519 0
-5573 -13500 13520 0
-13501 13520 0
-5573 -13501 13521 0
-13502 13521 0
-5573 -13502 13522 0
-13503 13522 0
-5573 -13503 13523 0
-13504 13523 0
-5573 -13504 13524 0
-13505 13524 0
-5573 -13505 13525 0
-13506 13525 0
-5573 -13506 13526 0
-13507 13526 0
-5573 -13507 13527 0
-13508 13527 0
-5573 -13508 13528 0
-13509 13528 0
-5573 -13509 13529 0
-13510 13529 0
-5573 -13510 13530 0
-13511 13530 0
-5573 -13511 13531 0
-13512 13531 0
-5573 -13512 13532 0
-13513 13532 0
-5573 -13513 13533 0
-13514 13533 0
-5573 -13514 13534 0
-13515 13534 0
-5573 -13515 0
-5583 13535 0
-13516 13535 0
-5583 -13516 13536 0
-13517 13536 0
-5583 -13517 13537 0
-13518 13537 0
-5583 -13518 13538 0
-13519 13538 0
-5583 -13519 13539 0
-13520 13539 0
-5583 -13520 13540 0
-13521 13540 0
-5583 -13521 13541 0
-13522 13541 0
-5583 -13522 13542 0
-13523 13542 0
-5583 -13523 13543 0
-13524 13543 0
-5583 -13524 13544 0
-13525 13544 0
-5583 -13525 13545 0
-13526 13545 0
-5583 -13526 13546 0
-13527 13546 0
-5583 -13527 13547 0
-13528 13547 0
-5583 -13528 13548 0
-13529 13548 0
-5583 -13529 13549 0
-13530 13549 0
-5583 -13530 13550 0
-13531 13550 0
-5583 -13531 13551 0
-13532 13551 0
-5583 -13532 13552 0
-13533 13552 0
-5583 -13533 13553 0
-13534 13553 0
-5583 -13534 0
-5583 13554 0
-13535 13554 0
-5583 -13535 13555 0
-13536 13555 0
-5583 -13536 13556 0
-13537 13556 0
-5583 -13537 13557 0
-13538 13557 0
-5583 -13538 13558 0
-13539 13558 0
-5583 -13539 13559 0
-13540 13559 0
-5583 -13540 13560 0
-13541 13560 0
-5583 -13541 13561 0
-13542 13561 0
-5583 -13542 13562 0
-13543 13562 0
-5583 -13543 13563 0
-13544 13563 0
-5583 -13544 13564 0
-13545 13564 0
-5583 -13545 13565 0
-13546 13565 0
-5583 -13546 13566 0
-13547 13566 0
-5583 -13547 13567 0
-13548 13567 0
-5583 -13548 13568 0
-13549 13568 0
-5583 -13549 13569 0
-13550 13569 0
-5583 -13550 13570 0
-13551 13570 0
-5583 -13551 13571 0
-13552 13571 0
-5583 -13552 13572 0
-13553 13572 0
-5583 -13553 0
-5583 13573 0
-13554 13573 0
-5583 -13554 13574 0
-13555 13574 0
-5583 -13555 13575 0
-13556 13575 0
-5583 -13556 13576 0
-13557 13576 0
-5583 -13557 13577 0
-13558 13577 0
-5583 -13558 13578 0
-13559 13578 0
-5583 -13559 13579 0
-13560 13579 0
-5583 -13560 13580 0
-13561 13580 0
-5583 -13561 13581 0
-13562 13581 0
-5583 -13562 13582 0
-13563 13582 0
-5583 -13563 13583 0
-13564 13583 0
-5583 -13564 13584 0
-13565 13584 0
-5583 -13565 13585 0
-13566 13585 0
-5583 -13566 13586 0
-13567 13586 0
-5583 -13567 13587 0
-13568 13587 0
-5583 -13568 13588 0
-13569 13588 0
-5583 -13569 13589 0
-13570 13589 0
-5583 -13570 13590 0
-13571 13590 0
-5583 -13571 13591 0
-13572 13591 0
-5583 -13572 0
-5584 13592 0
-13573 13592 0
-5584 -13573 13593 0
-13574 13593 0
-5584 -13574 13594 0
-13575 13594 0
-5584 -13575 13595 0
-13576 13595 0
-5584 -13576 13596 0
-13577 13596 0
-5584 -13577 13597 0
-13578 13597 0
-5584 -13578 13598 0
-13579 13598 0
-5584 -13579 13599 0
-13580 13599 0
-5584 -13580 13600 0
-13581 13600 0
-5584 -13581 13601 0
-13582 13601 0
-5584 -13582 13602 0
-13583 13602 0
-5584 -13583 13603 0
-13584 13603 0
-5584 -13584 13604 0
-13585 13604 0
-5584 -13585 13605 0
-13586 13605 0
-5584 -13586 13606 0
-13587 13606 0
-5584 -13587 13607 0
-13588 13607 0
-5584 -13588 13608 0
-13589 13608 0
-5584 -13589 13609 0
-13590 13609 0
-5584 -13590 13610 0
-13591 13610 0
-5584 -13591 0
-5584 13611 0
-13592 13611 0
-5584 -13592 13612 0
-13593 13612 0
-5584 -13593 13613 0
-13594 13613 0
-5584 -13594 13614 0
-13595 13614 0
-5584 -13595 13615 0
-13596 13615 0
-5584 -13596 13616 0
-13597 13616 0
-5584 -13597 13617 0
-13598 13617 0
-5584 -13598 13618 0
-13599 13618 0
-5584 -13599 13619 0
-13600 13619 0
-5584 -13600 13620 0
-13601 13620 0
-5584 -13601 13621 0
-13602 13621 0
-5584 -13602 13622 0
-13603 13622 0
-5584 -13603 13623 0
-13604 13623 0
-5584 -13604 13624 0
-13605 13624 0
-5584 -13605 13625 0
-13606 13625 0
-5584 -13606 13626 0
-13607 13626 0
-5584 -13607 13627 0
-13608 13627 0
-5584 -13608 13628 0
-13609 13628 0
-5584 -13609 13629 0
-13610 13629 0
-5584 -13610 0
-5594 13630 0
-13611 13630 0
-5594 -13611 13631 0
-13612 13631 0
-5594 -13612 13632 0
-13613 13632 0
-5594 -13613 13633 0
-13614 13633 0
-5594 -13614 13634 0
-13615 13634 0
-5594 -13615 13635 0
-13616 13635 0
-5594 -13616 13636 0
-13617 13636 0
-5594 -13617 13637 0
-13618 13637 0
-5594 -13618 13638 0
-13619 13638 0
-5594 -13619 13639 0
-13620 13639 0
-5594 -13620 13640 0
-13621 13640 0
-5594 -13621 13641 0
-13622 13641 0
-5594 -13622 13642 0
-13623 13642 0
-5594 -13623 13643 0
-13624 13643 0
-5594 -13624 13644 0
-13625 13644 0
-5594 -13625 13645 0
-13626 13645 0
-5594 -13626 13646 0
-13627 13646 0
-5594 -13627 13647 0
-13628 13647 0
-5594 -13628 13648 0
-13629 13648 0
-5594 -13629 0
-5594 13649 0
-13630 13649 0
-5594 -13630 13650 0
-13631 13650 0
-5594 -13631 13651 0
-13632 13651 0
-5594 -13632 13652 0
-13633 13652 0
-5594 -13633 13653 0
-13634 13653 0
-5594 -13634 13654 0
-13635 13654 0
-5594 -13635 13655 0
-13636 13655 0
-5594 -13636 13656 0
-13637 13656 0
-5594 -13637 13657 0
-13638 13657 0
-5594 -13638 13658 0
-13639 13658 0
-5594 -13639 13659 0
-13640 13659 0
-5594 -13640 13660 0
-13641 13660 0
-5594 -13641 13661 0
-13642 13661 0
-5594 -13642 13662 0
-13643 13662 0
-5594 -13643 13663 0
-13644 13663 0
-5594 -13644 13664 0
-13645 13664 0
-5594 -13645 13665 0
-13646 13665 0
-5594 -13646 13666 0
-13647 13666 0
-5594 -13647 13667 0
-13648 13667 0
-5594 -13648 0
-5594 13668 0
-13649 13668 0
-5594 -13649 13669 0
-13650 13669 0
-5594 -13650 13670 0
-13651 13670 0
-5594 -13651 13671 0
-13652 13671 0
-5594 -13652 13672 0
-13653 13672 0
-5594 -13653 13673 0
-13654 13673 0
-5594 -13654 13674 0
-13655 13674 0
-5594 -13655 13675 0
-13656 13675 0
-5594 -13656 13676 0
-13657 13676 0
-5594 -13657 13677 0
-13658 13677 0
-5594 -13658 13678 0
-13659 13678 0
-5594 -13659 13679 0
-13660 13679 0
-5594 -13660 13680 0
-13661 13680 0
-5594 -13661 13681 0
-13662 13681 0
-5594 -13662 13682 0
-13663 13682 0
-5594 -13663 13683 0
-13664 13683 0
-5594 -13664 13684 0
-13665 13684 0
-5594 -13665 13685 0
-13666 13685 0
-5594 -13666 13686 0
-13667 13686 0
-5594 -13667 0
-5595 13687 0
-13668 13687 0
-5595 -13668 13688 0
-13669 13688 0
-5595 -13669 13689 0
-13670 13689 0
-5595 -13670 13690 0
-13671 13690 0
-5595 -13671 13691 0
-13672 13691 0
-5595 -13672 13692 0
-13673 13692 0
-5595 -13673 13693 0
-13674 13693 0
-5595 -13674 13694 0
-13675 13694 0
-5595 -13675 13695 0
-13676 13695 0
-5595 -13676 13696 0
-13677 13696 0
-5595 -13677 13697 0
-13678 13697 0
-5595 -13678 13698 0
-13679 13698 0
-5595 -13679 13699 0
-13680 13699 0
-5595 -13680 13700 0
-13681 13700 0
-5595 -13681 13701 0
-13682 13701 0
-5595 -13682 13702 0
-13683 13702 0
-5595 -13683 13703 0
-13684 13703 0
-5595 -13684 13704 0
-13685 13704 0
-5595 -13685 13705 0
-13686 13705 0
-5595 -13686 0
-5595 13706 0
-13687 13706 0
-5595 -13687 13707 0
-13688 13707 0
-5595 -13688 13708 0
-13689 13708 0
-5595 -13689 13709 0
-13690 13709 0
-5595 -13690 13710 0
-13691 13710 0
-5595 -13691 13711 0
-13692 13711 0
-5595 -13692 13712 0
-13693 13712 0
-5595 -13693 13713 0
-13694 13713 0
-5595 -13694 13714 0
-13695 13714 0
-5595 -13695 13715 0
-13696 13715 0
-5595 -13696 13716 0
-13697 13716 0
-5595 -13697 13717 0
-13698 13717 0
-5595 -13698 13718 0
-13699 13718 0
-5595 -13699 13719 0
-13700 13719 0
-5595 -13700 13720 0
-13701 13720 0
-5595 -13701 13721 0
-13702 13721 0
-5595 -13702 13722 0
-13703 13722 0
-5595 -13703 13723 0
-13704 13723 0
-5595 -13704 13724 0
-13705 13724 0
-5595 -13705 0
-5605 13725 0
-13706 13725 0
-5605 -13706 13726 0
-13707 13726 0
-5605 -13707 13727 0
-13708 13727 0
-5605 -13708 13728 0
-13709 13728 0
-5605 -13709 13729 0
-13710 13729 0
-5605 -13710 13730 0
-13711 13730 0
-5605 -13711 13731 0
-13712 13731 0
-5605 -13712 13732 0
-13713 13732 0
-5605 -13713 13733 0
-13714 13733 0
-5605 -13714 13734 0
-13715 13734 0
-5605 -13715 13735 0
-13716 13735 0
-5605 -13716 13736 0
-13717 13736 0
-5605 -13717 13737 0
-13718 13737 0
-5605 -13718 13738 0
-13719 13738 0
-5605 -13719 13739 0
-13720 13739 0
-5605 -13720 13740 0
-13721 13740 0
-5605 -13721 13741 0
-13722 13741 0
-5605 -13722 13742 0
-13723 13742 0
-5605 -13723 13743 0
-13724 13743 0
-5605 -13724 0
-5605 13744 0
-13725 13744 0
-5605 -13725 13745 0
-13726 13745 0
-5605 -13726 13746 0
-13727 13746 0
-5605 -13727 13747 0
-13728 13747 0
-5605 -13728 13748 0
-13729 13748 0
-5605 -13729 13749 0
-13730 13749 0
-5605 -13730 13750 0
-13731 13750 0
-5605 -13731 13751 0
-13732 13751 0
-5605 -13732 13752 0
-13733 13752 0
-5605 -13733 13753 0
-13734 13753 0
-5605 -13734 13754 0
-13735 13754 0
-5605 -13735 13755 0
-13736 13755 0
-5605 -13736 13756 0
-13737 13756 0
-5605 -13737 13757 0
-13738 13757 0
-5605 -13738 13758 0
-13739 13758 0
-5605 -13739 13759 0
-13740 13759 0
-5605 -13740 13760 0
-13741 13760 0
-5605 -13741 13761 0
-13742 13761 0
-5605 -13742 13762 0
-13743 13762 0
-5605 -13743 0
-5605 13763 0
-13744 13763 0
-5605 -13744 13764 0
-13745 13764 0
-5605 -13745 13765 0
-13746 13765 0
-5605 -13746 13766 0
-13747 13766 0
-5605 -13747 13767 0
-13748 13767 0
-5605 -13748 13768 0
-13749 13768 0
-5605 -13749 13769 0
-13750 13769 0
-5605 -13750 13770 0
-13751 13770 0
-5605 -13751 13771 0
-13752 13771 0
-5605 -13752 13772 0
-13753 13772 0
-5605 -13753 13773 0
-13754 13773 0
-5605 -13754 13774 0
-13755 13774 0
-5605 -13755 13775 0
-13756 13775 0
-5605 -13756 13776 0
-13757 13776 0
-5605 -13757 13777 0
-13758 13777 0
-5605 -13758 13778 0
-13759 13778 0
-5605 -13759 13779 0
-13760 13779 0
-5605 -13760 13780 0
-13761 13780 0
-5605 -13761 13781 0
-13762 13781 0
-5605 -13762 0
-5606 13782 0
-13763 13782 0
-5606 -13763 13783 0
-13764 13783 0
-5606 -13764 13784 0
-13765 13784 0
-5606 -13765 13785 0
-13766 13785 0
-5606 -13766 13786 0
-13767 13786 0
-5606 -13767 13787 0
-13768 13787 0
-5606 -13768 13788 0
-13769 13788 0
-5606 -13769 13789 0
-13770 13789 0
-5606 -13770 13790 0
-13771 13790 0
-5606 -13771 13791 0
-13772 13791 0
-5606 -13772 13792 0
-13773 13792 0
-5606 -13773 13793 0
-13774 13793 0
-5606 -13774 13794 0
-13775 13794 0
-5606 -13775 13795 0
-13776 13795 0
-5606 -13776 13796 0
-13777 13796 0
-5606 -13777 13797 0
-13778 13797 0
-5606 -13778 13798 0
-13779 13798 0
-5606 -13779 13799 0
-13780 13799 0
-5606 -13780 13800 0
-13781 13800 0
-5606 -13781 0
-5606 13801 0
-13782 13801 0
-5606 -13782 13802 0
-13783 13802 0
-5606 -13783 13803 0
-13784 13803 0
-5606 -13784 13804 0
-13785 13804 0
-5606 -13785 13805 0
-13786 13805 0
-5606 -13786 13806 0
-13787 13806 0
-5606 -13787 13807 0
-13788 13807 0
-5606 -13788 13808 0
-13789 13808 0
-5606 -13789 13809 0
-13790 13809 0
-5606 -13790 13810 0
-13791 13810 0
-5606 -13791 13811 0
-13792 13811 0
-5606 -13792 13812 0
-13793 13812 0
-5606 -13793 13813 0
-13794 13813 0
-5606 -13794 13814 0
-13795 13814 0
-5606 -13795 13815 0
-13796 13815 0
-5606 -13796 13816 0
-13797 13816 0
-5606 -13797 13817 0
-13798 13817 0
-5606 -13798 13818 0
-13799 13818 0
-5606 -13799 13819 0
-13800 13819 0
-5606 -13800 0
-5616 13820 0
-13801 13820 0
-5616 -13801 13821 0
-13802 13821 0
-5616 -13802 13822 0
-13803 13822 0
-5616 -13803 13823 0
-13804 13823 0
-5616 -13804 13824 0
-13805 13824 0
-5616 -13805 13825 0
-13806 13825 0
-5616 -13806 13826 0
-13807 13826 0
-5616 -13807 13827 0
-13808 13827 0
-5616 -13808 13828 0
-13809 13828 0
-5616 -13809 13829 0
-13810 13829 0
-5616 -13810 13830 0
-13811 13830 0
-5616 -13811 13831 0
-13812 13831 0
-5616 -13812 13832 0
-13813 13832 0
-5616 -13813 13833 0
-13814 13833 0
-5616 -13814 13834 0
-13815 13834 0
-5616 -13815 13835 0
-13816 13835 0
-5616 -13816 13836 0
-13817 13836 0
-5616 -13817 13837 0
-13818 13837 0
-5616 -13818 13838 0
-13819 13838 0
-5616 -13819 0
-5616 13839 0
-13820 13839 0
-5616 -13820 13840 0
-13821 13840 0
-5616 -13821 13841 0
-13822 13841 0
-5616 -13822 13842 0
-13823 13842 0
-5616 -13823 13843 0
-13824 13843 0
-5616 -13824 13844 0
-13825 13844 0
-5616 -13825 13845 0
-13826 13845 0
-5616 -13826 13846 0
-13827 13846 0
-5616 -13827 13847 0
-13828 13847 0
-5616 -13828 13848 0
-13829 13848 0
-5616 -13829 13849 0
-13830 13849 0
-5616 -13830 13850 0
-13831 13850 0
-5616 -13831 13851 0
-13832 13851 0
-5616 -13832 13852 0
-13833 13852 0
-5616 -13833 13853 0
-13834 13853 0
-5616 -13834 13854 0
-13835 13854 0
-5616 -13835 13855 0
-13836 13855 0
-5616 -13836 13856 0
-13837 13856 0
-5616 -13837 13857 0
-13838 13857 0
-5616 -13838 0
-5616 13858 0
-13839 13858 0
-5616 -13839 13859 0
-13840 13859 0
-5616 -13840 13860 0
-13841 13860 0
-5616 -13841 13861 0
-13842 13861 0
-5616 -13842 13862 0
-13843 13862 0
-5616 -13843 13863 0
-13844 13863 0
-5616 -13844 13864 0
-13845 13864 0
-5616 -13845 13865 0
-13846 13865 0
-5616 -13846 13866 0
-13847 13866 0
-5616 -13847 13867 0
-13848 13867 0
-5616 -13848 13868 0
-13849 13868 0
-5616 -13849 13869 0
-13850 13869 0
-5616 -13850 13870 0
-13851 13870 0
-5616 -13851 13871 0
-13852 13871 0
-5616 -13852 13872 0
-13853 13872 0
-5616 -13853 13873 0
-13854 13873 0
-5616 -13854 13874 0
-13855 13874 0
-5616 -13855 13875 0
-13856 13875 0
-5616 -13856 13876 0
-13857 13876 0
-5616 -13857 0
-5617 13877 0
-13858 13877 0
-5617 -13858 13878 0
-13859 13878 0
-5617 -13859 13879 0
-13860 13879 0
-5617 -13860 13880 0
-13861 13880 0
-5617 -13861 13881 0
-13862 13881 0
-5617 -13862 13882 0
-13863 13882 0
-5617 -13863 13883 0
-13864 13883 0
-5617 -13864 13884 0
-13865 13884 0
-5617 -13865 13885 0
-13866 13885 0
-5617 -13866 13886 0
-13867 13886 0
-5617 -13867 13887 0
-13868 13887 0
-5617 -13868 13888 0
-13869 13888 0
-5617 -13869 13889 0
-13870 13889 0
-5617 -13870 13890 0
-13871 13890 0
-5617 -13871 13891 0
-13872 13891 0
-5617 -13872 13892 0
-13873 13892 0
-5617 -13873 13893 0
-13874 13893 0
-5617 -13874 13894 0
-13875 13894 0
-5617 -13875 13895 0
-13876 13895 0
-5617 -13876 0
-5617 13896 0
-13877 13896 0
-5617 -13877 13897 0
-13878 13897 0
-5617 -13878 13898 0
-13879 13898 0
-5617 -13879 13899 0
-13880 13899 0
-5617 -13880 13900 0
-13881 13900 0
-5617 -13881 13901 0
-13882 13901 0
-5617 -13882 13902 0
-13883 13902 0
-5617 -13883 13903 0
-13884 13903 0
-5617 -13884 13904 0
-13885 13904 0
-5617 -13885 13905 0
-13886 13905 0
-5617 -13886 13906 0
-13887 13906 0
-5617 -13887 13907 0
-13888 13907 0
-5617 -13888 13908 0
-13889 13908 0
-5617 -13889 13909 0
-13890 13909 0
-5617 -13890 13910 0
-13891 13910 0
-5617 -13891 13911 0
-13892 13911 0
-5617 -13892 13912 0
-13893 13912 0
-5617 -13893 13913 0
-13894 13913 0
-5617 -13894 13914 0
-13895 13914 0
-5617 -13895 0
-5627 13915 0
-13896 13915 0
-5627 -13896 13916 0
-13897 13916 0
-5627 -13897 13917 0
-13898 13917 0
-5627 -13898 13918 0
-13899 13918 0
-5627 -13899 13919 0
-13900 13919 0
-5627 -13900 13920 0
-13901 13920 0
-5627 -13901 13921 0
-13902 13921 0
-5627 -13902 13922 0
-13903 13922 0
-5627 -13903 13923 0
-13904 13923 0
-5627 -13904 13924 0
-13905 13924 0
-5627 -13905 13925 0
-13906 13925 0
-5627 -13906 13926 0
-13907 13926 0
-5627 -13907 13927 0
-13908 13927 0
-5627 -13908 13928 0
-13909 13928 0
-5627 -13909 13929 0
-13910 13929 0
-5627 -13910 13930 0
-13911 13930 0
-5627 -13911 13931 0
-13912 13931 0
-5627 -13912 13932 0
-13913 13932 0
-5627 -13913 13933 0
-13914 13933 0
-5627 -13914 0
-5627 13934 0
-13915 13934 0
-5627 -13915 13935 0
-13916 13935 0
-5627 -13916 13936 0
-13917 13936 0
-5627 -13917 13937 0
-13918 13937 0
-5627 -13918 13938 0
-13919 13938 0
-5627 -13919 13939 0
-13920 13939 0
-5627 -13920 13940 0
-13921 13940 0
-5627 -13921 13941 0
-13922 13941 0
-5627 -13922 13942 0
-13923 13942 0
-5627 -13923 13943 0
-13924 13943 0
-5627 -13924 13944 0
-13925 13944 0
-5627 -13925 13945 0
-13926 13945 0
-5627 -13926 13946 0
-13927 13946 0
-5627 -13927 13947 0
-13928 13947 0
-5627 -13928 13948 0
-13929 13948 0
-5627 -13929 13949 0
-13930 13949 0
-5627 -13930 13950 0
-13931 13950 0
-5627 -13931 13951 0
-13932 13951 0
-5627 -13932 13952 0
-13933 13952 0
-5627 -13933 0
-5627 13953 0
-13934 13953 0
-5627 -13934 13954 0
-13935 13954 0
-5627 -13935 13955 0
-13936 13955 0
-5627 -13936 13956 0
-13937 13956 0
-5627 -13937 13957 0
-13938 13957 0
-5627 -13938 13958 0
-13939 13958 0
-5627 -13939 13959 0
-13940 13959 0
-5627 -13940 13960 0
-13941 13960 0
-5627 -13941 13961 0
-13942 13961 0
-5627 -13942 13962 0
-13943 13962 0
-5627 -13943 13963 0
-13944 13963 0
-5627 -13944 13964 0
-13945 13964 0
-5627 -13945 13965 0
-13946 13965 0
-5627 -13946 13966 0
-13947 13966 0
-5627 -13947 13967 0
-13948 13967 0
-5627 -13948 13968 0
-13949 13968 0
-5627 -13949 13969 0
-13950 13969 0
-5627 -13950 13970 0
-13951 13970 0
-5627 -13951 13971 0
-13952 13971 0
-5627 -13952 0
-5628 13972 0
-13953 13972 0
-5628 -13953 13973 0
-13954 13973 0
-5628 -13954 13974 0
-13955 13974 0
-5628 -13955 13975 0
-13956 13975 0
-5628 -13956 13976 0
-13957 13976 0
-5628 -13957 13977 0
-13958 13977 0
-5628 -13958 13978 0
-13959 13978 0
-5628 -13959 13979 0
-13960 13979 0
-5628 -13960 13980 0
-13961 13980 0
-5628 -13961 13981 0
-13962 13981 0
-5628 -13962 13982 0
-13963 13982 0
-5628 -13963 13983 0
-13964 13983 0
-5628 -13964 13984 0
-13965 13984 0
-5628 -13965 13985 0
-13966 13985 0
-5628 -13966 13986 0
-13967 13986 0
-5628 -13967 13987 0
-13968 13987 0
-5628 -13968 13988 0
-13969 13988 0
-5628 -13969 13989 0
-13970 13989 0
-5628 -13970 13990 0
-13971 13990 0
-5628 -13971 0
-5628 13991 0
-13972 13991 0
-5628 -13972 13992 0
-13973 13992 0
-5628 -13973 13993 0
-13974 13993 0
-5628 -13974 13994 0
-13975 13994 0
-5628 -13975 13995 0
-13976 13995 0
-5628 -13976 13996 0
-13977 13996 0
-5628 -13977 13997 0
-13978 13997 0
-5628 -13978 13998 0
-13979 13998 0
-5628 -13979 13999 0
-13980 13999 0
-5628 -13980 14000 0
-13981 14000 0
-5628 -13981 14001 0
-13982 14001 0
-5628 -13982 14002 0
-13983 14002 0
-5628 -13983 14003 0
-13984 14003 0
-5628 -13984 14004 0
-13985 14004 0
-5628 -13985 14005 0
-13986 14005 0
-5628 -13986 14006 0
-13987 14006 0
-5628 -13987 14007 0
-13988 14007 0
-5628 -13988 14008 0
-13989 14008 0
-5628 -13989 14009 0
-13990 14009 0
-5628 -13990 0
-5638 14010 0
-13991 14010 0
-5638 -13991 14011 0
-13992 14011 0
-5638 -13992 14012 0
-13993 14012 0
-5638 -13993 14013 0
-13994 14013 0
-5638 -13994 14014 0
-13995 14014 0
-5638 -13995 14015 0
-13996 14015 0
-5638 -13996 14016 0
-13997 14016 0
-5638 -13997 14017 0
-13998 14017 0
-5638 -13998 14018 0
-13999 14018 0
-5638 -13999 14019 0
-14000 14019 0
-5638 -14000 14020 0
-14001 14020 0
-5638 -14001 14021 0
-14002 14021 0
-5638 -14002 14022 0
-14003 14022 0
-5638 -14003 14023 0
-14004 14023 0
-5638 -14004 14024 0
-14005 14024 0
-5638 -14005 14025 0
-14006 14025 0
-5638 -14006 14026 0
-14007 14026 0
-5638 -14007 14027 0
-14008 14027 0
-5638 -14008 14028 0
-14009 14028 0
-5638 -14009 0
-5638 14029 0
-14010 14029 0
-5638 -14010 14030 0
-14011 14030 0
-5638 -14011 14031 0
-14012 14031 0
-5638 -14012 14032 0
-14013 14032 0
-5638 -14013 14033 0
-14014 14033 0
-5638 -14014 14034 0
-14015 14034 0
-5638 -14015 14035 0
-14016 14035 0
-5638 -14016 14036 0
-14017 14036 0
-5638 -14017 14037 0
-14018 14037 0
-5638 -14018 14038 0
-14019 14038 0
-5638 -14019 14039 0
-14020 14039 0
-5638 -14020 14040 0
-14021 14040 0
-5638 -14021 14041 0
-14022 14041 0
-5638 -14022 14042 0
-14023 14042 0
-5638 -14023 14043 0
-14024 14043 0
-5638 -14024 14044 0
-14025 14044 0
-5638 -14025 14045 0
-14026 14045 0
-5638 -14026 14046 0
-14027 14046 0
-5638 -14027 14047 0
-14028 14047 0
-5638 -14028 0
-5638 14048 0
-14029 14048 0
-5638 -14029 14049 0
-14030 14049 0
-5638 -14030 14050 0
-14031 14050 0
-5638 -14031 14051 0
-14032 14051 0
-5638 -14032 14052 0
-14033 14052 0
-5638 -14033 14053 0
-14034 14053 0
-5638 -14034 14054 0
-14035 14054 0
-5638 -14035 14055 0
-14036 14055 0
-5638 -14036 14056 0
-14037 14056 0
-5638 -14037 14057 0
-14038 14057 0
-5638 -14038 14058 0
-14039 14058 0
-5638 -14039 14059 0
-14040 14059 0
-5638 -14040 14060 0
-14041 14060 0
-5638 -14041 14061 0
-14042 14061 0
-5638 -14042 14062 0
-14043 14062 0
-5638 -14043 14063 0
-14044 14063 0
-5638 -14044 14064 0
-14045 14064 0
-5638 -14045 14065 0
-14046 14065 0
-5638 -14046 14066 0
-14047 14066 0
-5638 -14047 0
-5639 14067 0
-14048 14067 0
-5639 -14048 14068 0
-14049 14068 0
-5639 -14049 14069 0
-14050 14069 0
-5639 -14050 14070 0
-14051 14070 0
-5639 -14051 14071 0
-14052 14071 0
-5639 -14052 14072 0
-14053 14072 0
-5639 -14053 14073 0
-14054 14073 0
-5639 -14054 14074 0
-14055 14074 0
-5639 -14055 14075 0
-14056 14075 0
-5639 -14056 14076 0
-14057 14076 0
-5639 -14057 14077 0
-14058 14077 0
-5639 -14058 14078 0
-14059 14078 0
-5639 -14059 14079 0
-14060 14079 0
-5639 -14060 14080 0
-14061 14080 0
-5639 -14061 14081 0
-14062 14081 0
-5639 -14062 14082 0
-14063 14082 0
-5639 -14063 14083 0
-14064 14083 0
-5639 -14064 14084 0
-14065 14084 0
-5639 -14065 14085 0
-14066 14085 0
-5639 -14066 0
-5639 14086 0
-14067 14086 0
-5639 -14067 14087 0
-14068 14087 0
-5639 -14068 14088 0
-14069 14088 0
-5639 -14069 14089 0
-14070 14089 0
-5639 -14070 14090 0
-14071 14090 0
-5639 -14071 14091 0
-14072 14091 0
-5639 -14072 14092 0
-14073 14092 0
-5639 -14073 14093 0
-14074 14093 0
-5639 -14074 14094 0
-14075 14094 0
-5639 -14075 14095 0
-14076 14095 0
-5639 -14076 14096 0
-14077 14096 0
-5639 -14077 14097 0
-14078 14097 0
-5639 -14078 14098 0
-14079 14098 0
-5639 -14079 14099 0
-14080 14099 0
-5639 -14080 14100 0
-14081 14100 0
-5639 -14081 14101 0
-14082 14101 0
-5639 -14082 14102 0
-14083 14102 0
-5639 -14083 14103 0
-14084 14103 0
-5639 -14084 14104 0
-14085 14104 0
-5639 -14085 0
-5649 14105 0
-14086 14105 0
-5649 -14086 14106 0
-14087 14106 0
-5649 -14087 14107 0
-14088 14107 0
-5649 -14088 14108 0
-14089 14108 0
-5649 -14089 14109 0
-14090 14109 0
-5649 -14090 14110 0
-14091 14110 0
-5649 -14091 14111 0
-14092 14111 0
-5649 -14092 14112 0
-14093 14112 0
-5649 -14093 14113 0
-14094 14113 0
-5649 -14094 14114 0
-14095 14114 0
-5649 -14095 14115 0
-14096 14115 0
-5649 -14096 14116 0
-14097 14116 0
-5649 -14097 14117 0
-14098 14117 0
-5649 -14098 14118 0
-14099 14118 0
-5649 -14099 14119 0
-14100 14119 0
-5649 -14100 14120 0
-14101 14120 0
-5649 -14101 14121 0
-14102 14121 0
-5649 -14102 14122 0
-14103 14122 0
-5649 -14103 14123 0
-14104 14123 0
-5649 -14104 0
-5649 14124 0
-14105 14124 0
-5649 -14105 14125 0
-14106 14125 0
-5649 -14106 14126 0
-14107 14126 0
-5649 -14107 14127 0
-14108 14127 0
-5649 -14108 14128 0
-14109 14128 0
-5649 -14109 14129 0
-14110 14129 0
-5649 -14110 14130 0
-14111 14130 0
-5649 -14111 14131 0
-14112 14131 0
-5649 -14112 14132 0
-14113 14132 0
-5649 -14113 14133 0
-14114 14133 0
-5649 -14114 14134 0
-14115 14134 0
-5649 -14115 14135 0
-14116 14135 0
-5649 -14116 14136 0
-14117 14136 0
-5649 -14117 14137 0
-14118 14137 0
-5649 -14118 14138 0
-14119 14138 0
-5649 -14119 14139 0
-14120 14139 0
-5649 -14120 14140 0
-14121 14140 0
-5649 -14121 14141 0
-14122 14141 0
-5649 -14122 14142 0
-14123 14142 0
-5649 -14123 0
-5649 14143 0
-14124 14143 0
-5649 -14124 14144 0
-14125 14144 0
-5649 -14125 14145 0
-14126 14145 0
-5649 -14126 14146 0
-14127 14146 0
-5649 -14127 14147 0
-14128 14147 0
-5649 -14128 14148 0
-14129 14148 0
-5649 -14129 14149 0
-14130 14149 0
-5649 -14130 14150 0
-14131 14150 0
-5649 -14131 14151 0
-14132 14151 0
-5649 -14132 14152 0
-14133 14152 0
-5649 -14133 14153 0
-14134 14153 0
-5649 -14134 14154 0
-14135 14154 0
-5649 -14135 14155 0
-14136 14155 0
-5649 -14136 14156 0
-14137 14156 0
-5649 -14137 14157 0
-14138 14157 0
-5649 -14138 14158 0
-14139 14158 0
-5649 -14139 14159 0
-14140 14159 0
-5649 -14140 14160 0
-14141 14160 0
-5649 -14141 14161 0
-14142 14161 0
-5649 -14142 0
-5650 14162 0
-14143 14162 0
-5650 -14143 14163 0
-14144 14163 0
-5650 -14144 14164 0
-14145 14164 0
-5650 -14145 14165 0
-14146 14165 0
-5650 -14146 14166 0
-14147 14166 0
-5650 -14147 14167 0
-14148 14167 0
-5650 -14148 14168 0
-14149 14168 0
-5650 -14149 14169 0
-14150 14169 0
-5650 -14150 14170 0
-14151 14170 0
-5650 -14151 14171 0
-14152 14171 0
-5650 -14152 14172 0
-14153 14172 0
-5650 -14153 14173 0
-14154 14173 0
-5650 -14154 14174 0
-14155 14174 0
-5650 -14155 14175 0
-14156 14175 0
-5650 -14156 14176 0
-14157 14176 0
-5650 -14157 14177 0
-14158 14177 0
-5650 -14158 14178 0
-14159 14178 0
-5650 -14159 14179 0
-14160 14179 0
-5650 -14160 14180 0
-14161 14180 0
-5650 -14161 0
-5650 14181 0
-14162 14181 0
-5650 -14162 14182 0
-14163 14182 0
-5650 -14163 14183 0
-14164 14183 0
-5650 -14164 14184 0
-14165 14184 0
-5650 -14165 14185 0
-14166 14185 0
-5650 -14166 14186 0
-14167 14186 0
-5650 -14167 14187 0
-14168 14187 0
-5650 -14168 14188 0
-14169 14188 0
-5650 -14169 14189 0
-14170 14189 0
-5650 -14170 14190 0
-14171 14190 0
-5650 -14171 14191 0
-14172 14191 0
-5650 -14172 14192 0
-14173 14192 0
-5650 -14173 14193 0
-14174 14193 0
-5650 -14174 14194 0
-14175 14194 0
-5650 -14175 14195 0
-14176 14195 0
-5650 -14176 14196 0
-14177 14196 0
-5650 -14177 14197 0
-14178 14197 0
-5650 -14178 14198 0
-14179 14198 0
-5650 -14179 14199 0
-14180 14199 0
-5650 -14180 0
-5660 14200 0
-14181 14200 0
-5660 -14181 14201 0
-14182 14201 0
-5660 -14182 14202 0
-14183 14202 0
-5660 -14183 14203 0
-14184 14203 0
-5660 -14184 14204 0
-14185 14204 0
-5660 -14185 14205 0
-14186 14205 0
-5660 -14186 14206 0
-14187 14206 0
-5660 -14187 14207 0
-14188 14207 0
-5660 -14188 14208 0
-14189 14208 0
-5660 -14189 14209 0
-14190 14209 0
-5660 -14190 14210 0
-14191 14210 0
-5660 -14191 14211 0
-14192 14211 0
-5660 -14192 14212 0
-14193 14212 0
-5660 -14193 14213 0
-14194 14213 0
-5660 -14194 14214 0
-14195 14214 0
-5660 -14195 14215 0
-14196 14215 0
-5660 -14196 14216 0
-14197 14216 0
-5660 -14197 14217 0
-14198 14217 0
-5660 -14198 14218 0
-14199 14218 0
-5660 -14199 0
-5660 14219 0
-14200 14219 0
-5660 -14200 14220 0
-14201 14220 0
-5660 -14201 14221 0
-14202 14221 0
-5660 -14202 14222 0
-14203 14222 0
-5660 -14203 14223 0
-14204 14223 0
-5660 -14204 14224 0
-14205 14224 0
-5660 -14205 14225 0
-14206 14225 0
-5660 -14206 14226 0
-14207 14226 0
-5660 -14207 14227 0
-14208 14227 0
-5660 -14208 14228 0
-14209 14228 0
-5660 -14209 14229 0
-14210 14229 0
-5660 -14210 14230 0
-14211 14230 0
-5660 -14211 14231 0
-14212 14231 0
-5660 -14212 14232 0
-14213 14232 0
-5660 -14213 14233 0
-14214 14233 0
-5660 -14214 14234 0
-14215 14234 0
-5660 -14215 14235 0
-14216 14235 0
-5660 -14216 14236 0
-14217 14236 0
-5660 -14217 14237 0
-14218 14237 0
-5660 -14218 0
-5660 14238 0
-14219 14238 0
-5660 -14219 14239 0
-14220 14239 0
-5660 -14220 14240 0
-14221 14240 0
-5660 -14221 14241 0
-14222 14241 0
-5660 -14222 14242 0
-14223 14242 0
-5660 -14223 14243 0
-14224 14243 0
-5660 -14224 14244 0
-14225 14244 0
-5660 -14225 14245 0
-14226 14245 0
-5660 -14226 14246 0
-14227 14246 0
-5660 -14227 14247 0
-14228 14247 0
-5660 -14228 14248 0
-14229 14248 0
-5660 -14229 14249 0
-14230 14249 0
-5660 -14230 14250 0
-14231 14250 0
-5660 -14231 14251 0
-14232 14251 0
-5660 -14232 14252 0
-14233 14252 0
-5660 -14233 14253 0
-14234 14253 0
-5660 -14234 14254 0
-14235 14254 0
-5660 -14235 14255 0
-14236 14255 0
-5660 -14236 14256 0
-14237 14256 0
-5660 -14237 0
-5661 14257 0
-14238 14257 0
-5661 -14238 14258 0
-14239 14258 0
-5661 -14239 14259 0
-14240 14259 0
-5661 -14240 14260 0
-14241 14260 0
-5661 -14241 14261 0
-14242 14261 0
-5661 -14242 14262 0
-14243 14262 0
-5661 -14243 14263 0
-14244 14263 0
-5661 -14244 14264 0
-14245 14264 0
-5661 -14245 14265 0
-14246 14265 0
-5661 -14246 14266 0
-14247 14266 0
-5661 -14247 14267 0
-14248 14267 0
-5661 -14248 14268 0
-14249 14268 0
-5661 -14249 14269 0
-14250 14269 0
-5661 -14250 14270 0
-14251 14270 0
-5661 -14251 14271 0
-14252 14271 0
-5661 -14252 14272 0
-14253 14272 0
-5661 -14253 14273 0
-14254 14273 0
-5661 -14254 14274 0
-14255 14274 0
-5661 -14255 14275 0
-14256 14275 0
-5661 -14256 0
-5661 14276 0
-14257 14276 0
-5661 -14257 14277 0
-14258 14277 0
-5661 -14258 14278 0
-14259 14278 0
-5661 -14259 14279 0
-14260 14279 0
-5661 -14260 14280 0
-14261 14280 0
-5661 -14261 14281 0
-14262 14281 0
-5661 -14262 14282 0
-14263 14282 0
-5661 -14263 14283 0
-14264 14283 0
-5661 -14264 14284 0
-14265 14284 0
-5661 -14265 14285 0
-14266 14285 0
-5661 -14266 14286 0
-14267 14286 0
-5661 -14267 14287 0
-14268 14287 0
-5661 -14268 14288 0
-14269 14288 0
-5661 -14269 14289 0
-14270 14289 0
-5661 -14270 14290 0
-14271 14290 0
-5661 -14271 14291 0
-14272 14291 0
-5661 -14272 14292 0
-14273 14292 0
-5661 -14273 14293 0
-14274 14293 0
-5661 -14274 14294 0
-14275 14294 0
-5661 -14275 0
-5671 14295 0
-14276 14295 0
-5671 -14276 14296 0
-14277 14296 0
-5671 -14277 14297 0
-14278 14297 0
-5671 -14278 14298 0
-14279 14298 0
-5671 -14279 14299 0
-14280 14299 0
-5671 -14280 14300 0
-14281 14300 0
-5671 -14281 14301 0
-14282 14301 0
-5671 -14282 14302 0
-14283 14302 0
-5671 -14283 14303 0
-14284 14303 0
-5671 -14284 14304 0
-14285 14304 0
-5671 -14285 14305 0
-14286 14305 0
-5671 -14286 14306 0
-14287 14306 0
-5671 -14287 14307 0
-14288 14307 0
-5671 -14288 14308 0
-14289 14308 0
-5671 -14289 14309 0
-14290 14309 0
-5671 -14290 14310 0
-14291 14310 0
-5671 -14291 14311 0
-14292 14311 0
-5671 -14292 14312 0
-14293 14312 0
-5671 -14293 14313 0
-14294 14313 0
-5671 -14294 0
-5671 14314 0
-14295 14314 0
-5671 -14295 14315 0
-14296 14315 0
-5671 -14296 14316 0
-14297 14316 0
-5671 -14297 14317 0
-14298 14317 0
-5671 -14298 14318 0
-14299 14318 0
-5671 -14299 14319 0
-14300 14319 0
-5671 -14300 14320 0
-14301 14320 0
-5671 -14301 14321 0
-14302 14321 0
-5671 -14302 14322 0
-14303 14322 0
-5671 -14303 14323 0
-14304 14323 0
-5671 -14304 14324 0
-14305 14324 0
-5671 -14305 14325 0
-14306 14325 0
-5671 -14306 14326 0
-14307 14326 0
-5671 -14307 14327 0
-14308 14327 0
-5671 -14308 14328 0
-14309 14328 0
-5671 -14309 14329 0
-14310 14329 0
-5671 -14310 14330 0
-14311 14330 0
-5671 -14311 14331 0
-14312 14331 0
-5671 -14312 14332 0
-14313 14332 0
-5671 -14313 0
-5671 14333 0
-14314 14333 0
-5671 -14314 14334 0
-14315 14334 0
-5671 -14315 14335 0
-14316 14335 0
-5671 -14316 14336 0
-14317 14336 0
-5671 -14317 14337 0
-14318 14337 0
-5671 -14318 14338 0
-14319 14338 0
-5671 -14319 14339 0
-14320 14339 0
-5671 -14320 14340 0
-14321 14340 0
-5671 -14321 14341 0
-14322 14341 0
-5671 -14322 14342 0
-14323 14342 0
-5671 -14323 14343 0
-14324 14343 0
-5671 -14324 14344 0
-14325 14344 0
-5671 -14325 14345 0
-14326 14345 0
-5671 -14326 14346 0
-14327 14346 0
-5671 -14327 14347 0
-14328 14347 0
-5671 -14328 14348 0
-14329 14348 0
-5671 -14329 14349 0
-14330 14349 0
-5671 -14330 14350 0
-14331 14350 0
-5671 -14331 14351 0
-14332 14351 0
-5671 -14332 0
-5672 14352 0
-14333 14352 0
-5672 -14333 14353 0
-14334 14353 0
-5672 -14334 14354 0
-14335 14354 0
-5672 -14335 14355 0
-14336 14355 0
-5672 -14336 14356 0
-14337 14356 0
-5672 -14337 14357 0
-14338 14357 0
-5672 -14338 14358 0
-14339 14358 0
-5672 -14339 14359 0
-14340 14359 0
-5672 -14340 14360 0
-14341 14360 0
-5672 -14341 14361 0
-14342 14361 0
-5672 -14342 14362 0
-14343 14362 0
-5672 -14343 14363 0
-14344 14363 0
-5672 -14344 14364 0
-14345 14364 0
-5672 -14345 14365 0
-14346 14365 0
-5672 -14346 14366 0
-14347 14366 0
-5672 -14347 14367 0
-14348 14367 0
-5672 -14348 14368 0
-14349 14368 0
-5672 -14349 14369 0
-14350 14369 0
-5672 -14350 14370 0
-14351 14370 0
-5672 -14351 0
-5672 14371 0
-14352 14371 0
-5672 -14352 14372 0
-14353 14372 0
-5672 -14353 14373 0
-14354 14373 0
-5672 -14354 14374 0
-14355 14374 0
-5672 -14355 14375 0
-14356 14375 0
-5672 -14356 14376 0
-14357 14376 0
-5672 -14357 14377 0
-14358 14377 0
-5672 -14358 14378 0
-14359 14378 0
-5672 -14359 14379 0
-14360 14379 0
-5672 -14360 14380 0
-14361 14380 0
-5672 -14361 14381 0
-14362 14381 0
-5672 -14362 14382 0
-14363 14382 0
-5672 -14363 14383 0
-14364 14383 0
-5672 -14364 14384 0
-14365 14384 0
-5672 -14365 14385 0
-14366 14385 0
-5672 -14366 14386 0
-14367 14386 0
-5672 -14367 14387 0
-14368 14387 0
-5672 -14368 14388 0
-14369 14388 0
-5672 -14369 14389 0
-14370 14389 0
-5672 -14370 0
-5682 14390 0
-14371 14390 0
-5682 -14371 14391 0
-14372 14391 0
-5682 -14372 14392 0
-14373 14392 0
-5682 -14373 14393 0
-14374 14393 0
-5682 -14374 14394 0
-14375 14394 0
-5682 -14375 14395 0
-14376 14395 0
-5682 -14376 14396 0
-14377 14396 0
-5682 -14377 14397 0
-14378 14397 0
-5682 -14378 14398 0
-14379 14398 0
-5682 -14379 14399 0
-14380 14399 0
-5682 -14380 14400 0
-14381 14400 0
-5682 -14381 14401 0
-14382 14401 0
-5682 -14382 14402 0
-14383 14402 0
-5682 -14383 14403 0
-14384 14403 0
-5682 -14384 14404 0
-14385 14404 0
-5682 -14385 14405 0
-14386 14405 0
-5682 -14386 14406 0
-14387 14406 0
-5682 -14387 14407 0
-14388 14407 0
-5682 -14388 14408 0
-14389 14408 0
-5682 -14389 0
-5682 14409 0
-14390 14409 0
-5682 -14390 14410 0
-14391 14410 0
-5682 -14391 14411 0
-14392 14411 0
-5682 -14392 14412 0
-14393 14412 0
-5682 -14393 14413 0
-14394 14413 0
-5682 -14394 14414 0
-14395 14414 0
-5682 -14395 14415 0
-14396 14415 0
-5682 -14396 14416 0
-14397 14416 0
-5682 -14397 14417 0
-14398 14417 0
-5682 -14398 14418 0
-14399 14418 0
-5682 -14399 14419 0
-14400 14419 0
-5682 -14400 14420 0
-14401 14420 0
-5682 -14401 14421 0
-14402 14421 0
-5682 -14402 14422 0
-14403 14422 0
-5682 -14403 14423 0
-14404 14423 0
-5682 -14404 14424 0
-14405 14424 0
-5682 -14405 14425 0
-14406 14425 0
-5682 -14406 14426 0
-14407 14426 0
-5682 -14407 14427 0
-14408 14427 0
-5682 -14408 0
-5682 14428 0
-14409 14428 0
-5682 -14409 14429 0
-14410 14429 0
-5682 -14410 14430 0
-14411 14430 0
-5682 -14411 14431 0
-14412 14431 0
-5682 -14412 14432 0
-14413 14432 0
-5682 -14413 14433 0
-14414 14433 0
-5682 -14414 14434 0
-14415 14434 0
-5682 -14415 14435 0
-14416 14435 0
-5682 -14416 14436 0
-14417 14436 0
-5682 -14417 14437 0
-14418 14437 0
-5682 -14418 14438 0
-14419 14438 0
-5682 -14419 14439 0
-14420 14439 0
-5682 -14420 14440 0
-14421 14440 0
-5682 -14421 14441 0
-14422 14441 0
-5682 -14422 14442 0
-14423 14442 0
-5682 -14423 14443 0
-14424 14443 0
-5682 -14424 14444 0
-14425 14444 0
-5682 -14425 14445 0
-14426 14445 0
-5682 -14426 14446 0
-14427 14446 0
-5682 -14427 0
-5683 14447 0
-14428 14447 0
-5683 -14428 14448 0
-14429 14448 0
-5683 -14429 14449 0
-14430 14449 0
-5683 -14430 14450 0
-14431 14450 0
-5683 -14431 14451 0
-14432 14451 0
-5683 -14432 14452 0
-14433 14452 0
-5683 -14433 14453 0
-14434 14453 0
-5683 -14434 14454 0
-14435 14454 0
-5683 -14435 14455 0
-14436 14455 0
-5683 -14436 14456 0
-14437 14456 0
-5683 -14437 14457 0
-14438 14457 0
-5683 -14438 14458 0
-14439 14458 0
-5683 -14439 14459 0
-14440 14459 0
-5683 -14440 14460 0
-14441 14460 0
-5683 -14441 14461 0
-14442 14461 0
-5683 -14442 14462 0
-14443 14462 0
-5683 -14443 14463 0
-14444 14463 0
-5683 -14444 14464 0
-14445 14464 0
-5683 -14445 14465 0
-14446 14465 0
-5683 -14446 0
-5683 14466 0
-14447 14466 0
-5683 -14447 14467 0
-14448 14467 0
-5683 -14448 14468 0
-14449 14468 0
-5683 -14449 14469 0
-14450 14469 0
-5683 -14450 14470 0
-14451 14470 0
-5683 -14451 14471 0
-14452 14471 0
-5683 -14452 14472 0
-14453 14472 0
-5683 -14453 14473 0
-14454 14473 0
-5683 -14454 14474 0
-14455 14474 0
-5683 -14455 14475 0
-14456 14475 0
-5683 -14456 14476 0
-14457 14476 0
-5683 -14457 14477 0
-14458 14477 0
-5683 -14458 14478 0
-14459 14478 0
-5683 -14459 14479 0
-14460 14479 0
-5683 -14460 14480 0
-14461 14480 0
-5683 -14461 14481 0
-14462 14481 0
-5683 -14462 14482 0
-14463 14482 0
-5683 -14463 14483 0
-14464 14483 0
-5683 -14464 14484 0
-14465 14484 0
-5683 -14465 0
-5693 14485 0
-14466 14485 0
-5693 -14466 14486 0
-14467 14486 0
-5693 -14467 14487 0
-14468 14487 0
-5693 -14468 14488 0
-14469 14488 0
-5693 -14469 14489 0
-14470 14489 0
-5693 -14470 14490 0
-14471 14490 0
-5693 -14471 14491 0
-14472 14491 0
-5693 -14472 14492 0
-14473 14492 0
-5693 -14473 14493 0
-14474 14493 0
-5693 -14474 14494 0
-14475 14494 0
-5693 -14475 14495 0
-14476 14495 0
-5693 -14476 14496 0
-14477 14496 0
-5693 -14477 14497 0
-14478 14497 0
-5693 -14478 14498 0
-14479 14498 0
-5693 -14479 14499 0
-14480 14499 0
-5693 -14480 14500 0
-14481 14500 0
-5693 -14481 14501 0
-14482 14501 0
-5693 -14482 14502 0
-14483 14502 0
-5693 -14483 14503 0
-14484 14503 0
-5693 -14484 0
-5693 14504 0
-14485 14504 0
-5693 -14485 14505 0
-14486 14505 0
-5693 -14486 14506 0
-14487 14506 0
-5693 -14487 14507 0
-14488 14507 0
-5693 -14488 14508 0
-14489 14508 0
-5693 -14489 14509 0
-14490 14509 0
-5693 -14490 14510 0
-14491 14510 0
-5693 -14491 14511 0
-14492 14511 0
-5693 -14492 14512 0
-14493 14512 0
-5693 -14493 14513 0
-14494 14513 0
-5693 -14494 14514 0
-14495 14514 0
-5693 -14495 14515 0
-14496 14515 0
-5693 -14496 14516 0
-14497 14516 0
-5693 -14497 14517 0
-14498 14517 0
-5693 -14498 14518 0
-14499 14518 0
-5693 -14499 14519 0
-14500 14519 0
-5693 -14500 14520 0
-14501 14520 0
-5693 -14501 14521 0
-14502 14521 0
-5693 -14502 14522 0
-14503 14522 0
-5693 -14503 0
-5693 14523 0
-14504 14523 0
-5693 -14504 14524 0
-14505 14524 0
-5693 -14505 14525 0
-14506 14525 0
-5693 -14506 14526 0
-14507 14526 0
-5693 -14507 14527 0
-14508 14527 0
-5693 -14508 14528 0
-14509 14528 0
-5693 -14509 14529 0
-14510 14529 0
-5693 -14510 14530 0
-14511 14530 0
-5693 -14511 14531 0
-14512 14531 0
-5693 -14512 14532 0
-14513 14532 0
-5693 -14513 14533 0
-14514 14533 0
-5693 -14514 14534 0
-14515 14534 0
-5693 -14515 14535 0
-14516 14535 0
-5693 -14516 14536 0
-14517 14536 0
-5693 -14517 14537 0
-14518 14537 0
-5693 -14518 14538 0
-14519 14538 0
-5693 -14519 14539 0
-14520 14539 0
-5693 -14520 14540 0
-14521 14540 0
-5693 -14521 14541 0
-14522 14541 0
-5693 -14522 0
-5694 14542 0
-14523 14542 0
-5694 -14523 14543 0
-14524 14543 0
-5694 -14524 14544 0
-14525 14544 0
-5694 -14525 14545 0
-14526 14545 0
-5694 -14526 14546 0
-14527 14546 0
-5694 -14527 14547 0
-14528 14547 0
-5694 -14528 14548 0
-14529 14548 0
-5694 -14529 14549 0
-14530 14549 0
-5694 -14530 14550 0
-14531 14550 0
-5694 -14531 14551 0
-14532 14551 0
-5694 -14532 14552 0
-14533 14552 0
-5694 -14533 14553 0
-14534 14553 0
-5694 -14534 14554 0
-14535 14554 0
-5694 -14535 14555 0
-14536 14555 0
-5694 -14536 14556 0
-14537 14556 0
-5694 -14537 14557 0
-14538 14557 0
-5694 -14538 14558 0
-14539 14558 0
-5694 -14539 14559 0
-14540 14559 0
-5694 -14540 14560 0
-14541 14560 0
-5694 -14541 0
-5694 14561 0
-14542 14561 0
-5694 -14542 14562 0
-14543 14562 0
-5694 -14543 14563 0
-14544 14563 0
-5694 -14544 14564 0
-14545 14564 0
-5694 -14545 14565 0
-14546 14565 0
-5694 -14546 14566 0
-14547 14566 0
-5694 -14547 14567 0
-14548 14567 0
-5694 -14548 14568 0
-14549 14568 0
-5694 -14549 14569 0
-14550 14569 0
-5694 -14550 14570 0
-14551 14570 0
-5694 -14551 14571 0
-14552 14571 0
-5694 -14552 14572 0
-14553 14572 0
-5694 -14553 14573 0
-14554 14573 0
-5694 -14554 14574 0
-14555 14574 0
-5694 -14555 14575 0
-14556 14575 0
-5694 -14556 14576 0
-14557 14576 0
-5694 -14557 14577 0
-14558 14577 0
-5694 -14558 14578 0
-14559 14578 0
-5694 -14559 14579 0
-14560 14579 0
-5694 -14560 0
-5704 14580 0
-14561 14580 0
-5704 -14561 14581 0
-14562 14581 0
-5704 -14562 14582 0
-14563 14582 0
-5704 -14563 14583 0
-14564 14583 0
-5704 -14564 14584 0
-14565 14584 0
-5704 -14565 14585 0
-14566 14585 0
-5704 -14566 14586 0
-14567 14586 0
-5704 -14567 14587 0
-14568 14587 0
-5704 -14568 14588 0
-14569 14588 0
-5704 -14569 14589 0
-14570 14589 0
-5704 -14570 14590 0
-14571 14590 0
-5704 -14571 14591 0
-14572 14591 0
-5704 -14572 14592 0
-14573 14592 0
-5704 -14573 14593 0
-14574 14593 0
-5704 -14574 14594 0
-14575 14594 0
-5704 -14575 14595 0
-14576 14595 0
-5704 -14576 14596 0
-14577 14596 0
-5704 -14577 14597 0
-14578 14597 0
-5704 -14578 14598 0
-14579 14598 0
-5704 -14579 0
-5704 14599 0
-14580 14599 0
-5704 -14580 14600 0
-14581 14600 0
-5704 -14581 14601 0
-14582 14601 0
-5704 -14582 14602 0
-14583 14602 0
-5704 -14583 14603 0
-14584 14603 0
-5704 -14584 14604 0
-14585 14604 0
-5704 -14585 14605 0
-14586 14605 0
-5704 -14586 14606 0
-14587 14606 0
-5704 -14587 14607 0
-14588 14607 0
-5704 -14588 14608 0
-14589 14608 0
-5704 -14589 14609 0
-14590 14609 0
-5704 -14590 14610 0
-14591 14610 0
-5704 -14591 14611 0
-14592 14611 0
-5704 -14592 14612 0
-14593 14612 0
-5704 -14593 14613 0
-14594 14613 0
-5704 -14594 14614 0
-14595 14614 0
-5704 -14595 14615 0
-14596 14615 0
-5704 -14596 14616 0
-14597 14616 0
-5704 -14597 14617 0
-14598 14617 0
-5704 -14598 0
-5704 14618 0
-14599 14618 0
-5704 -14599 14619 0
-14600 14619 0
-5704 -14600 14620 0
-14601 14620 0
-5704 -14601 14621 0
-14602 14621 0
-5704 -14602 14622 0
-14603 14622 0
-5704 -14603 14623 0
-14604 14623 0
-5704 -14604 14624 0
-14605 14624 0
-5704 -14605 14625 0
-14606 14625 0
-5704 -14606 14626 0
-14607 14626 0
-5704 -14607 14627 0
-14608 14627 0
-5704 -14608 14628 0
-14609 14628 0
-5704 -14609 14629 0
-14610 14629 0
-5704 -14610 14630 0
-14611 14630 0
-5704 -14611 14631 0
-14612 14631 0
-5704 -14612 14632 0
-14613 14632 0
-5704 -14613 14633 0
-14614 14633 0
-5704 -14614 14634 0
-14615 14634 0
-5704 -14615 14635 0
-14616 14635 0
-5704 -14616 14636 0
-14617 14636 0
-5704 -14617 0
-5705 14637 0
-14618 14637 0
-5705 -14618 14638 0
-14619 14638 0
-5705 -14619 14639 0
-14620 14639 0
-5705 -14620 14640 0
-14621 14640 0
-5705 -14621 14641 0
-14622 14641 0
-5705 -14622 14642 0
-14623 14642 0
-5705 -14623 14643 0
-14624 14643 0
-5705 -14624 14644 0
-14625 14644 0
-5705 -14625 14645 0
-14626 14645 0
-5705 -14626 14646 0
-14627 14646 0
-5705 -14627 14647 0
-14628 14647 0
-5705 -14628 14648 0
-14629 14648 0
-5705 -14629 14649 0
-14630 14649 0
-5705 -14630 14650 0
-14631 14650 0
-5705 -14631 14651 0
-14632 14651 0
-5705 -14632 14652 0
-14633 14652 0
-5705 -14633 14653 0
-14634 14653 0
-5705 -14634 14654 0
-14635 14654 0
-5705 -14635 14655 0
-14636 14655 0
-5705 -14636 0
-5705 14656 0
-14637 14656 0
-5705 -14637 14657 0
-14638 14657 0
-5705 -14638 14658 0
-14639 14658 0
-5705 -14639 14659 0
-14640 14659 0
-5705 -14640 14660 0
-14641 14660 0
-5705 -14641 14661 0
-14642 14661 0
-5705 -14642 14662 0
-14643 14662 0
-5705 -14643 14663 0
-14644 14663 0
-5705 -14644 14664 0
-14645 14664 0
-5705 -14645 14665 0
-14646 14665 0
-5705 -14646 14666 0
-14647 14666 0
-5705 -14647 14667 0
-14648 14667 0
-5705 -14648 14668 0
-14649 14668 0
-5705 -14649 14669 0
-14650 14669 0
-5705 -14650 14670 0
-14651 14670 0
-5705 -14651 14671 0
-14652 14671 0
-5705 -14652 14672 0
-14653 14672 0
-5705 -14653 14673 0
-14654 14673 0
-5705 -14654 14674 0
-14655 14674 0
-5705 -14655 0
-5715 14675 0
-14656 14675 0
-5715 -14656 14676 0
-14657 14676 0
-5715 -14657 14677 0
-14658 14677 0
-5715 -14658 14678 0
-14659 14678 0
-5715 -14659 14679 0
-14660 14679 0
-5715 -14660 14680 0
-14661 14680 0
-5715 -14661 14681 0
-14662 14681 0
-5715 -14662 14682 0
-14663 14682 0
-5715 -14663 14683 0
-14664 14683 0
-5715 -14664 14684 0
-14665 14684 0
-5715 -14665 14685 0
-14666 14685 0
-5715 -14666 14686 0
-14667 14686 0
-5715 -14667 14687 0
-14668 14687 0
-5715 -14668 14688 0
-14669 14688 0
-5715 -14669 14689 0
-14670 14689 0
-5715 -14670 14690 0
-14671 14690 0
-5715 -14671 14691 0
-14672 14691 0
-5715 -14672 14692 0
-14673 14692 0
-5715 -14673 14693 0
-14674 14693 0
-5715 -14674 0
-5715 14694 0
-14675 14694 0
-5715 -14675 14695 0
-14676 14695 0
-5715 -14676 14696 0
-14677 14696 0
-5715 -14677 14697 0
-14678 14697 0
-5715 -14678 14698 0
-14679 14698 0
-5715 -14679 14699 0
-14680 14699 0
-5715 -14680 14700 0
-14681 14700 0
-5715 -14681 14701 0
-14682 14701 0
-5715 -14682 14702 0
-14683 14702 0
-5715 -14683 14703 0
-14684 14703 0
-5715 -14684 14704 0
-14685 14704 0
-5715 -14685 14705 0
-14686 14705 0
-5715 -14686 14706 0
-14687 14706 0
-5715 -14687 14707 0
-14688 14707 0
-5715 -14688 14708 0
-14689 14708 0
-5715 -14689 14709 0
-14690 14709 0
-5715 -14690 14710 0
-14691 14710 0
-5715 -14691 14711 0
-14692 14711 0
-5715 -14692 14712 0
-14693 14712 0
-5715 -14693 0
-5715 14713 0
-14694 14713 0
-5715 -14694 14714 0
-14695 14714 0
-5715 -14695 14715 0
-14696 14715 0
-5715 -14696 14716 0
-14697 14716 0
-5715 -14697 14717 0
-14698 14717 0
-5715 -14698 14718 0
-14699 14718 0
-5715 -14699 14719 0
-14700 14719 0
-5715 -14700 14720 0
-14701 14720 0
-5715 -14701 14721 0
-14702 14721 0
-5715 -14702 14722 0
-14703 14722 0
-5715 -14703 14723 0
-14704 14723 0
-5715 -14704 14724 0
-14705 14724 0
-5715 -14705 14725 0
-14706 14725 0
-5715 -14706 14726 0
-14707 14726 0
-5715 -14707 14727 0
-14708 14727 0
-5715 -14708 14728 0
-14709 14728 0
-5715 -14709 14729 0
-14710 14729 0
-5715 -14710 14730 0
-14711 14730 0
-5715 -14711 14731 0
-14712 14731 0
-5715 -14712 0
-5716 14732 0
-14713 14732 0
-5716 -14713 14733 0
-14714 14733 0
-5716 -14714 14734 0
-14715 14734 0
-5716 -14715 14735 0
-14716 14735 0
-5716 -14716 14736 0
-14717 14736 0
-5716 -14717 14737 0
-14718 14737 0
-5716 -14718 14738 0
-14719 14738 0
-5716 -14719 14739 0
-14720 14739 0
-5716 -14720 14740 0
-14721 14740 0
-5716 -14721 14741 0
-14722 14741 0
-5716 -14722 14742 0
-14723 14742 0
-5716 -14723 14743 0
-14724 14743 0
-5716 -14724 14744 0
-14725 14744 0
-5716 -14725 14745 0
-14726 14745 0
-5716 -14726 14746 0
-14727 14746 0
-5716 -14727 14747 0
-14728 14747 0
-5716 -14728 14748 0
-14729 14748 0
-5716 -14729 14749 0
-14730 14749 0
-5716 -14730 14750 0
-14731 14750 0
-5716 -14731 0
-5716 14751 0
-14732 14751 0
-5716 -14732 14752 0
-14733 14752 0
-5716 -14733 14753 0
-14734 14753 0
-5716 -14734 14754 0
-14735 14754 0
-5716 -14735 14755 0
-14736 14755 0
-5716 -14736 14756 0
-14737 14756 0
-5716 -14737 14757 0
-14738 14757 0
-5716 -14738 14758 0
-14739 14758 0
-5716 -14739 14759 0
-14740 14759 0
-5716 -14740 14760 0
-14741 14760 0
-5716 -14741 14761 0
-14742 14761 0
-5716 -14742 14762 0
-14743 14762 0
-5716 -14743 14763 0
-14744 14763 0
-5716 -14744 14764 0
-14745 14764 0
-5716 -14745 14765 0
-14746 14765 0
-5716 -14746 14766 0
-14747 14766 0
-5716 -14747 14767 0
-14748 14767 0
-5716 -14748 14768 0
-14749 14768 0
-5716 -14749 14769 0
-14750 14769 0
-5716 -14750 0
-5726 14770 0
-14751 14770 0
-5726 -14751 14771 0
-14752 14771 0
-5726 -14752 14772 0
-14753 14772 0
-5726 -14753 14773 0
-14754 14773 0
-5726 -14754 14774 0
-14755 14774 0
-5726 -14755 14775 0
-14756 14775 0
-5726 -14756 14776 0
-14757 14776 0
-5726 -14757 14777 0
-14758 14777 0
-5726 -14758 14778 0
-14759 14778 0
-5726 -14759 14779 0
-14760 14779 0
-5726 -14760 14780 0
-14761 14780 0
-5726 -14761 14781 0
-14762 14781 0
-5726 -14762 14782 0
-14763 14782 0
-5726 -14763 14783 0
-14764 14783 0
-5726 -14764 14784 0
-14765 14784 0
-5726 -14765 14785 0
-14766 14785 0
-5726 -14766 14786 0
-14767 14786 0
-5726 -14767 14787 0
-14768 14787 0
-5726 -14768 14788 0
-14769 14788 0
-5726 -14769 0
-5726 14789 0
-14770 14789 0
-5726 -14770 14790 0
-14771 14790 0
-5726 -14771 14791 0
-14772 14791 0
-5726 -14772 14792 0
-14773 14792 0
-5726 -14773 14793 0
-14774 14793 0
-5726 -14774 14794 0
-14775 14794 0
-5726 -14775 14795 0
-14776 14795 0
-5726 -14776 14796 0
-14777 14796 0
-5726 -14777 14797 0
-14778 14797 0
-5726 -14778 14798 0
-14779 14798 0
-5726 -14779 14799 0
-14780 14799 0
-5726 -14780 14800 0
-14781 14800 0
-5726 -14781 14801 0
-14782 14801 0
-5726 -14782 14802 0
-14783 14802 0
-5726 -14783 14803 0
-14784 14803 0
-5726 -14784 14804 0
-14785 14804 0
-5726 -14785 14805 0
-14786 14805 0
-5726 -14786 14806 0
-14787 14806 0
-5726 -14787 14807 0
-14788 14807 0
-5726 -14788 0
-5726 14808 0
-14789 14808 0
-5726 -14789 14809 0
-14790 14809 0
-5726 -14790 14810 0
-14791 14810 0
-5726 -14791 14811 0
-14792 14811 0
-5726 -14792 14812 0
-14793 14812 0
-5726 -14793 14813 0
-14794 14813 0
-5726 -14794 14814 0
-14795 14814 0
-5726 -14795 14815 0
-14796 14815 0
-5726 -14796 14816 0
-14797 14816 0
-5726 -14797 14817 0
-14798 14817 0
-5726 -14798 14818 0
-14799 14818 0
-5726 -14799 14819 0
-14800 14819 0
-5726 -14800 14820 0
-14801 14820 0
-5726 -14801 14821 0
-14802 14821 0
-5726 -14802 14822 0
-14803 14822 0
-5726 -14803 14823 0
-14804 14823 0
-5726 -14804 14824 0
-14805 14824 0
-5726 -14805 14825 0
-14806 14825 0
-5726 -14806 14826 0
-14807 14826 0
-5726 -14807 0
-5727 14827 0
-14808 14827 0
-5727 -14808 14828 0
-14809 14828 0
-5727 -14809 14829 0
-14810 14829 0
-5727 -14810 14830 0
-14811 14830 0
-5727 -14811 14831 0
-14812 14831 0
-5727 -14812 14832 0
-14813 14832 0
-5727 -14813 14833 0
-14814 14833 0
-5727 -14814 14834 0
-14815 14834 0
-5727 -14815 14835 0
-14816 14835 0
-5727 -14816 14836 0
-14817 14836 0
-5727 -14817 14837 0
-14818 14837 0
-5727 -14818 14838 0
-14819 14838 0
-5727 -14819 14839 0
-14820 14839 0
-5727 -14820 14840 0
-14821 14840 0
-5727 -14821 14841 0
-14822 14841 0
-5727 -14822 14842 0
-14823 14842 0
-5727 -14823 14843 0
-14824 14843 0
-5727 -14824 14844 0
-14825 14844 0
-5727 -14825 14845 0
-14826 14845 0
-5727 -14826 0
-5727 14846 0
-14827 14846 0
-5727 -14827 14847 0
-14828 14847 0
-5727 -14828 14848 0
-14829 14848 0
-5727 -14829 14849 0
-14830 14849 0
-5727 -14830 14850 0
-14831 14850 0
-5727 -14831 14851 0
-14832 14851 0
-5727 -14832 14852 0
-14833 14852 0
-5727 -14833 14853 0
-14834 14853 0
-5727 -14834 14854 0
-14835 14854 0
-5727 -14835 14855 0
-14836 14855 0
-5727 -14836 14856 0
-14837 14856 0
-5727 -14837 14857 0
-14838 14857 0
-5727 -14838 14858 0
-14839 14858 0
-5727 -14839 14859 0
-14840 14859 0
-5727 -14840 14860 0
-14841 14860 0
-5727 -14841 14861 0
-14842 14861 0
-5727 -14842 14862 0
-14843 14862 0
-5727 -14843 14863 0
-14844 14863 0
-5727 -14844 14864 0
-14845 14864 0
-5727 -14845 0
-5737 14865 0
-14846 14865 0
-5737 -14846 14866 0
-14847 14866 0
-5737 -14847 14867 0
-14848 14867 0
-5737 -14848 14868 0
-14849 14868 0
-5737 -14849 14869 0
-14850 14869 0
-5737 -14850 14870 0
-14851 14870 0
-5737 -14851 14871 0
-14852 14871 0
-5737 -14852 14872 0
-14853 14872 0
-5737 -14853 14873 0
-14854 14873 0
-5737 -14854 14874 0
-14855 14874 0
-5737 -14855 14875 0
-14856 14875 0
-5737 -14856 14876 0
-14857 14876 0
-5737 -14857 14877 0
-14858 14877 0
-5737 -14858 14878 0
-14859 14878 0
-5737 -14859 14879 0
-14860 14879 0
-5737 -14860 14880 0
-14861 14880 0
-5737 -14861 14881 0
-14862 14881 0
-5737 -14862 14882 0
-14863 14882 0
-5737 -14863 14883 0
-14864 14883 0
-5737 -14864 0
-5737 14884 0
-14865 14884 0
-5737 -14865 14885 0
-14866 14885 0
-5737 -14866 14886 0
-14867 14886 0
-5737 -14867 14887 0
-14868 14887 0
-5737 -14868 14888 0
-14869 14888 0
-5737 -14869 14889 0
-14870 14889 0
-5737 -14870 14890 0
-14871 14890 0
-5737 -14871 14891 0
-14872 14891 0
-5737 -14872 14892 0
-14873 14892 0
-5737 -14873 14893 0
-14874 14893 0
-5737 -14874 14894 0
-14875 14894 0
-5737 -14875 14895 0
-14876 14895 0
-5737 -14876 14896 0
-14877 14896 0
-5737 -14877 14897 0
-14878 14897 0
-5737 -14878 14898 0
-14879 14898 0
-5737 -14879 14899 0
-14880 14899 0
-5737 -14880 14900 0
-14881 14900 0
-5737 -14881 14901 0
-14882 14901 0
-5737 -14882 14902 0
-14883 14902 0
-5737 -14883 0
-5737 14903 0
-14884 14903 0
-5737 -14884 14904 0
-14885 14904 0
-5737 -14885 14905 0
-14886 14905 0
-5737 -14886 14906 0
-14887 14906 0
-5737 -14887 14907 0
-14888 14907 0
-5737 -14888 14908 0
-14889 14908 0
-5737 -14889 14909 0
-14890 14909 0
-5737 -14890 14910 0
-14891 14910 0
-5737 -14891 14911 0
-14892 14911 0
-5737 -14892 14912 0
-14893 14912 0
-5737 -14893 14913 0
-14894 14913 0
-5737 -14894 14914 0
-14895 14914 0
-5737 -14895 14915 0
-14896 14915 0
-5737 -14896 14916 0
-14897 14916 0
-5737 -14897 14917 0
-14898 14917 0
-5737 -14898 14918 0
-14899 14918 0
-5737 -14899 14919 0
-14900 14919 0
-5737 -14900 14920 0
-14901 14920 0
-5737 -14901 14921 0
-14902 14921 0
-5737 -14902 0
-5738 14922 0
-14903 14922 0
-5738 -14903 14923 0
-14904 14923 0
-5738 -14904 14924 0
-14905 14924 0
-5738 -14905 14925 0
-14906 14925 0
-5738 -14906 14926 0
-14907 14926 0
-5738 -14907 14927 0
-14908 14927 0
-5738 -14908 14928 0
-14909 14928 0
-5738 -14909 14929 0
-14910 14929 0
-5738 -14910 14930 0
-14911 14930 0
-5738 -14911 14931 0
-14912 14931 0
-5738 -14912 14932 0
-14913 14932 0
-5738 -14913 14933 0
-14914 14933 0
-5738 -14914 14934 0
-14915 14934 0
-5738 -14915 14935 0
-14916 14935 0
-5738 -14916 14936 0
-14917 14936 0
-5738 -14917 14937 0
-14918 14937 0
-5738 -14918 14938 0
-14919 14938 0
-5738 -14919 14939 0
-14920 14939 0
-5738 -14920 14940 0
-14921 14940 0
-5738 -14921 0
-5738 14941 0
-14922 14941 0
-5738 -14922 14942 0
-14923 14942 0
-5738 -14923 14943 0
-14924 14943 0
-5738 -14924 14944 0
-14925 14944 0
-5738 -14925 14945 0
-14926 14945 0
-5738 -14926 14946 0
-14927 14946 0
-5738 -14927 14947 0
-14928 14947 0
-5738 -14928 14948 0
-14929 14948 0
-5738 -14929 14949 0
-14930 14949 0
-5738 -14930 14950 0
-14931 14950 0
-5738 -14931 14951 0
-14932 14951 0
-5738 -14932 14952 0
-14933 14952 0
-5738 -14933 14953 0
-14934 14953 0
-5738 -14934 14954 0
-14935 14954 0
-5738 -14935 14955 0
-14936 14955 0
-5738 -14936 14956 0
-14937 14956 0
-5738 -14937 14957 0
-14938 14957 0
-5738 -14938 14958 0
-14939 14958 0
-5738 -14939 14959 0
-14940 14959 0
-5738 -14940 0
-5748 14960 0
-14941 14960 0
-5748 -14941 14961 0
-14942 14961 0
-5748 -14942 14962 0
-14943 14962 0
-5748 -14943 14963 0
-14944 14963 0
-5748 -14944 14964 0
-14945 14964 0
-5748 -14945 14965 0
-14946 14965 0
-5748 -14946 14966 0
-14947 14966 0
-5748 -14947 14967 0
-14948 14967 0
-5748 -14948 14968 0
-14949 14968 0
-5748 -14949 14969 0
-14950 14969 0
-5748 -14950 14970 0
-14951 14970 0
-5748 -14951 14971 0
-14952 14971 0
-5748 -14952 14972 0
-14953 14972 0
-5748 -14953 14973 0
-14954 14973 0
-5748 -14954 14974 0
-14955 14974 0
-5748 -14955 14975 0
-14956 14975 0
-5748 -14956 14976 0
-14957 14976 0
-5748 -14957 14977 0
-14958 14977 0
-5748 -14958 14978 0
-14959 14978 0
-5748 -14959 0
-5748 14979 0
-14960 14979 0
-5748 -14960 14980 0
-14961 14980 0
-5748 -14961 14981 0
-14962 14981 0
-5748 -14962 14982 0
-14963 14982 0
-5748 -14963 14983 0
-14964 14983 0
-5748 -14964 14984 0
-14965 14984 0
-5748 -14965 14985 0
-14966 14985 0
-5748 -14966 14986 0
-14967 14986 0
-5748 -14967 14987 0
-14968 14987 0
-5748 -14968 14988 0
-14969 14988 0
-5748 -14969 14989 0
-14970 14989 0
-5748 -14970 14990 0
-14971 14990 0
-5748 -14971 14991 0
-14972 14991 0
-5748 -14972 14992 0
-14973 14992 0
-5748 -14973 14993 0
-14974 14993 0
-5748 -14974 14994 0
-14975 14994 0
-5748 -14975 14995 0
-14976 14995 0
-5748 -14976 14996 0
-14977 14996 0
-5748 -14977 14997 0
-14978 14997 0
-5748 -14978 0
-5748 14998 0
-14979 14998 0
-5748 -14979 14999 0
-14980 14999 0
-5748 -14980 15000 0
-14981 15000 0
-5748 -14981 15001 0
-14982 15001 0
-5748 -14982 15002 0
-14983 15002 0
-5748 -14983 15003 0
-14984 15003 0
-5748 -14984 15004 0
-14985 15004 0
-5748 -14985 15005 0
-14986 15005 0
-5748 -14986 15006 0
-14987 15006 0
-5748 -14987 15007 0
-14988 15007 0
-5748 -14988 15008 0
-14989 15008 0
-5748 -14989 15009 0
-14990 15009 0
-5748 -14990 15010 0
-14991 15010 0
-5748 -14991 15011 0
-14992 15011 0
-5748 -14992 15012 0
-14993 15012 0
-5748 -14993 15013 0
-14994 15013 0
-5748 -14994 15014 0
-14995 15014 0
-5748 -14995 15015 0
-14996 15015 0
-5748 -14996 15016 0
-14997 15016 0
-5748 -14997 0
-5749 15017 0
-14998 15017 0
-5749 -14998 15018 0
-14999 15018 0
-5749 -14999 15019 0
-15000 15019 0
-5749 -15000 15020 0
-15001 15020 0
-5749 -15001 15021 0
-15002 15021 0
-5749 -15002 15022 0
-15003 15022 0
-5749 -15003 15023 0
-15004 15023 0
-5749 -15004 15024 0
-15005 15024 0
-5749 -15005 15025 0
-15006 15025 0
-5749 -15006 15026 0
-15007 15026 0
-5749 -15007 15027 0
-15008 15027 0
-5749 -15008 15028 0
-15009 15028 0
-5749 -15009 15029 0
-15010 15029 0
-5749 -15010 15030 0
-15011 15030 0
-5749 -15011 15031 0
-15012 15031 0
-5749 -15012 15032 0
-15013 15032 0
-5749 -15013 15033 0
-15014 15033 0
-5749 -15014 15034 0
-15015 15034 0
-5749 -15015 15035 0
-15016 15035 0
-5749 -15016 0
-5749 15036 0
-15017 15036 0
-5749 -15017 15037 0
-15018 15037 0
-5749 -15018 15038 0
-15019 15038 0
-5749 -15019 15039 0
-15020 15039 0
-5749 -15020 15040 0
-15021 15040 0
-5749 -15021 15041 0
-15022 15041 0
-5749 -15022 15042 0
-15023 15042 0
-5749 -15023 15043 0
-15024 15043 0
-5749 -15024 15044 0
-15025 15044 0
-5749 -15025 15045 0
-15026 15045 0
-5749 -15026 15046 0
-15027 15046 0
-5749 -15027 15047 0
-15028 15047 0
-5749 -15028 15048 0
-15029 15048 0
-5749 -15029 15049 0
-15030 15049 0
-5749 -15030 15050 0
-15031 15050 0
-5749 -15031 15051 0
-15032 15051 0
-5749 -15032 15052 0
-15033 15052 0
-5749 -15033 15053 0
-15034 15053 0
-5749 -15034 15054 0
-15035 15054 0
-5749 -15035 0
-5759 15055 0
-15036 15055 0
-5759 -15036 15056 0
-15037 15056 0
-5759 -15037 15057 0
-15038 15057 0
-5759 -15038 15058 0
-15039 15058 0
-5759 -15039 15059 0
-15040 15059 0
-5759 -15040 15060 0
-15041 15060 0
-5759 -15041 15061 0
-15042 15061 0
-5759 -15042 15062 0
-15043 15062 0
-5759 -15043 15063 0
-15044 15063 0
-5759 -15044 15064 0
-15045 15064 0
-5759 -15045 15065 0
-15046 15065 0
-5759 -15046 15066 0
-15047 15066 0
-5759 -15047 15067 0
-15048 15067 0
-5759 -15048 15068 0
-15049 15068 0
-5759 -15049 15069 0
-15050 15069 0
-5759 -15050 15070 0
-15051 15070 0
-5759 -15051 15071 0
-15052 15071 0
-5759 -15052 15072 0
-15053 15072 0
-5759 -15053 15073 0
-15054 15073 0
-5759 -15054 0
-5759 15074 0
-15055 15074 0
-5759 -15055 15075 0
-15056 15075 0
-5759 -15056 15076 0
-15057 15076 0
-5759 -15057 15077 0
-15058 15077 0
-5759 -15058 15078 0
-15059 15078 0
-5759 -15059 15079 0
-15060 15079 0
-5759 -15060 15080 0
-15061 15080 0
-5759 -15061 15081 0
-15062 15081 0
-5759 -15062 15082 0
-15063 15082 0
-5759 -15063 15083 0
-15064 15083 0
-5759 -15064 15084 0
-15065 15084 0
-5759 -15065 15085 0
-15066 15085 0
-5759 -15066 15086 0
-15067 15086 0
-5759 -15067 15087 0
-15068 15087 0
-5759 -15068 15088 0
-15069 15088 0
-5759 -15069 15089 0
-15070 15089 0
-5759 -15070 15090 0
-15071 15090 0
-5759 -15071 15091 0
-15072 15091 0
-5759 -15072 15092 0
-15073 15092 0
-5759 -15073 0
-5759 15093 0
-15074 15093 0
-5759 -15074 15094 0
-15075 15094 0
-5759 -15075 15095 0
-15076 15095 0
-5759 -15076 15096 0
-15077 15096 0
-5759 -15077 15097 0
-15078 15097 0
-5759 -15078 15098 0
-15079 15098 0
-5759 -15079 15099 0
-15080 15099 0
-5759 -15080 15100 0
-15081 15100 0
-5759 -15081 15101 0
-15082 15101 0
-5759 -15082 15102 0
-15083 15102 0
-5759 -15083 15103 0
-15084 15103 0
-5759 -15084 15104 0
-15085 15104 0
-5759 -15085 15105 0
-15086 15105 0
-5759 -15086 15106 0
-15087 15106 0
-5759 -15087 15107 0
-15088 15107 0
-5759 -15088 15108 0
-15089 15108 0
-5759 -15089 15109 0
-15090 15109 0
-5759 -15090 15110 0
-15091 15110 0
-5759 -15091 15111 0
-15092 15111 0
-5759 -15092 0
-5760 15112 0
-15093 15112 0
-5760 -15093 15113 0
-15094 15113 0
-5760 -15094 15114 0
-15095 15114 0
-5760 -15095 15115 0
-15096 15115 0
-5760 -15096 15116 0
-15097 15116 0
-5760 -15097 15117 0
-15098 15117 0
-5760 -15098 15118 0
-15099 15118 0
-5760 -15099 15119 0
-15100 15119 0
-5760 -15100 15120 0
-15101 15120 0
-5760 -15101 15121 0
-15102 15121 0
-5760 -15102 15122 0
-15103 15122 0
-5760 -15103 15123 0
-15104 15123 0
-5760 -15104 15124 0
-15105 15124 0
-5760 -15105 15125 0
-15106 15125 0
-5760 -15106 15126 0
-15107 15126 0
-5760 -15107 15127 0
-15108 15127 0
-5760 -15108 15128 0
-15109 15128 0
-5760 -15109 15129 0
-15110 15129 0
-5760 -15110 15130 0
-15111 15130 0
-5760 -15111 0
-5760 15131 0
-15112 15131 0
-5760 -15112 15132 0
-15113 15132 0
-5760 -15113 15133 0
-15114 15133 0
-5760 -15114 15134 0
-15115 15134 0
-5760 -15115 15135 0
-15116 15135 0
-5760 -15116 15136 0
-15117 15136 0
-5760 -15117 15137 0
-15118 15137 0
-5760 -15118 15138 0
-15119 15138 0
-5760 -15119 15139 0
-15120 15139 0
-5760 -15120 15140 0
-15121 15140 0
-5760 -15121 15141 0
-15122 15141 0
-5760 -15122 15142 0
-15123 15142 0
-5760 -15123 15143 0
-15124 15143 0
-5760 -15124 15144 0
-15125 15144 0
-5760 -15125 15145 0
-15126 15145 0
-5760 -15126 15146 0
-15127 15146 0
-5760 -15127 15147 0
-15128 15147 0
-5760 -15128 15148 0
-15129 15148 0
-5760 -15129 15149 0
-15130 15149 0
-5760 -15130 0
-5770 15150 0
-15131 15150 0
-5770 -15131 15151 0
-15132 15151 0
-5770 -15132 15152 0
-15133 15152 0
-5770 -15133 15153 0
-15134 15153 0
-5770 -15134 15154 0
-15135 15154 0
-5770 -15135 15155 0
-15136 15155 0
-5770 -15136 15156 0
-15137 15156 0
-5770 -15137 15157 0
-15138 15157 0
-5770 -15138 15158 0
-15139 15158 0
-5770 -15139 15159 0
-15140 15159 0
-5770 -15140 15160 0
-15141 15160 0
-5770 -15141 15161 0
-15142 15161 0
-5770 -15142 15162 0
-15143 15162 0
-5770 -15143 15163 0
-15144 15163 0
-5770 -15144 15164 0
-15145 15164 0
-5770 -15145 15165 0
-15146 15165 0
-5770 -15146 15166 0
-15147 15166 0
-5770 -15147 15167 0
-15148 15167 0
-5770 -15148 15168 0
-15149 15168 0
-5770 -15149 0
-5770 15169 0
-15150 15169 0
-5770 -15150 15170 0
-15151 15170 0
-5770 -15151 15171 0
-15152 15171 0
-5770 -15152 15172 0
-15153 15172 0
-5770 -15153 15173 0
-15154 15173 0
-5770 -15154 15174 0
-15155 15174 0
-5770 -15155 15175 0
-15156 15175 0
-5770 -15156 15176 0
-15157 15176 0
-5770 -15157 15177 0
-15158 15177 0
-5770 -15158 15178 0
-15159 15178 0
-5770 -15159 15179 0
-15160 15179 0
-5770 -15160 15180 0
-15161 15180 0
-5770 -15161 15181 0
-15162 15181 0
-5770 -15162 15182 0
-15163 15182 0
-5770 -15163 15183 0
-15164 15183 0
-5770 -15164 15184 0
-15165 15184 0
-5770 -15165 15185 0
-15166 15185 0
-5770 -15166 15186 0
-15167 15186 0
-5770 -15167 15187 0
-15168 15187 0
-5770 -15168 0
-5770 15188 0
-15169 15188 0
-5770 -15169 15189 0
-15170 15189 0
-5770 -15170 15190 0
-15171 15190 0
-5770 -15171 15191 0
-15172 15191 0
-5770 -15172 15192 0
-15173 15192 0
-5770 -15173 15193 0
-15174 15193 0
-5770 -15174 15194 0
-15175 15194 0
-5770 -15175 15195 0
-15176 15195 0
-5770 -15176 15196 0
-15177 15196 0
-5770 -15177 15197 0
-15178 15197 0
-5770 -15178 15198 0
-15179 15198 0
-5770 -15179 15199 0
-15180 15199 0
-5770 -15180 15200 0
-15181 15200 0
-5770 -15181 15201 0
-15182 15201 0
-5770 -15182 15202 0
-15183 15202 0
-5770 -15183 15203 0
-15184 15203 0
-5770 -15184 15204 0
-15185 15204 0
-5770 -15185 15205 0
-15186 15205 0
-5770 -15186 15206 0
-15187 15206 0
-5770 -15187 0
-5771 15207 0
-15188 15207 0
-5771 -15188 15208 0
-15189 15208 0
-5771 -15189 15209 0
-15190 15209 0
-5771 -15190 15210 0
-15191 15210 0
-5771 -15191 15211 0
-15192 15211 0
-5771 -15192 15212 0
-15193 15212 0
-5771 -15193 15213 0
-15194 15213 0
-5771 -15194 15214 0
-15195 15214 0
-5771 -15195 15215 0
-15196 15215 0
-5771 -15196 15216 0
-15197 15216 0
-5771 -15197 15217 0
-15198 15217 0
-5771 -15198 15218 0
-15199 15218 0
-5771 -15199 15219 0
-15200 15219 0
-5771 -15200 15220 0
-15201 15220 0
-5771 -15201 15221 0
-15202 15221 0
-5771 -15202 15222 0
-15203 15222 0
-5771 -15203 15223 0
-15204 15223 0
-5771 -15204 15224 0
-15205 15224 0
-5771 -15205 15225 0
-15206 15225 0
-5771 -15206 0
-5771 15226 0
-15207 15226 0
-5771 -15207 15227 0
-15208 15227 0
-5771 -15208 15228 0
-15209 15228 0
-5771 -15209 15229 0
-15210 15229 0
-5771 -15210 15230 0
-15211 15230 0
-5771 -15211 15231 0
-15212 15231 0
-5771 -15212 15232 0
-15213 15232 0
-5771 -15213 15233 0
-15214 15233 0
-5771 -15214 15234 0
-15215 15234 0
-5771 -15215 15235 0
-15216 15235 0
-5771 -15216 15236 0
-15217 15236 0
-5771 -15217 15237 0
-15218 15237 0
-5771 -15218 15238 0
-15219 15238 0
-5771 -15219 15239 0
-15220 15239 0
-5771 -15220 15240 0
-15221 15240 0
-5771 -15221 15241 0
-15222 15241 0
-5771 -15222 15242 0
-15223 15242 0
-5771 -15223 15243 0
-15224 15243 0
-5771 -15224 15244 0
-15225 15244 0
-5771 -15225 0
-5781 15245 0
-15226 15245 0
-5781 -15226 15246 0
-15227 15246 0
-5781 -15227 15247 0
-15228 15247 0
-5781 -15228 15248 0
-15229 15248 0
-5781 -15229 15249 0
-15230 15249 0
-5781 -15230 15250 0
-15231 15250 0
-5781 -15231 15251 0
-15232 15251 0
-5781 -15232 15252 0
-15233 15252 0
-5781 -15233 15253 0
-15234 15253 0
-5781 -15234 15254 0
-15235 15254 0
-5781 -15235 15255 0
-15236 15255 0
-5781 -15236 15256 0
-15237 15256 0
-5781 -15237 15257 0
-15238 15257 0
-5781 -15238 15258 0
-15239 15258 0
-5781 -15239 15259 0
-15240 15259 0
-5781 -15240 15260 0
-15241 15260 0
-5781 -15241 15261 0
-15242 15261 0
-5781 -15242 15262 0
-15243 15262 0
-5781 -15243 15263 0
-15244 15263 0
-5781 -15244 0
-5781 15264 0
-15245 15264 0
-5781 -15245 15265 0
-15246 15265 0
-5781 -15246 15266 0
-15247 15266 0
-5781 -15247 15267 0
-15248 15267 0
-5781 -15248 15268 0
-15249 15268 0
-5781 -15249 15269 0
-15250 15269 0
-5781 -15250 15270 0
-15251 15270 0
-5781 -15251 15271 0
-15252 15271 0
-5781 -15252 15272 0
-15253 15272 0
-5781 -15253 15273 0
-15254 15273 0
-5781 -15254 15274 0
-15255 15274 0
-5781 -15255 15275 0
-15256 15275 0
-5781 -15256 15276 0
-15257 15276 0
-5781 -15257 15277 0
-15258 15277 0
-5781 -15258 15278 0
-15259 15278 0
-5781 -15259 15279 0
-15260 15279 0
-5781 -15260 15280 0
-15261 15280 0
-5781 -15261 15281 0
-15262 15281 0
-5781 -15262 15282 0
-15263 15282 0
-5781 -15263 0
-5781 15283 0
-15264 15283 0
-5781 -15264 15284 0
-15265 15284 0
-5781 -15265 15285 0
-15266 15285 0
-5781 -15266 15286 0
-15267 15286 0
-5781 -15267 15287 0
-15268 15287 0
-5781 -15268 15288 0
-15269 15288 0
-5781 -15269 15289 0
-15270 15289 0
-5781 -15270 15290 0
-15271 15290 0
-5781 -15271 15291 0
-15272 15291 0
-5781 -15272 15292 0
-15273 15292 0
-5781 -15273 15293 0
-15274 15293 0
-5781 -15274 15294 0
-15275 15294 0
-5781 -15275 15295 0
-15276 15295 0
-5781 -15276 15296 0
-15277 15296 0
-5781 -15277 15297 0
-15278 15297 0
-5781 -15278 15298 0
-15279 15298 0
-5781 -15279 15299 0
-15280 15299 0
-5781 -15280 15300 0
-15281 15300 0
-5781 -15281 15301 0
-15282 15301 0
-5781 -15282 0
-5782 15302 0
-15283 15302 0
-5782 -15283 15303 0
-15284 15303 0
-5782 -15284 15304 0
-15285 15304 0
-5782 -15285 15305 0
-15286 15305 0
-5782 -15286 15306 0
-15287 15306 0
-5782 -15287 15307 0
-15288 15307 0
-5782 -15288 15308 0
-15289 15308 0
-5782 -15289 15309 0
-15290 15309 0
-5782 -15290 15310 0
-15291 15310 0
-5782 -15291 15311 0
-15292 15311 0
-5782 -15292 15312 0
-15293 15312 0
-5782 -15293 15313 0
-15294 15313 0
-5782 -15294 15314 0
-15295 15314 0
-5782 -15295 15315 0
-15296 15315 0
-5782 -15296 15316 0
-15297 15316 0
-5782 -15297 15317 0
-15298 15317 0
-5782 -15298 15318 0
-15299 15318 0
-5782 -15299 15319 0
-15300 15319 0
-5782 -15300 15320 0
-15301 15320 0
-5782 -15301 0
-5782 15321 0
-15302 15321 0
-5782 -15302 15322 0
-15303 15322 0
-5782 -15303 15323 0
-15304 15323 0
-5782 -15304 15324 0
-15305 15324 0
-5782 -15305 15325 0
-15306 15325 0
-5782 -15306 15326 0
-15307 15326 0
-5782 -15307 15327 0
-15308 15327 0
-5782 -15308 15328 0
-15309 15328 0
-5782 -15309 15329 0
-15310 15329 0
-5782 -15310 15330 0
-15311 15330 0
-5782 -15311 15331 0
-15312 15331 0
-5782 -15312 15332 0
-15313 15332 0
-5782 -15313 15333 0
-15314 15333 0
-5782 -15314 15334 0
-15315 15334 0
-5782 -15315 15335 0
-15316 15335 0
-5782 -15316 15336 0
-15317 15336 0
-5782 -15317 15337 0
-15318 15337 0
-5782 -15318 15338 0
-15319 15338 0
-5782 -15319 15339 0
-15320 15339 0
-5782 -15320 0
-5792 15340 0
-15321 15340 0
-5792 -15321 15341 0
-15322 15341 0
-5792 -15322 15342 0
-15323 15342 0
-5792 -15323 15343 0
-15324 15343 0
-5792 -15324 15344 0
-15325 15344 0
-5792 -15325 15345 0
-15326 15345 0
-5792 -15326 15346 0
-15327 15346 0
-5792 -15327 15347 0
-15328 15347 0
-5792 -15328 15348 0
-15329 15348 0
-5792 -15329 15349 0
-15330 15349 0
-5792 -15330 15350 0
-15331 15350 0
-5792 -15331 15351 0
-15332 15351 0
-5792 -15332 15352 0
-15333 15352 0
-5792 -15333 15353 0
-15334 15353 0
-5792 -15334 15354 0
-15335 15354 0
-5792 -15335 15355 0
-15336 15355 0
-5792 -15336 15356 0
-15337 15356 0
-5792 -15337 15357 0
-15338 15357 0
-5792 -15338 15358 0
-15339 15358 0
-5792 -15339 0
-5792 15359 0
-15340 15359 0
-5792 -15340 15360 0
-15341 15360 0
-5792 -15341 15361 0
-15342 15361 0
-5792 -15342 15362 0
-15343 15362 0
-5792 -15343 15363 0
-15344 15363 0
-5792 -15344 15364 0
-15345 15364 0
-5792 -15345 15365 0
-15346 15365 0
-5792 -15346 15366 0
-15347 15366 0
-5792 -15347 15367 0
-15348 15367 0
-5792 -15348 15368 0
-15349 15368 0
-5792 -15349 15369 0
-15350 15369 0
-5792 -15350 15370 0
-15351 15370 0
-5792 -15351 15371 0
-15352 15371 0
-5792 -15352 15372 0
-15353 15372 0
-5792 -15353 15373 0
-15354 15373 0
-5792 -15354 15374 0
-15355 15374 0
-5792 -15355 15375 0
-15356 15375 0
-5792 -15356 15376 0
-15357 15376 0
-5792 -15357 15377 0
-15358 15377 0
-5792 -15358 0
-5792 15378 0
-15359 15378 0
-5792 -15359 15379 0
-15360 15379 0
-5792 -15360 15380 0
-15361 15380 0
-5792 -15361 15381 0
-15362 15381 0
-5792 -15362 15382 0
-15363 15382 0
-5792 -15363 15383 0
-15364 15383 0
-5792 -15364 15384 0
-15365 15384 0
-5792 -15365 15385 0
-15366 15385 0
-5792 -15366 15386 0
-15367 15386 0
-5792 -15367 15387 0
-15368 15387 0
-5792 -15368 15388 0
-15369 15388 0
-5792 -15369 15389 0
-15370 15389 0
-5792 -15370 15390 0
-15371 15390 0
-5792 -15371 15391 0
-15372 15391 0
-5792 -15372 15392 0
-15373 15392 0
-5792 -15373 15393 0
-15374 15393 0
-5792 -15374 15394 0
-15375 15394 0
-5792 -15375 15395 0
-15376 15395 0
-5792 -15376 15396 0
-15377 15396 0
-5792 -15377 0
-5793 15397 0
-15378 15397 0
-5793 -15378 15398 0
-15379 15398 0
-5793 -15379 15399 0
-15380 15399 0
-5793 -15380 15400 0
-15381 15400 0
-5793 -15381 15401 0
-15382 15401 0
-5793 -15382 15402 0
-15383 15402 0
-5793 -15383 15403 0
-15384 15403 0
-5793 -15384 15404 0
-15385 15404 0
-5793 -15385 15405 0
-15386 15405 0
-5793 -15386 15406 0
-15387 15406 0
-5793 -15387 15407 0
-15388 15407 0
-5793 -15388 15408 0
-15389 15408 0
-5793 -15389 15409 0
-15390 15409 0
-5793 -15390 15410 0
-15391 15410 0
-5793 -15391 15411 0
-15392 15411 0
-5793 -15392 15412 0
-15393 15412 0
-5793 -15393 15413 0
-15394 15413 0
-5793 -15394 15414 0
-15395 15414 0
-5793 -15395 15415 0
-15396 15415 0
-5793 -15396 0
-5793 15416 0
-15397 15416 0
-5793 -15397 15417 0
-15398 15417 0
-5793 -15398 15418 0
-15399 15418 0
-5793 -15399 15419 0
-15400 15419 0
-5793 -15400 15420 0
-15401 15420 0
-5793 -15401 15421 0
-15402 15421 0
-5793 -15402 15422 0
-15403 15422 0
-5793 -15403 15423 0
-15404 15423 0
-5793 -15404 15424 0
-15405 15424 0
-5793 -15405 15425 0
-15406 15425 0
-5793 -15406 15426 0
-15407 15426 0
-5793 -15407 15427 0
-15408 15427 0
-5793 -15408 15428 0
-15409 15428 0
-5793 -15409 15429 0
-15410 15429 0
-5793 -15410 15430 0
-15411 15430 0
-5793 -15411 15431 0
-15412 15431 0
-5793 -15412 15432 0
-15413 15432 0
-5793 -15413 15433 0
-15414 15433 0
-5793 -15414 15434 0
-15415 15434 0
-5793 -15415 0
-5803 15435 0
-15416 15435 0
-5803 -15416 15436 0
-15417 15436 0
-5803 -15417 15437 0
-15418 15437 0
-5803 -15418 15438 0
-15419 15438 0
-5803 -15419 15439 0
-15420 15439 0
-5803 -15420 15440 0
-15421 15440 0
-5803 -15421 15441 0
-15422 15441 0
-5803 -15422 15442 0
-15423 15442 0
-5803 -15423 15443 0
-15424 15443 0
-5803 -15424 15444 0
-15425 15444 0
-5803 -15425 15445 0
-15426 15445 0
-5803 -15426 15446 0
-15427 15446 0
-5803 -15427 15447 0
-15428 15447 0
-5803 -15428 15448 0
-15429 15448 0
-5803 -15429 15449 0
-15430 15449 0
-5803 -15430 15450 0
-15431 15450 0
-5803 -15431 15451 0
-15432 15451 0
-5803 -15432 15452 0
-15433 15452 0
-5803 -15433 15453 0
-15434 15453 0
-5803 -15434 0
-5803 15454 0
-15435 15454 0
-5803 -15435 15455 0
-15436 15455 0
-5803 -15436 15456 0
-15437 15456 0
-5803 -15437 15457 0
-15438 15457 0
-5803 -15438 15458 0
-15439 15458 0
-5803 -15439 15459 0
-15440 15459 0
-5803 -15440 15460 0
-15441 15460 0
-5803 -15441 15461 0
-15442 15461 0
-5803 -15442 15462 0
-15443 15462 0
-5803 -15443 15463 0
-15444 15463 0
-5803 -15444 15464 0
-15445 15464 0
-5803 -15445 15465 0
-15446 15465 0
-5803 -15446 15466 0
-15447 15466 0
-5803 -15447 15467 0
-15448 15467 0
-5803 -15448 15468 0
-15449 15468 0
-5803 -15449 15469 0
-15450 15469 0
-5803 -15450 15470 0
-15451 15470 0
-5803 -15451 15471 0
-15452 15471 0
-5803 -15452 15472 0
-15453 15472 0
-5803 -15453 0
-5803 15473 0
-15454 15473 0
-5803 -15454 15474 0
-15455 15474 0
-5803 -15455 15475 0
-15456 15475 0
-5803 -15456 15476 0
-15457 15476 0
-5803 -15457 15477 0
-15458 15477 0
-5803 -15458 15478 0
-15459 15478 0
-5803 -15459 15479 0
-15460 15479 0
-5803 -15460 15480 0
-15461 15480 0
-5803 -15461 15481 0
-15462 15481 0
-5803 -15462 15482 0
-15463 15482 0
-5803 -15463 15483 0
-15464 15483 0
-5803 -15464 15484 0
-15465 15484 0
-5803 -15465 15485 0
-15466 15485 0
-5803 -15466 15486 0
-15467 15486 0
-5803 -15467 15487 0
-15468 15487 0
-5803 -15468 15488 0
-15469 15488 0
-5803 -15469 15489 0
-15470 15489 0
-5803 -15470 15490 0
-15471 15490 0
-5803 -15471 15491 0
-15472 15491 0
-5803 -15472 0
-5804 15492 0
-15473 15492 0
-5804 -15473 15493 0
-15474 15493 0
-5804 -15474 15494 0
-15475 15494 0
-5804 -15475 15495 0
-15476 15495 0
-5804 -15476 15496 0
-15477 15496 0
-5804 -15477 15497 0
-15478 15497 0
-5804 -15478 15498 0
-15479 15498 0
-5804 -15479 15499 0
-15480 15499 0
-5804 -15480 15500 0
-15481 15500 0
-5804 -15481 15501 0
-15482 15501 0
-5804 -15482 15502 0
-15483 15502 0
-5804 -15483 15503 0
-15484 15503 0
-5804 -15484 15504 0
-15485 15504 0
-5804 -15485 15505 0
-15486 15505 0
-5804 -15486 15506 0
-15487 15506 0
-5804 -15487 15507 0
-15488 15507 0
-5804 -15488 15508 0
-15489 15508 0
-5804 -15489 15509 0
-15490 15509 0
-5804 -15490 15510 0
-15491 15510 0
-5804 -15491 0
-5804 15511 0
-15492 15511 0
-5804 -15492 15512 0
-15493 15512 0
-5804 -15493 15513 0
-15494 15513 0
-5804 -15494 15514 0
-15495 15514 0
-5804 -15495 15515 0
-15496 15515 0
-5804 -15496 15516 0
-15497 15516 0
-5804 -15497 15517 0
-15498 15517 0
-5804 -15498 15518 0
-15499 15518 0
-5804 -15499 15519 0
-15500 15519 0
-5804 -15500 15520 0
-15501 15520 0
-5804 -15501 15521 0
-15502 15521 0
-5804 -15502 15522 0
-15503 15522 0
-5804 -15503 15523 0
-15504 15523 0
-5804 -15504 15524 0
-15505 15524 0
-5804 -15505 15525 0
-15506 15525 0
-5804 -15506 15526 0
-15507 15526 0
-5804 -15507 15527 0
-15508 15527 0
-5804 -15508 15528 0
-15509 15528 0
-5804 -15509 15529 0
-15510 15529 0
-5804 -15510 0
-5814 15530 0
-15511 15530 0
-5814 -15511 15531 0
-15512 15531 0
-5814 -15512 15532 0
-15513 15532 0
-5814 -15513 15533 0
-15514 15533 0
-5814 -15514 15534 0
-15515 15534 0
-5814 -15515 15535 0
-15516 15535 0
-5814 -15516 15536 0
-15517 15536 0
-5814 -15517 15537 0
-15518 15537 0
-5814 -15518 15538 0
-15519 15538 0
-5814 -15519 15539 0
-15520 15539 0
-5814 -15520 15540 0
-15521 15540 0
-5814 -15521 15541 0
-15522 15541 0
-5814 -15522 15542 0
-15523 15542 0
-5814 -15523 15543 0
-15524 15543 0
-5814 -15524 15544 0
-15525 15544 0
-5814 -15525 15545 0
-15526 15545 0
-5814 -15526 15546 0
-15527 15546 0
-5814 -15527 15547 0
-15528 15547 0
-5814 -15528 15548 0
-15529 15548 0
-5814 -15529 0
-5814 15549 0
-15530 15549 0
-5814 -15530 15550 0
-15531 15550 0
-5814 -15531 15551 0
-15532 15551 0
-5814 -15532 15552 0
-15533 15552 0
-5814 -15533 15553 0
-15534 15553 0
-5814 -15534 15554 0
-15535 15554 0
-5814 -15535 15555 0
-15536 15555 0
-5814 -15536 15556 0
-15537 15556 0
-5814 -15537 15557 0
-15538 15557 0
-5814 -15538 15558 0
-15539 15558 0
-5814 -15539 15559 0
-15540 15559 0
-5814 -15540 15560 0
-15541 15560 0
-5814 -15541 15561 0
-15542 15561 0
-5814 -15542 15562 0
-15543 15562 0
-5814 -15543 15563 0
-15544 15563 0
-5814 -15544 15564 0
-15545 15564 0
-5814 -15545 15565 0
-15546 15565 0
-5814 -15546 15566 0
-15547 15566 0
-5814 -15547 15567 0
-15548 15567 0
-5814 -15548 0
-5814 15568 0
-15549 15568 0
-5814 -15549 15569 0
-15550 15569 0
-5814 -15550 15570 0
-15551 15570 0
-5814 -15551 15571 0
-15552 15571 0
-5814 -15552 15572 0
-15553 15572 0
-5814 -15553 15573 0
-15554 15573 0
-5814 -15554 15574 0
-15555 15574 0
-5814 -15555 15575 0
-15556 15575 0
-5814 -15556 15576 0
-15557 15576 0
-5814 -15557 15577 0
-15558 15577 0
-5814 -15558 15578 0
-15559 15578 0
-5814 -15559 15579 0
-15560 15579 0
-5814 -15560 15580 0
-15561 15580 0
-5814 -15561 15581 0
-15562 15581 0
-5814 -15562 15582 0
-15563 15582 0
-5814 -15563 15583 0
-15564 15583 0
-5814 -15564 15584 0
-15565 15584 0
-5814 -15565 15585 0
-15566 15585 0
-5814 -15566 15586 0
-15567 15586 0
-5814 -15567 0
-5815 15587 0
-15568 15587 0
-5815 -15568 15588 0
-15569 15588 0
-5815 -15569 15589 0
-15570 15589 0
-5815 -15570 15590 0
-15571 15590 0
-5815 -15571 15591 0
-15572 15591 0
-5815 -15572 15592 0
-15573 15592 0
-5815 -15573 15593 0
-15574 15593 0
-5815 -15574 15594 0
-15575 15594 0
-5815 -15575 15595 0
-15576 15595 0
-5815 -15576 15596 0
-15577 15596 0
-5815 -15577 15597 0
-15578 15597 0
-5815 -15578 15598 0
-15579 15598 0
-5815 -15579 15599 0
-15580 15599 0
-5815 -15580 15600 0
-15581 15600 0
-5815 -15581 15601 0
-15582 15601 0
-5815 -15582 15602 0
-15583 15602 0
-5815 -15583 15603 0
-15584 15603 0
-5815 -15584 15604 0
-15585 15604 0
-5815 -15585 15605 0
-15586 15605 0
-5815 -15586 0
-5815 15606 0
-15587 15606 0
-5815 -15587 15607 0
-15588 15607 0
-5815 -15588 15608 0
-15589 15608 0
-5815 -15589 15609 0
-15590 15609 0
-5815 -15590 15610 0
-15591 15610 0
-5815 -15591 15611 0
-15592 15611 0
-5815 -15592 15612 0
-15593 15612 0
-5815 -15593 15613 0
-15594 15613 0
-5815 -15594 15614 0
-15595 15614 0
-5815 -15595 15615 0
-15596 15615 0
-5815 -15596 15616 0
-15597 15616 0
-5815 -15597 15617 0
-15598 15617 0
-5815 -15598 15618 0
-15599 15618 0
-5815 -15599 15619 0
-15600 15619 0
-5815 -15600 15620 0
-15601 15620 0
-5815 -15601 15621 0
-15602 15621 0
-5815 -15602 15622 0
-15603 15622 0
-5815 -15603 15623 0
-15604 15623 0
-5815 -15604 15624 0
-15605 15624 0
-5815 -15605 0
-5825 15625 0
-15606 15625 0
-5825 -15606 15626 0
-15607 15626 0
-5825 -15607 15627 0
-15608 15627 0
-5825 -15608 15628 0
-15609 15628 0
-5825 -15609 15629 0
-15610 15629 0
-5825 -15610 15630 0
-15611 15630 0
-5825 -15611 15631 0
-15612 15631 0
-5825 -15612 15632 0
-15613 15632 0
-5825 -15613 15633 0
-15614 15633 0
-5825 -15614 15634 0
-15615 15634 0
-5825 -15615 15635 0
-15616 15635 0
-5825 -15616 15636 0
-15617 15636 0
-5825 -15617 15637 0
-15618 15637 0
-5825 -15618 15638 0
-15619 15638 0
-5825 -15619 15639 0
-15620 15639 0
-5825 -15620 15640 0
-15621 15640 0
-5825 -15621 15641 0
-15622 15641 0
-5825 -15622 15642 0
-15623 15642 0
-5825 -15623 15643 0
-15624 15643 0
-5825 -15624 0
-5825 15644 0
-15625 15644 0
-5825 -15625 15645 0
-15626 15645 0
-5825 -15626 15646 0
-15627 15646 0
-5825 -15627 15647 0
-15628 15647 0
-5825 -15628 15648 0
-15629 15648 0
-5825 -15629 15649 0
-15630 15649 0
-5825 -15630 15650 0
-15631 15650 0
-5825 -15631 15651 0
-15632 15651 0
-5825 -15632 15652 0
-15633 15652 0
-5825 -15633 15653 0
-15634 15653 0
-5825 -15634 15654 0
-15635 15654 0
-5825 -15635 15655 0
-15636 15655 0
-5825 -15636 15656 0
-15637 15656 0
-5825 -15637 15657 0
-15638 15657 0
-5825 -15638 15658 0
-15639 15658 0
-5825 -15639 15659 0
-15640 15659 0
-5825 -15640 15660 0
-15641 15660 0
-5825 -15641 15661 0
-15642 15661 0
-5825 -15642 15662 0
-15643 15662 0
-5825 -15643 0
-5825 15663 0
-15644 15663 0
-5825 -15644 15664 0
-15645 15664 0
-5825 -15645 15665 0
-15646 15665 0
-5825 -15646 15666 0
-15647 15666 0
-5825 -15647 15667 0
-15648 15667 0
-5825 -15648 15668 0
-15649 15668 0
-5825 -15649 15669 0
-15650 15669 0
-5825 -15650 15670 0
-15651 15670 0
-5825 -15651 15671 0
-15652 15671 0
-5825 -15652 15672 0
-15653 15672 0
-5825 -15653 15673 0
-15654 15673 0
-5825 -15654 15674 0
-15655 15674 0
-5825 -15655 15675 0
-15656 15675 0
-5825 -15656 15676 0
-15657 15676 0
-5825 -15657 15677 0
-15658 15677 0
-5825 -15658 15678 0
-15659 15678 0
-5825 -15659 15679 0
-15660 15679 0
-5825 -15660 15680 0
-15661 15680 0
-5825 -15661 15681 0
-15662 15681 0
-5825 -15662 0
-5826 15682 0
-15663 15682 0
-5826 -15663 15683 0
-15664 15683 0
-5826 -15664 15684 0
-15665 15684 0
-5826 -15665 15685 0
-15666 15685 0
-5826 -15666 15686 0
-15667 15686 0
-5826 -15667 15687 0
-15668 15687 0
-5826 -15668 15688 0
-15669 15688 0
-5826 -15669 15689 0
-15670 15689 0
-5826 -15670 15690 0
-15671 15690 0
-5826 -15671 15691 0
-15672 15691 0
-5826 -15672 15692 0
-15673 15692 0
-5826 -15673 15693 0
-15674 15693 0
-5826 -15674 15694 0
-15675 15694 0
-5826 -15675 15695 0
-15676 15695 0
-5826 -15676 15696 0
-15677 15696 0
-5826 -15677 15697 0
-15678 15697 0
-5826 -15678 15698 0
-15679 15698 0
-5826 -15679 15699 0
-15680 15699 0
-5826 -15680 15700 0
-15681 15700 0
-5826 -15681 0
-5826 15701 0
-15682 15701 0
-5826 -15682 15702 0
-15683 15702 0
-5826 -15683 15703 0
-15684 15703 0
-5826 -15684 15704 0
-15685 15704 0
-5826 -15685 15705 0
-15686 15705 0
-5826 -15686 15706 0
-15687 15706 0
-5826 -15687 15707 0
-15688 15707 0
-5826 -15688 15708 0
-15689 15708 0
-5826 -15689 15709 0
-15690 15709 0
-5826 -15690 15710 0
-15691 15710 0
-5826 -15691 15711 0
-15692 15711 0
-5826 -15692 15712 0
-15693 15712 0
-5826 -15693 15713 0
-15694 15713 0
-5826 -15694 15714 0
-15695 15714 0
-5826 -15695 15715 0
-15696 15715 0
-5826 -15696 15716 0
-15697 15716 0
-5826 -15697 15717 0
-15698 15717 0
-5826 -15698 15718 0
-15699 15718 0
-5826 -15699 15719 0
-15700 15719 0
-5826 -15700 0
-5836 15720 0
-15701 15720 0
-5836 -15701 15721 0
-15702 15721 0
-5836 -15702 15722 0
-15703 15722 0
-5836 -15703 15723 0
-15704 15723 0
-5836 -15704 15724 0
-15705 15724 0
-5836 -15705 15725 0
-15706 15725 0
-5836 -15706 15726 0
-15707 15726 0
-5836 -15707 15727 0
-15708 15727 0
-5836 -15708 15728 0
-15709 15728 0
-5836 -15709 15729 0
-15710 15729 0
-5836 -15710 15730 0
-15711 15730 0
-5836 -15711 15731 0
-15712 15731 0
-5836 -15712 15732 0
-15713 15732 0
-5836 -15713 15733 0
-15714 15733 0
-5836 -15714 15734 0
-15715 15734 0
-5836 -15715 15735 0
-15716 15735 0
-5836 -15716 15736 0
-15717 15736 0
-5836 -15717 15737 0
-15718 15737 0
-5836 -15718 15738 0
-15719 15738 0
-5836 -15719 0
-5836 15739 0
-15720 15739 0
-5836 -15720 15740 0
-15721 15740 0
-5836 -15721 15741 0
-15722 15741 0
-5836 -15722 15742 0
-15723 15742 0
-5836 -15723 15743 0
-15724 15743 0
-5836 -15724 15744 0
-15725 15744 0
-5836 -15725 15745 0
-15726 15745 0
-5836 -15726 15746 0
-15727 15746 0
-5836 -15727 15747 0
-15728 15747 0
-5836 -15728 15748 0
-15729 15748 0
-5836 -15729 15749 0
-15730 15749 0
-5836 -15730 15750 0
-15731 15750 0
-5836 -15731 15751 0
-15732 15751 0
-5836 -15732 15752 0
-15733 15752 0
-5836 -15733 15753 0
-15734 15753 0
-5836 -15734 15754 0
-15735 15754 0
-5836 -15735 15755 0
-15736 15755 0
-5836 -15736 15756 0
-15737 15756 0
-5836 -15737 15757 0
-15738 15757 0
-5836 -15738 0
-5836 15758 0
-15739 15758 0
-5836 -15739 15759 0
-15740 15759 0
-5836 -15740 15760 0
-15741 15760 0
-5836 -15741 15761 0
-15742 15761 0
-5836 -15742 15762 0
-15743 15762 0
-5836 -15743 15763 0
-15744 15763 0
-5836 -15744 15764 0
-15745 15764 0
-5836 -15745 15765 0
-15746 15765 0
-5836 -15746 15766 0
-15747 15766 0
-5836 -15747 15767 0
-15748 15767 0
-5836 -15748 15768 0
-15749 15768 0
-5836 -15749 15769 0
-15750 15769 0
-5836 -15750 15770 0
-15751 15770 0
-5836 -15751 15771 0
-15752 15771 0
-5836 -15752 15772 0
-15753 15772 0
-5836 -15753 15773 0
-15754 15773 0
-5836 -15754 15774 0
-15755 15774 0
-5836 -15755 15775 0
-15756 15775 0
-5836 -15756 15776 0
-15757 15776 0
-5836 -15757 0
-5837 15777 0
-15758 15777 0
-5837 -15758 15778 0
-15759 15778 0
-5837 -15759 15779 0
-15760 15779 0
-5837 -15760 15780 0
-15761 15780 0
-5837 -15761 15781 0
-15762 15781 0
-5837 -15762 15782 0
-15763 15782 0
-5837 -15763 15783 0
-15764 15783 0
-5837 -15764 15784 0
-15765 15784 0
-5837 -15765 15785 0
-15766 15785 0
-5837 -15766 15786 0
-15767 15786 0
-5837 -15767 15787 0
-15768 15787 0
-5837 -15768 15788 0
-15769 15788 0
-5837 -15769 15789 0
-15770 15789 0
-5837 -15770 15790 0
-15771 15790 0
-5837 -15771 15791 0
-15772 15791 0
-5837 -15772 15792 0
-15773 15792 0
-5837 -15773 15793 0
-15774 15793 0
-5837 -15774 15794 0
-15775 15794 0
-5837 -15775 15795 0
-15776 15795 0
-5837 -15776 0
-5837 15796 0
-15777 15796 0
-5837 -15777 15797 0
-15778 15797 0
-5837 -15778 15798 0
-15779 15798 0
-5837 -15779 15799 0
-15780 15799 0
-5837 -15780 15800 0
-15781 15800 0
-5837 -15781 15801 0
-15782 15801 0
-5837 -15782 15802 0
-15783 15802 0
-5837 -15783 15803 0
-15784 15803 0
-5837 -15784 15804 0
-15785 15804 0
-5837 -15785 15805 0
-15786 15805 0
-5837 -15786 15806 0
-15787 15806 0
-5837 -15787 15807 0
-15788 15807 0
-5837 -15788 15808 0
-15789 15808 0
-5837 -15789 15809 0
-15790 15809 0
-5837 -15790 15810 0
-15791 15810 0
-5837 -15791 15811 0
-15792 15811 0
-5837 -15792 15812 0
-15793 15812 0
-5837 -15793 15813 0
-15794 15813 0
-5837 -15794 15814 0
-15795 15814 0
-5837 -15795 0
-5847 15815 0
-15796 15815 0
-5847 -15796 15816 0
-15797 15816 0
-5847 -15797 15817 0
-15798 15817 0
-5847 -15798 15818 0
-15799 15818 0
-5847 -15799 15819 0
-15800 15819 0
-5847 -15800 15820 0
-15801 15820 0
-5847 -15801 15821 0
-15802 15821 0
-5847 -15802 15822 0
-15803 15822 0
-5847 -15803 15823 0
-15804 15823 0
-5847 -15804 15824 0
-15805 15824 0
-5847 -15805 15825 0
-15806 15825 0
-5847 -15806 15826 0
-15807 15826 0
-5847 -15807 15827 0
-15808 15827 0
-5847 -15808 15828 0
-15809 15828 0
-5847 -15809 15829 0
-15810 15829 0
-5847 -15810 15830 0
-15811 15830 0
-5847 -15811 15831 0
-15812 15831 0
-5847 -15812 15832 0
-15813 15832 0
-5847 -15813 15833 0
-15814 15833 0
-5847 -15814 0
-5847 15834 0
-15815 15834 0
-5847 -15815 15835 0
-15816 15835 0
-5847 -15816 15836 0
-15817 15836 0
-5847 -15817 15837 0
-15818 15837 0
-5847 -15818 15838 0
-15819 15838 0
-5847 -15819 15839 0
-15820 15839 0
-5847 -15820 15840 0
-15821 15840 0
-5847 -15821 15841 0
-15822 15841 0
-5847 -15822 15842 0
-15823 15842 0
-5847 -15823 15843 0
-15824 15843 0
-5847 -15824 15844 0
-15825 15844 0
-5847 -15825 15845 0
-15826 15845 0
-5847 -15826 15846 0
-15827 15846 0
-5847 -15827 15847 0
-15828 15847 0
-5847 -15828 15848 0
-15829 15848 0
-5847 -15829 15849 0
-15830 15849 0
-5847 -15830 15850 0
-15831 15850 0
-5847 -15831 15851 0
-15832 15851 0
-5847 -15832 15852 0
-15833 15852 0
-5847 -15833 0
-5847 15853 0
-15834 15853 0
-5847 -15834 15854 0
-15835 15854 0
-5847 -15835 15855 0
-15836 15855 0
-5847 -15836 15856 0
-15837 15856 0
-5847 -15837 15857 0
-15838 15857 0
-5847 -15838 15858 0
-15839 15858 0
-5847 -15839 15859 0
-15840 15859 0
-5847 -15840 15860 0
-15841 15860 0
-5847 -15841 15861 0
-15842 15861 0
-5847 -15842 15862 0
-15843 15862 0
-5847 -15843 15863 0
-15844 15863 0
-5847 -15844 15864 0
-15845 15864 0
-5847 -15845 15865 0
-15846 15865 0
-5847 -15846 15866 0
-15847 15866 0
-5847 -15847 15867 0
-15848 15867 0
-5847 -15848 15868 0
-15849 15868 0
-5847 -15849 15869 0
-15850 15869 0
-5847 -15850 15870 0
-15851 15870 0
-5847 -15851 15871 0
-15852 15871 0
-5847 -15852 0
-5848 15872 0
-15853 15872 0
-5848 -15853 15873 0
-15854 15873 0
-5848 -15854 15874 0
-15855 15874 0
-5848 -15855 15875 0
-15856 15875 0
-5848 -15856 15876 0
-15857 15876 0
-5848 -15857 15877 0
-15858 15877 0
-5848 -15858 15878 0
-15859 15878 0
-5848 -15859 15879 0
-15860 15879 0
-5848 -15860 15880 0
-15861 15880 0
-5848 -15861 15881 0
-15862 15881 0
-5848 -15862 15882 0
-15863 15882 0
-5848 -15863 15883 0
-15864 15883 0
-5848 -15864 15884 0
-15865 15884 0
-5848 -15865 15885 0
-15866 15885 0
-5848 -15866 15886 0
-15867 15886 0
-5848 -15867 15887 0
-15868 15887 0
-5848 -15868 15888 0
-15869 15888 0
-5848 -15869 15889 0
-15870 15889 0
-5848 -15870 15890 0
-15871 15890 0
-5848 -15871 0
-5848 15891 0
-15872 15891 0
-5848 -15872 15892 0
-15873 15892 0
-5848 -15873 15893 0
-15874 15893 0
-5848 -15874 15894 0
-15875 15894 0
-5848 -15875 15895 0
-15876 15895 0
-5848 -15876 15896 0
-15877 15896 0
-5848 -15877 15897 0
-15878 15897 0
-5848 -15878 15898 0
-15879 15898 0
-5848 -15879 15899 0
-15880 15899 0
-5848 -15880 15900 0
-15881 15900 0
-5848 -15881 15901 0
-15882 15901 0
-5848 -15882 15902 0
-15883 15902 0
-5848 -15883 15903 0
-15884 15903 0
-5848 -15884 15904 0
-15885 15904 0
-5848 -15885 15905 0
-15886 15905 0
-5848 -15886 15906 0
-15887 15906 0
-5848 -15887 15907 0
-15888 15907 0
-5848 -15888 15908 0
-15889 15908 0
-5848 -15889 15909 0
-15890 15909 0
-5848 -15890 0
-5858 15910 0
-15891 15910 0
-5858 -15891 15911 0
-15892 15911 0
-5858 -15892 15912 0
-15893 15912 0
-5858 -15893 15913 0
-15894 15913 0
-5858 -15894 15914 0
-15895 15914 0
-5858 -15895 15915 0
-15896 15915 0
-5858 -15896 15916 0
-15897 15916 0
-5858 -15897 15917 0
-15898 15917 0
-5858 -15898 15918 0
-15899 15918 0
-5858 -15899 15919 0
-15900 15919 0
-5858 -15900 15920 0
-15901 15920 0
-5858 -15901 15921 0
-15902 15921 0
-5858 -15902 15922 0
-15903 15922 0
-5858 -15903 15923 0
-15904 15923 0
-5858 -15904 15924 0
-15905 15924 0
-5858 -15905 15925 0
-15906 15925 0
-5858 -15906 15926 0
-15907 15926 0
-5858 -15907 15927 0
-15908 15927 0
-5858 -15908 15928 0
-15909 15928 0
-5858 -15909 0
-5858 15929 0
-15910 15929 0
-5858 -15910 15930 0
-15911 15930 0
-5858 -15911 15931 0
-15912 15931 0
-5858 -15912 15932 0
-15913 15932 0
-5858 -15913 15933 0
-15914 15933 0
-5858 -15914 15934 0
-15915 15934 0
-5858 -15915 15935 0
-15916 15935 0
-5858 -15916 15936 0
-15917 15936 0
-5858 -15917 15937 0
-15918 15937 0
-5858 -15918 15938 0
-15919 15938 0
-5858 -15919 15939 0
-15920 15939 0
-5858 -15920 15940 0
-15921 15940 0
-5858 -15921 15941 0
-15922 15941 0
-5858 -15922 15942 0
-15923 15942 0
-5858 -15923 15943 0
-15924 15943 0
-5858 -15924 15944 0
-15925 15944 0
-5858 -15925 15945 0
-15926 15945 0
-5858 -15926 15946 0
-15927 15946 0
-5858 -15927 15947 0
-15928 15947 0
-5858 -15928 0
-5858 15948 0
-15929 15948 0
-5858 -15929 15949 0
-15930 15949 0
-5858 -15930 15950 0
-15931 15950 0
-5858 -15931 15951 0
-15932 15951 0
-5858 -15932 15952 0
-15933 15952 0
-5858 -15933 15953 0
-15934 15953 0
-5858 -15934 15954 0
-15935 15954 0
-5858 -15935 15955 0
-15936 15955 0
-5858 -15936 15956 0
-15937 15956 0
-5858 -15937 15957 0
-15938 15957 0
-5858 -15938 15958 0
-15939 15958 0
-5858 -15939 15959 0
-15940 15959 0
-5858 -15940 15960 0
-15941 15960 0
-5858 -15941 15961 0
-15942 15961 0
-5858 -15942 15962 0
-15943 15962 0
-5858 -15943 15963 0
-15944 15963 0
-5858 -15944 15964 0
-15945 15964 0
-5858 -15945 15965 0
-15946 15965 0
-5858 -15946 15966 0
-15947 15966 0
-5858 -15947 0
-5859 15967 0
-15948 15967 0
-5859 -15948 15968 0
-15949 15968 0
-5859 -15949 15969 0
-15950 15969 0
-5859 -15950 15970 0
-15951 15970 0
-5859 -15951 15971 0
-15952 15971 0
-5859 -15952 15972 0
-15953 15972 0
-5859 -15953 15973 0
-15954 15973 0
-5859 -15954 15974 0
-15955 15974 0
-5859 -15955 15975 0
-15956 15975 0
-5859 -15956 15976 0
-15957 15976 0
-5859 -15957 15977 0
-15958 15977 0
-5859 -15958 15978 0
-15959 15978 0
-5859 -15959 15979 0
-15960 15979 0
-5859 -15960 15980 0
-15961 15980 0
-5859 -15961 15981 0
-15962 15981 0
-5859 -15962 15982 0
-15963 15982 0
-5859 -15963 15983 0
-15964 15983 0
-5859 -15964 15984 0
-15965 15984 0
-5859 -15965 15985 0
-15966 15985 0
-5859 -15966 0
-5859 -15985 0
