p cnf 18884 44357
-385 257 0
385 -257 0
-386 258 0
386 -258 0
-387 259 0
387 -259 0
-388 260 0
388 -260 0
-389 261 0
389 -261 0
-390 262 0
390 -262 0
-391 263 0
391 -263 0
-392 264 0
392 -264 0
-393 265 0
393 -265 0
-394 266 0
394 -266 0
-395 267 0
395 -267 0
-396 268 0
396 -268 0
-397 269 0
397 -269 0
-398 270 0
398 -270 0
-399 271 0
399 -271 0
-400 272 0
400 -272 0
-401 273 0
401 -273 0
-402 274 0
402 -274 0
-403 275 0
403 -275 0
-404 276 0
404 -276 0
-405 277 0
405 -277 0
-406 278 0
406 -278 0
-407 279 0
407 -279 0
-408 280 0
408 -280 0
-409 281 0
409 -281 0
-410 282 0
410 -282 0
-411 283 0
411 -283 0
-412 284 0
412 -284 0
-413 285 0
413 -285 0
-414 286 0
414 -286 0
-415 287 0
415 -287 0
-416 288 0
416 -288 0
-417 289 0
417 -289 0
-418 290 0
418 -290 0
-419 291 0
419 -291 0
-420 292 0
420 -292 0
-421 293 0
421 -293 0
-422 294 0
422 -294 0
-423 295 0
423 -295 0
-424 296 0
424 -296 0
-425 297 0
425 -297 0
-426 298 0
426 -298 0
-427 299 0
427 -299 0
-428 300 0
428 -300 0
-429 301 0
429 -301 0
-430 302 0
430 -302 0
-431 303 0
431 -303 0
-432 304 0
432 -304 0
-433 305 0
433 -305 0
-434 306 0
434 -306 0
-435 307 0
435 -307 0
-436 308 0
436 -308 0
-437 309 0
437 -309 0
-438 310 0
438 -310 0
-439 311 0
439 -311 0
-440 312 0
440 -312 0
-441 313 0
441 -313 0
-442 314 0
442 -314 0
-443 315 0
443 -315 0
-444 316 0
444 -316 0
-445 317 0
445 -317 0
-446 318 0
446 -318 0
-447 319 0
447 -319 0
-448 320 0
448 -320 0
-449 321 0
449 -321 0
-450 322 0
450 -322 0
-451 323 0
451 -323 0
-452 324 0
452 -324 0
-453 325 0
453 -325 0
-454 326 0
454 -326 0
-455 327 0
455 -327 0
-456 328 0
456 -328 0
-457 329 0
457 -329 0
-458 330 0
458 -330 0
-459 331 0
459 -331 0
-460 332 0
460 -332 0
-461 333 0
461 -333 0
-462 334 0
462 -334 0
-463 335 0
463 -335 0
-464 336 0
464 -336 0
-465 337 0
465 -337 0
-466 338 0
466 -338 0
-467 339 0
467 -339 0
-468 340 0
468 -340 0
-469 341 0
469 -341 0
-470 342 0
470 -342 0
-471 343 0
471 -343 0
-472 344 0
472 -344 0
-473 345 0
473 -345 0
-474 346 0
474 -346 0
-475 347 0
475 -347 0
-476 348 0
476 -348 0
-477 349 0
477 -349 0
-478 350 0
478 -350 0
-479 351 0
479 -351 0
-480 352 0
480 -352 0
-481 353 0
481 -353 0
-482 354 0
482 -354 0
-483 355 0
483 -355 0
-484 356 0
484 -356 0
-485 357 0
485 -357 0
-486 358 0
486 -358 0
-487 359 0
487 -359 0
-488 360 0
488 -360 0
-489 361 0
489 -361 0
-490 362 0
490 -362 0
-491 363 0
491 -363 0
-492 364 0
492 -364 0
-493 365 0
493 -365 0
-494 366 0
494 -366 0
-495 367 0
495 -367 0
-496 368 0
496 -368 0
-497 369 0
497 -369 0
-498 370 0
498 -370 0
-499 371 0
499 -371 0
-500 372 0
500 -372 0
-501 373 0
501 -373 0
-502 374 0
502 -374 0
-503 375 0
503 -375 0
-504 376 0
504 -376 0
-505 377 0
505 -377 0
-506 378 0
506 -378 0
-507 379 0
507 -379 0
-508 380 0
508 -380 0
-509 381 0
509 -381 0
-510 382 0
510 -382 0
-511 383 0
511 -383 0
-512 384 0
512 -384 0
641 -513 0
-641 513 0
645 -514 0
-645 514 0
649 -515 0
-649 515 0
653 -516 0
-653 516 0
657 -517 0
-657 517 0
661 -518 0
-661 518 0
665 -519 0
-665 519 0
669 -520 0
-669 520 0
673 -521 0
-673 521 0
677 -522 0
-677 522 0
681 -523 0
-681 523 0
685 -524 0
-685 524 0
689 -525 0
-689 525 0
693 -526 0
-693 526 0
697 -527 0
-697 527 0
701 -528 0
-701 528 0
705 -529 0
-705 529 0
709 -530 0
-709 530 0
713 -531 0
-713 531 0
717 -532 0
-717 532 0
721 -533 0
-721 533 0
725 -534 0
-725 534 0
729 -535 0
-729 535 0
733 -536 0
-733 536 0
737 -537 0
-737 537 0
741 -538 0
-741 538 0
745 -539 0
-745 539 0
749 -540 0
-749 540 0
753 -541 0
-753 541 0
757 -542 0
-757 542 0
761 -543 0
-761 543 0
765 -544 0
-765 544 0
642 -545 0
-642 545 0
646 -546 0
-646 546 0
650 -547 0
-650 547 0
654 -548 0
-654 548 0
658 -549 0
-658 549 0
662 -550 0
-662 550 0
666 -551 0
-666 551 0
670 -552 0
-670 552 0
674 -553 0
-674 553 0
678 -554 0
-678 554 0
682 -555 0
-682 555 0
686 -556 0
-686 556 0
690 -557 0
-690 557 0
694 -558 0
-694 558 0
698 -559 0
-698 559 0
702 -560 0
-702 560 0
706 -561 0
-706 561 0
710 -562 0
-710 562 0
714 -563 0
-714 563 0
718 -564 0
-718 564 0
722 -565 0
-722 565 0
726 -566 0
-726 566 0
730 -567 0
-730 567 0
734 -568 0
-734 568 0
738 -569 0
-738 569 0
742 -570 0
-742 570 0
746 -571 0
-746 571 0
750 -572 0
-750 572 0
754 -573 0
-754 573 0
758 -574 0
-758 574 0
762 -575 0
-762 575 0
766 -576 0
-766 576 0
643 -577 0
-643 577 0
647 -578 0
-647 578 0
651 -579 0
-651 579 0
655 -580 0
-655 580 0
659 -581 0
-659 581 0
663 -582 0
-663 582 0
667 -583 0
-667 583 0
671 -584 0
-671 584 0
675 -585 0
-675 585 0
679 -586 0
-679 586 0
683 -587 0
-683 587 0
687 -588 0
-687 588 0
691 -589 0
-691 589 0
695 -590 0
-695 590 0
699 -591 0
-699 591 0
703 -592 0
-703 592 0
707 -593 0
-707 593 0
711 -594 0
-711 594 0
715 -595 0
-715 595 0
719 -596 0
-719 596 0
723 -597 0
-723 597 0
727 -598 0
-727 598 0
731 -599 0
-731 599 0
735 -600 0
-735 600 0
739 -601 0
-739 601 0
743 -602 0
-743 602 0
747 -603 0
-747 603 0
751 -604 0
-751 604 0
755 -605 0
-755 605 0
759 -606 0
-759 606 0
763 -607 0
-763 607 0
767 -608 0
-767 608 0
644 -609 0
-644 609 0
648 -610 0
-648 610 0
652 -611 0
-652 611 0
656 -612 0
-656 612 0
660 -613 0
-660 613 0
664 -614 0
-664 614 0
668 -615 0
-668 615 0
672 -616 0
-672 616 0
676 -617 0
-676 617 0
680 -618 0
-680 618 0
684 -619 0
-684 619 0
688 -620 0
-688 620 0
692 -621 0
-692 621 0
696 -622 0
-696 622 0
700 -623 0
-700 623 0
704 -624 0
-704 624 0
708 -625 0
-708 625 0
712 -626 0
-712 626 0
716 -627 0
-716 627 0
720 -628 0
-720 628 0
724 -629 0
-724 629 0
728 -630 0
-728 630 0
732 -631 0
-732 631 0
736 -632 0
-736 632 0
740 -633 0
-740 633 0
744 -634 0
-744 634 0
748 -635 0
-748 635 0
752 -636 0
-752 636 0
756 -637 0
-756 637 0
760 -638 0
-760 638 0
764 -639 0
-764 639 0
768 -640 0
-768 640 0
897 -769 0
-897 769 0
898 -770 0
-898 770 0
899 -771 0
-899 771 0
900 -772 0
-900 772 0
901 -773 0
-901 773 0
902 -774 0
-902 774 0
903 -775 0
-903 775 0
904 -776 0
-904 776 0
905 -777 0
-905 777 0
906 -778 0
-906 778 0
907 -779 0
-907 779 0
908 -780 0
-908 780 0
909 -781 0
-909 781 0
910 -782 0
-910 782 0
911 -783 0
-911 783 0
912 -784 0
-912 784 0
913 -785 0
-913 785 0
914 -786 0
-914 786 0
915 -787 0
-915 787 0
916 -788 0
-916 788 0
917 -789 0
-917 789 0
918 -790 0
-918 790 0
919 -791 0
-919 791 0
920 -792 0
-920 792 0
921 -793 0
-921 793 0
922 -794 0
-922 794 0
923 -795 0
-923 795 0
924 -796 0
-924 796 0
925 -797 0
-925 797 0
926 -798 0
-926 798 0
927 -799 0
-927 799 0
928 -800 0
-928 800 0
929 -801 0
-929 801 0
930 -802 0
-930 802 0
931 -803 0
-931 803 0
932 -804 0
-932 804 0
933 -805 0
-933 805 0
934 -806 0
-934 806 0
935 -807 0
-935 807 0
936 -808 0
-936 808 0
937 -809 0
-937 809 0
938 -810 0
-938 810 0
939 -811 0
-939 811 0
940 -812 0
-940 812 0
941 -813 0
-941 813 0
942 -814 0
-942 814 0
943 -815 0
-943 815 0
944 -816 0
-944 816 0
945 -817 0
-945 817 0
946 -818 0
-946 818 0
947 -819 0
-947 819 0
948 -820 0
-948 820 0
949 -821 0
-949 821 0
950 -822 0
-950 822 0
951 -823 0
-951 823 0
952 -824 0
-952 824 0
953 -825 0
-953 825 0
954 -826 0
-954 826 0
955 -827 0
-955 827 0
956 -828 0
-956 828 0
957 -829 0
-957 829 0
958 -830 0
-958 830 0
959 -831 0
-959 831 0
960 -832 0
-960 832 0
961 -833 0
-961 833 0
962 -834 0
-962 834 0
963 -835 0
-963 835 0
964 -836 0
-964 836 0
965 -837 0
-965 837 0
966 -838 0
-966 838 0
967 -839 0
-967 839 0
968 -840 0
-968 840 0
969 -841 0
-969 841 0
970 -842 0
-970 842 0
971 -843 0
-971 843 0
972 -844 0
-972 844 0
973 -845 0
-973 845 0
974 -846 0
-974 846 0
975 -847 0
-975 847 0
976 -848 0
-976 848 0
977 -849 0
-977 849 0
978 -850 0
-978 850 0
979 -851 0
-979 851 0
980 -852 0
-980 852 0
981 -853 0
-981 853 0
982 -854 0
-982 854 0
983 -855 0
-983 855 0
984 -856 0
-984 856 0
985 -857 0
-985 857 0
986 -858 0
-986 858 0
987 -859 0
-987 859 0
988 -860 0
-988 860 0
989 -861 0
-989 861 0
990 -862 0
-990 862 0
991 -863 0
-991 863 0
992 -864 0
-992 864 0
993 -865 0
-993 865 0
994 -866 0
-994 866 0
995 -867 0
-995 867 0
996 -868 0
-996 868 0
997 -869 0
-997 869 0
998 -870 0
-998 870 0
999 -871 0
-999 871 0
1000 -872 0
-1000 872 0
1001 -873 0
-1001 873 0
1002 -874 0
-1002 874 0
1003 -875 0
-1003 875 0
1004 -876 0
-1004 876 0
1005 -877 0
-1005 877 0
1006 -878 0
-1006 878 0
1007 -879 0
-1007 879 0
1008 -880 0
-1008 880 0
1009 -881 0
-1009 881 0
1010 -882 0
-1010 882 0
1011 -883 0
-1011 883 0
1012 -884 0
-1012 884 0
1013 -885 0
-1013 885 0
1014 -886 0
-1014 886 0
1015 -887 0
-1015 887 0
1016 -888 0
-1016 888 0
1017 -889 0
-1017 889 0
1018 -890 0
-1018 890 0
1019 -891 0
-1019 891 0
1020 -892 0
-1020 892 0
1021 -893 0
-1021 893 0
1022 -894 0
-1022 894 0
1023 -895 0
-1023 895 0
1024 -896 0
-1024 896 0
-1409 1281 0
1409 -1281 0
-1410 1282 0
1410 -1282 0
-1411 1283 0
1411 -1283 0
-1412 1284 0
1412 -1284 0
-1413 1285 0
1413 -1285 0
-1414 1286 0
1414 -1286 0
-1415 1287 0
1415 -1287 0
-1416 1288 0
1416 -1288 0
-1417 1289 0
1417 -1289 0
-1418 1290 0
1418 -1290 0
-1419 1291 0
1419 -1291 0
-1420 1292 0
1420 -1292 0
-1421 1293 0
1421 -1293 0
-1422 1294 0
1422 -1294 0
-1423 1295 0
1423 -1295 0
-1424 1296 0
1424 -1296 0
-1425 1297 0
1425 -1297 0
-1426 1298 0
1426 -1298 0
-1427 1299 0
1427 -1299 0
-1428 1300 0
1428 -1300 0
-1429 1301 0
1429 -1301 0
-1430 1302 0
1430 -1302 0
-1431 1303 0
1431 -1303 0
-1432 1304 0
1432 -1304 0
-1433 1305 0
1433 -1305 0
-1434 1306 0
1434 -1306 0
-1435 1307 0
1435 -1307 0
-1436 1308 0
1436 -1308 0
-1437 1309 0
1437 -1309 0
-1438 1310 0
1438 -1310 0
-1439 1311 0
1439 -1311 0
-1440 1312 0
1440 -1312 0
-1441 1313 0
1441 -1313 0
-1442 1314 0
1442 -1314 0
-1443 1315 0
1443 -1315 0
-1444 1316 0
1444 -1316 0
-1445 1317 0
1445 -1317 0
-1446 1318 0
1446 -1318 0
-1447 1319 0
1447 -1319 0
-1448 1320 0
1448 -1320 0
-1449 1321 0
1449 -1321 0
-1450 1322 0
1450 -1322 0
-1451 1323 0
1451 -1323 0
-1452 1324 0
1452 -1324 0
-1453 1325 0
1453 -1325 0
-1454 1326 0
1454 -1326 0
-1455 1327 0
1455 -1327 0
-1456 1328 0
1456 -1328 0
-1457 1329 0
1457 -1329 0
-1458 1330 0
1458 -1330 0
-1459 1331 0
1459 -1331 0
-1460 1332 0
1460 -1332 0
-1461 1333 0
1461 -1333 0
-1462 1334 0
1462 -1334 0
-1463 1335 0
1463 -1335 0
-1464 1336 0
1464 -1336 0
-1465 1337 0
1465 -1337 0
-1466 1338 0
1466 -1338 0
-1467 1339 0
1467 -1339 0
-1468 1340 0
1468 -1340 0
-1469 1341 0
1469 -1341 0
-1470 1342 0
1470 -1342 0
-1471 1343 0
1471 -1343 0
-1472 1344 0
1472 -1344 0
-1473 1345 0
1473 -1345 0
-1474 1346 0
1474 -1346 0
-1475 1347 0
1475 -1347 0
-1476 1348 0
1476 -1348 0
-1477 1349 0
1477 -1349 0
-1478 1350 0
1478 -1350 0
-1479 1351 0
1479 -1351 0
-1480 1352 0
1480 -1352 0
-1481 1353 0
1481 -1353 0
-1482 1354 0
1482 -1354 0
-1483 1355 0
1483 -1355 0
-1484 1356 0
1484 -1356 0
-1485 1357 0
1485 -1357 0
-1486 1358 0
1486 -1358 0
-1487 1359 0
1487 -1359 0
-1488 1360 0
1488 -1360 0
-1489 1361 0
1489 -1361 0
-1490 1362 0
1490 -1362 0
-1491 1363 0
1491 -1363 0
-1492 1364 0
1492 -1364 0
-1493 1365 0
1493 -1365 0
-1494 1366 0
1494 -1366 0
-1495 1367 0
1495 -1367 0
-1496 1368 0
1496 -1368 0
-1497 1369 0
1497 -1369 0
-1498 1370 0
1498 -1370 0
-1499 1371 0
1499 -1371 0
-1500 1372 0
1500 -1372 0
-1501 1373 0
1501 -1373 0
-1502 1374 0
1502 -1374 0
-1503 1375 0
1503 -1375 0
-1504 1376 0
1504 -1376 0
-1505 1377 0
1505 -1377 0
-1506 1378 0
1506 -1378 0
-1507 1379 0
1507 -1379 0
-1508 1380 0
1508 -1380 0
-1509 1381 0
1509 -1381 0
-1510 1382 0
1510 -1382 0
-1511 1383 0
1511 -1383 0
-1512 1384 0
1512 -1384 0
-1513 1385 0
1513 -1385 0
-1514 1386 0
1514 -1386 0
-1515 1387 0
1515 -1387 0
-1516 1388 0
1516 -1388 0
-1517 1389 0
1517 -1389 0
-1518 1390 0
1518 -1390 0
-1519 1391 0
1519 -1391 0
-1520 1392 0
1520 -1392 0
-1521 1393 0
1521 -1393 0
-1522 1394 0
1522 -1394 0
-1523 1395 0
1523 -1395 0
-1524 1396 0
1524 -1396 0
-1525 1397 0
1525 -1397 0
-1526 1398 0
1526 -1398 0
-1527 1399 0
1527 -1399 0
-1528 1400 0
1528 -1400 0
-1529 1401 0
1529 -1401 0
-1530 1402 0
1530 -1402 0
-1531 1403 0
1531 -1403 0
-1532 1404 0
1532 -1404 0
-1533 1405 0
1533 -1405 0
-1534 1406 0
1534 -1406 0
-1535 1407 0
1535 -1407 0
-1536 1408 0
1536 -1408 0
1537 1539 1541 1542 1543 -1545 0
1537 -1539 -1540 -1542 -1543 1544 0
1538 -1539 1540 1541 -1542 1544 0
1537 1538 -1540 -1541 -1543 1544 1546 0
1538 -1539 1540 1541 -1542 1543 0
1538 1539 1540 -1541 1543 -1544 1546 0
1537 1540 -1543 -1544 1546 0
1537 1540 1543 1544 1546 1547 0
1537 -1538 1540 1543 1544 0
-1537 -1538 1540 1541 -1542 -1544 0
1539 1540 -1541 -1543 1544 1546 0
1537 1538 -1540 -1542 1543 -1546 0
-1539 1540 1543 -1544 -1546 0
-1538 -1540 -1543 1544 -1546 0
1537 -1538 -1540 1541 -1542 -1543 0
1537 1538 1539 1540 1547 0
1537 -1539 -1543 1544 -1546 0
-1537 1538 1540 -1541 -1543 1544 1546 0
1537 1538 -1540 -1541 1543 -1544 1546 0
-1537 -1538 1540 1541 1542 1544 0
-1537 -1539 1541 -1544 -1546 0
-1537 -1540 1541 1543 -1546 0
1537 -1540 -1542 -1544 -1546 0
1537 -1538 -1539 -1541 -1546 0
-1537 1538 -1539 1540 -1542 -1546 0
1537 1538 -1539 -1540 -1542 1543 -1544 0
-1537 -1540 -1543 -1544 1546 0
-1538 1541 -1543 -1544 1546 0
1537 -1538 1540 -1541 1546 0
-1537 -1540 1543 1544 1546 0
1537 -1538 -1540 1541 1542 -1544 0
-1537 -1538 1539 -1540 1546 0
-1538 1539 -1540 -1541 1543 -1544 0
-1537 1538 1539 -1540 -1543 -1544 0
-1541 1542 -1543 -1544 -1546 0
-1537 -1538 1540 -1541 -1546 0
-1537 1538 1539 1544 -1546 0
1539 1540 -1543 -1544 -1546 0
-1537 1539 1540 1541 1542 1544 0
-1541 -1542 -1543 -1544 1546 0
1537 1542 1543 1544 -1546 0
1538 1541 -1544 1545 0
-1538 -1547 0
1537 1538 1539 1542 1544 1547 0
1538 1539 1540 1542 1543 1547 0
-1538 -1541 -1542 1543 1544 0
-1539 -1540 -1541 -1543 1544 0
-1537 -1539 -1541 1543 -1544 0
1537 1539 1540 -1545 0
1541 1543 1544 -1545 0
1538 -1539 1542 1543 1544 0
1538 1539 -1540 1543 1545 0
-1541 -1547 0
1537 1538 1540 1541 1547 0
1541 -1543 1544 1545 0
1541 1543 -1544 1545 0
-1542 -1547 0
-1545 -1547 0
-1545 -1546 0
1545 1546 1547 0
1548 1550 1552 1553 1554 -1556 0
1548 -1550 -1551 -1553 -1554 1555 0
1549 -1550 1551 1552 -1553 1555 0
1548 1549 -1551 -1552 -1554 1555 1557 0
1549 -1550 1551 1552 -1553 1554 0
1549 1550 1551 -1552 1554 -1555 1557 0
1548 1551 -1554 -1555 1557 0
1548 1551 1554 1555 1557 1558 0
1548 -1549 1551 1554 1555 0
-1548 -1549 1551 1552 -1553 -1555 0
1550 1551 -1552 -1554 1555 1557 0
1548 1549 -1551 -1553 1554 -1557 0
-1550 1551 1554 -1555 -1557 0
-1549 -1551 -1554 1555 -1557 0
1548 -1549 -1551 1552 -1553 -1554 0
1548 1549 1550 1551 1558 0
1548 -1550 -1554 1555 -1557 0
-1548 1549 1551 -1552 -1554 1555 1557 0
1548 1549 -1551 -1552 1554 -1555 1557 0
-1548 -1549 1551 1552 1553 1555 0
-1548 -1550 1552 -1555 -1557 0
-1548 -1551 1552 1554 -1557 0
1548 -1551 -1553 -1555 -1557 0
1548 -1549 -1550 -1552 -1557 0
-1548 1549 -1550 1551 -1553 -1557 0
1548 1549 -1550 -1551 -1553 1554 -1555 0
-1548 -1551 -1554 -1555 1557 0
-1549 1552 -1554 -1555 1557 0
1548 -1549 1551 -1552 1557 0
-1548 -1551 1554 1555 1557 0
1548 -1549 -1551 1552 1553 -1555 0
-1548 -1549 1550 -1551 1557 0
-1549 1550 -1551 -1552 1554 -1555 0
-1548 1549 1550 -1551 -1554 -1555 0
-1552 1553 -1554 -1555 -1557 0
-1548 -1549 1551 -1552 -1557 0
-1548 1549 1550 1555 -1557 0
1550 1551 -1554 -1555 -1557 0
-1548 1550 1551 1552 1553 1555 0
-1552 -1553 -1554 -1555 1557 0
1548 1553 1554 1555 -1557 0
1549 1552 -1555 1556 0
-1549 -1558 0
1548 1549 1550 1553 1555 1558 0
1549 1550 1551 1553 1554 1558 0
-1549 -1552 -1553 1554 1555 0
-1550 -1551 -1552 -1554 1555 0
-1548 -1550 -1552 1554 -1555 0
1548 1550 1551 -1556 0
1552 1554 1555 -1556 0
1549 -1550 1553 1554 1555 0
1549 1550 -1551 1554 1556 0
-1552 -1558 0
1548 1549 1551 1552 1558 0
1552 -1554 1555 1556 0
1552 1554 -1555 1556 0
-1553 -1558 0
-1556 -1558 0
-1556 -1557 0
1556 1557 1558 0
1559 1561 1563 1564 1565 -1567 0
1559 -1561 -1562 -1564 -1565 1566 0
1560 -1561 1562 1563 -1564 1566 0
1559 1560 -1562 -1563 -1565 1566 1568 0
1560 -1561 1562 1563 -1564 1565 0
1560 1561 1562 -1563 1565 -1566 1568 0
1559 1562 -1565 -1566 1568 0
1559 1562 1565 1566 1568 1569 0
1559 -1560 1562 1565 1566 0
-1559 -1560 1562 1563 -1564 -1566 0
1561 1562 -1563 -1565 1566 1568 0
1559 1560 -1562 -1564 1565 -1568 0
-1561 1562 1565 -1566 -1568 0
-1560 -1562 -1565 1566 -1568 0
1559 -1560 -1562 1563 -1564 -1565 0
1559 1560 1561 1562 1569 0
1559 -1561 -1565 1566 -1568 0
-1559 1560 1562 -1563 -1565 1566 1568 0
1559 1560 -1562 -1563 1565 -1566 1568 0
-1559 -1560 1562 1563 1564 1566 0
-1559 -1561 1563 -1566 -1568 0
-1559 -1562 1563 1565 -1568 0
1559 -1562 -1564 -1566 -1568 0
1559 -1560 -1561 -1563 -1568 0
-1559 1560 -1561 1562 -1564 -1568 0
1559 1560 -1561 -1562 -1564 1565 -1566 0
-1559 -1562 -1565 -1566 1568 0
-1560 1563 -1565 -1566 1568 0
1559 -1560 1562 -1563 1568 0
-1559 -1562 1565 1566 1568 0
1559 -1560 -1562 1563 1564 -1566 0
-1559 -1560 1561 -1562 1568 0
-1560 1561 -1562 -1563 1565 -1566 0
-1559 1560 1561 -1562 -1565 -1566 0
-1563 1564 -1565 -1566 -1568 0
-1559 -1560 1562 -1563 -1568 0
-1559 1560 1561 1566 -1568 0
1561 1562 -1565 -1566 -1568 0
-1559 1561 1562 1563 1564 1566 0
-1563 -1564 -1565 -1566 1568 0
1559 1564 1565 1566 -1568 0
1560 1563 -1566 1567 0
-1560 -1569 0
1559 1560 1561 1564 1566 1569 0
1560 1561 1562 1564 1565 1569 0
-1560 -1563 -1564 1565 1566 0
-1561 -1562 -1563 -1565 1566 0
-1559 -1561 -1563 1565 -1566 0
1559 1561 1562 -1567 0
1563 1565 1566 -1567 0
1560 -1561 1564 1565 1566 0
1560 1561 -1562 1565 1567 0
-1563 -1569 0
1559 1560 1562 1563 1569 0
1563 -1565 1566 1567 0
1563 1565 -1566 1567 0
-1564 -1569 0
-1567 -1569 0
-1567 -1568 0
1567 1568 1569 0
1570 1572 1574 1575 1576 -1578 0
1570 -1572 -1573 -1575 -1576 1577 0
1571 -1572 1573 1574 -1575 1577 0
1570 1571 -1573 -1574 -1576 1577 1579 0
1571 -1572 1573 1574 -1575 1576 0
1571 1572 1573 -1574 1576 -1577 1579 0
1570 1573 -1576 -1577 1579 0
1570 1573 1576 1577 1579 1580 0
1570 -1571 1573 1576 1577 0
-1570 -1571 1573 1574 -1575 -1577 0
1572 1573 -1574 -1576 1577 1579 0
1570 1571 -1573 -1575 1576 -1579 0
-1572 1573 1576 -1577 -1579 0
-1571 -1573 -1576 1577 -1579 0
1570 -1571 -1573 1574 -1575 -1576 0
1570 1571 1572 1573 1580 0
1570 -1572 -1576 1577 -1579 0
-1570 1571 1573 -1574 -1576 1577 1579 0
1570 1571 -1573 -1574 1576 -1577 1579 0
-1570 -1571 1573 1574 1575 1577 0
-1570 -1572 1574 -1577 -1579 0
-1570 -1573 1574 1576 -1579 0
1570 -1573 -1575 -1577 -1579 0
1570 -1571 -1572 -1574 -1579 0
-1570 1571 -1572 1573 -1575 -1579 0
1570 1571 -1572 -1573 -1575 1576 -1577 0
-1570 -1573 -1576 -1577 1579 0
-1571 1574 -1576 -1577 1579 0
1570 -1571 1573 -1574 1579 0
-1570 -1573 1576 1577 1579 0
1570 -1571 -1573 1574 1575 -1577 0
-1570 -1571 1572 -1573 1579 0
-1571 1572 -1573 -1574 1576 -1577 0
-1570 1571 1572 -1573 -1576 -1577 0
-1574 1575 -1576 -1577 -1579 0
-1570 -1571 1573 -1574 -1579 0
-1570 1571 1572 1577 -1579 0
1572 1573 -1576 -1577 -1579 0
-1570 1572 1573 1574 1575 1577 0
-1574 -1575 -1576 -1577 1579 0
1570 1575 1576 1577 -1579 0
1571 1574 -1577 1578 0
-1571 -1580 0
1570 1571 1572 1575 1577 1580 0
1571 1572 1573 1575 1576 1580 0
-1571 -1574 -1575 1576 1577 0
-1572 -1573 -1574 -1576 1577 0
-1570 -1572 -1574 1576 -1577 0
1570 1572 1573 -1578 0
1574 1576 1577 -1578 0
1571 -1572 1575 1576 1577 0
1571 1572 -1573 1576 1578 0
-1574 -1580 0
1570 1571 1573 1574 1580 0
1574 -1576 1577 1578 0
1574 1576 -1577 1578 0
-1575 -1580 0
-1578 -1580 0
-1578 -1579 0
1578 1579 1580 0
1581 1583 1585 1586 1587 -1589 0
1581 -1583 -1584 -1586 -1587 1588 0
1582 -1583 1584 1585 -1586 1588 0
1581 1582 -1584 -1585 -1587 1588 1590 0
1582 -1583 1584 1585 -1586 1587 0
1582 1583 1584 -1585 1587 -1588 1590 0
1581 1584 -1587 -1588 1590 0
1581 1584 1587 1588 1590 1591 0
1581 -1582 1584 1587 1588 0
-1581 -1582 1584 1585 -1586 -1588 0
1583 1584 -1585 -1587 1588 1590 0
1581 1582 -1584 -1586 1587 -1590 0
-1583 1584 1587 -1588 -1590 0
-1582 -1584 -1587 1588 -1590 0
1581 -1582 -1584 1585 -1586 -1587 0
1581 1582 1583 1584 1591 0
1581 -1583 -1587 1588 -1590 0
-1581 1582 1584 -1585 -1587 1588 1590 0
1581 1582 -1584 -1585 1587 -1588 1590 0
-1581 -1582 1584 1585 1586 1588 0
-1581 -1583 1585 -1588 -1590 0
-1581 -1584 1585 1587 -1590 0
1581 -1584 -1586 -1588 -1590 0
1581 -1582 -1583 -1585 -1590 0
-1581 1582 -1583 1584 -1586 -1590 0
1581 1582 -1583 -1584 -1586 1587 -1588 0
-1581 -1584 -1587 -1588 1590 0
-1582 1585 -1587 -1588 1590 0
1581 -1582 1584 -1585 1590 0
-1581 -1584 1587 1588 1590 0
1581 -1582 -1584 1585 1586 -1588 0
-1581 -1582 1583 -1584 1590 0
-1582 1583 -1584 -1585 1587 -1588 0
-1581 1582 1583 -1584 -1587 -1588 0
-1585 1586 -1587 -1588 -1590 0
-1581 -1582 1584 -1585 -1590 0
-1581 1582 1583 1588 -1590 0
1583 1584 -1587 -1588 -1590 0
-1581 1583 1584 1585 1586 1588 0
-1585 -1586 -1587 -1588 1590 0
1581 1586 1587 1588 -1590 0
1582 1585 -1588 1589 0
-1582 -1591 0
1581 1582 1583 1586 1588 1591 0
1582 1583 1584 1586 1587 1591 0
-1582 -1585 -1586 1587 1588 0
-1583 -1584 -1585 -1587 1588 0
-1581 -1583 -1585 1587 -1588 0
1581 1583 1584 -1589 0
1585 1587 1588 -1589 0
1582 -1583 1586 1587 1588 0
1582 1583 -1584 1587 1589 0
-1585 -1591 0
1581 1582 1584 1585 1591 0
1585 -1587 1588 1589 0
1585 1587 -1588 1589 0
-1586 -1591 0
-1589 -1591 0
-1589 -1590 0
1589 1590 1591 0
1592 1594 1596 1597 1598 -1600 0
1592 -1594 -1595 -1597 -1598 1599 0
1593 -1594 1595 1596 -1597 1599 0
1592 1593 -1595 -1596 -1598 1599 1601 0
1593 -1594 1595 1596 -1597 1598 0
1593 1594 1595 -1596 1598 -1599 1601 0
1592 1595 -1598 -1599 1601 0
1592 1595 1598 1599 1601 1602 0
1592 -1593 1595 1598 1599 0
-1592 -1593 1595 1596 -1597 -1599 0
1594 1595 -1596 -1598 1599 1601 0
1592 1593 -1595 -1597 1598 -1601 0
-1594 1595 1598 -1599 -1601 0
-1593 -1595 -1598 1599 -1601 0
1592 -1593 -1595 1596 -1597 -1598 0
1592 1593 1594 1595 1602 0
1592 -1594 -1598 1599 -1601 0
-1592 1593 1595 -1596 -1598 1599 1601 0
1592 1593 -1595 -1596 1598 -1599 1601 0
-1592 -1593 1595 1596 1597 1599 0
-1592 -1594 1596 -1599 -1601 0
-1592 -1595 1596 1598 -1601 0
1592 -1595 -1597 -1599 -1601 0
1592 -1593 -1594 -1596 -1601 0
-1592 1593 -1594 1595 -1597 -1601 0
1592 1593 -1594 -1595 -1597 1598 -1599 0
-1592 -1595 -1598 -1599 1601 0
-1593 1596 -1598 -1599 1601 0
1592 -1593 1595 -1596 1601 0
-1592 -1595 1598 1599 1601 0
1592 -1593 -1595 1596 1597 -1599 0
-1592 -1593 1594 -1595 1601 0
-1593 1594 -1595 -1596 1598 -1599 0
-1592 1593 1594 -1595 -1598 -1599 0
-1596 1597 -1598 -1599 -1601 0
-1592 -1593 1595 -1596 -1601 0
-1592 1593 1594 1599 -1601 0
1594 1595 -1598 -1599 -1601 0
-1592 1594 1595 1596 1597 1599 0
-1596 -1597 -1598 -1599 1601 0
1592 1597 1598 1599 -1601 0
1593 1596 -1599 1600 0
-1593 -1602 0
1592 1593 1594 1597 1599 1602 0
1593 1594 1595 1597 1598 1602 0
-1593 -1596 -1597 1598 1599 0
-1594 -1595 -1596 -1598 1599 0
-1592 -1594 -1596 1598 -1599 0
1592 1594 1595 -1600 0
1596 1598 1599 -1600 0
1593 -1594 1597 1598 1599 0
1593 1594 -1595 1598 1600 0
-1596 -1602 0
1592 1593 1595 1596 1602 0
1596 -1598 1599 1600 0
1596 1598 -1599 1600 0
-1597 -1602 0
-1600 -1602 0
-1600 -1601 0
1600 1601 1602 0
1603 1605 1607 1608 1609 -1611 0
1603 -1605 -1606 -1608 -1609 1610 0
1604 -1605 1606 1607 -1608 1610 0
1603 1604 -1606 -1607 -1609 1610 1612 0
1604 -1605 1606 1607 -1608 1609 0
1604 1605 1606 -1607 1609 -1610 1612 0
1603 1606 -1609 -1610 1612 0
1603 1606 1609 1610 1612 1613 0
1603 -1604 1606 1609 1610 0
-1603 -1604 1606 1607 -1608 -1610 0
1605 1606 -1607 -1609 1610 1612 0
1603 1604 -1606 -1608 1609 -1612 0
-1605 1606 1609 -1610 -1612 0
-1604 -1606 -1609 1610 -1612 0
1603 -1604 -1606 1607 -1608 -1609 0
1603 1604 1605 1606 1613 0
1603 -1605 -1609 1610 -1612 0
-1603 1604 1606 -1607 -1609 1610 1612 0
1603 1604 -1606 -1607 1609 -1610 1612 0
-1603 -1604 1606 1607 1608 1610 0
-1603 -1605 1607 -1610 -1612 0
-1603 -1606 1607 1609 -1612 0
1603 -1606 -1608 -1610 -1612 0
1603 -1604 -1605 -1607 -1612 0
-1603 1604 -1605 1606 -1608 -1612 0
1603 1604 -1605 -1606 -1608 1609 -1610 0
-1603 -1606 -1609 -1610 1612 0
-1604 1607 -1609 -1610 1612 0
1603 -1604 1606 -1607 1612 0
-1603 -1606 1609 1610 1612 0
1603 -1604 -1606 1607 1608 -1610 0
-1603 -1604 1605 -1606 1612 0
-1604 1605 -1606 -1607 1609 -1610 0
-1603 1604 1605 -1606 -1609 -1610 0
-1607 1608 -1609 -1610 -1612 0
-1603 -1604 1606 -1607 -1612 0
-1603 1604 1605 1610 -1612 0
1605 1606 -1609 -1610 -1612 0
-1603 1605 1606 1607 1608 1610 0
-1607 -1608 -1609 -1610 1612 0
1603 1608 1609 1610 -1612 0
1604 1607 -1610 1611 0
-1604 -1613 0
1603 1604 1605 1608 1610 1613 0
1604 1605 1606 1608 1609 1613 0
-1604 -1607 -1608 1609 1610 0
-1605 -1606 -1607 -1609 1610 0
-1603 -1605 -1607 1609 -1610 0
1603 1605 1606 -1611 0
1607 1609 1610 -1611 0
1604 -1605 1608 1609 1610 0
1604 1605 -1606 1609 1611 0
-1607 -1613 0
1603 1604 1606 1607 1613 0
1607 -1609 1610 1611 0
1607 1609 -1610 1611 0
-1608 -1613 0
-1611 -1613 0
-1611 -1612 0
1611 1612 1613 0
1614 1616 1618 1619 1620 -1622 0
1614 -1616 -1617 -1619 -1620 1621 0
1615 -1616 1617 1618 -1619 1621 0
1614 1615 -1617 -1618 -1620 1621 1623 0
1615 -1616 1617 1618 -1619 1620 0
1615 1616 1617 -1618 1620 -1621 1623 0
1614 1617 -1620 -1621 1623 0
1614 1617 1620 1621 1623 1624 0
1614 -1615 1617 1620 1621 0
-1614 -1615 1617 1618 -1619 -1621 0
1616 1617 -1618 -1620 1621 1623 0
1614 1615 -1617 -1619 1620 -1623 0
-1616 1617 1620 -1621 -1623 0
-1615 -1617 -1620 1621 -1623 0
1614 -1615 -1617 1618 -1619 -1620 0
1614 1615 1616 1617 1624 0
1614 -1616 -1620 1621 -1623 0
-1614 1615 1617 -1618 -1620 1621 1623 0
1614 1615 -1617 -1618 1620 -1621 1623 0
-1614 -1615 1617 1618 1619 1621 0
-1614 -1616 1618 -1621 -1623 0
-1614 -1617 1618 1620 -1623 0
1614 -1617 -1619 -1621 -1623 0
1614 -1615 -1616 -1618 -1623 0
-1614 1615 -1616 1617 -1619 -1623 0
1614 1615 -1616 -1617 -1619 1620 -1621 0
-1614 -1617 -1620 -1621 1623 0
-1615 1618 -1620 -1621 1623 0
1614 -1615 1617 -1618 1623 0
-1614 -1617 1620 1621 1623 0
1614 -1615 -1617 1618 1619 -1621 0
-1614 -1615 1616 -1617 1623 0
-1615 1616 -1617 -1618 1620 -1621 0
-1614 1615 1616 -1617 -1620 -1621 0
-1618 1619 -1620 -1621 -1623 0
-1614 -1615 1617 -1618 -1623 0
-1614 1615 1616 1621 -1623 0
1616 1617 -1620 -1621 -1623 0
-1614 1616 1617 1618 1619 1621 0
-1618 -1619 -1620 -1621 1623 0
1614 1619 1620 1621 -1623 0
1615 1618 -1621 1622 0
-1615 -1624 0
1614 1615 1616 1619 1621 1624 0
1615 1616 1617 1619 1620 1624 0
-1615 -1618 -1619 1620 1621 0
-1616 -1617 -1618 -1620 1621 0
-1614 -1616 -1618 1620 -1621 0
1614 1616 1617 -1622 0
1618 1620 1621 -1622 0
1615 -1616 1619 1620 1621 0
1615 1616 -1617 1620 1622 0
-1618 -1624 0
1614 1615 1617 1618 1624 0
1618 -1620 1621 1622 0
1618 1620 -1621 1622 0
-1619 -1624 0
-1622 -1624 0
-1622 -1623 0
1622 1623 1624 0
1625 1627 1629 1630 1631 -1633 0
1625 -1627 -1628 -1630 -1631 1632 0
1626 -1627 1628 1629 -1630 1632 0
1625 1626 -1628 -1629 -1631 1632 1634 0
1626 -1627 1628 1629 -1630 1631 0
1626 1627 1628 -1629 1631 -1632 1634 0
1625 1628 -1631 -1632 1634 0
1625 1628 1631 1632 1634 1635 0
1625 -1626 1628 1631 1632 0
-1625 -1626 1628 1629 -1630 -1632 0
1627 1628 -1629 -1631 1632 1634 0
1625 1626 -1628 -1630 1631 -1634 0
-1627 1628 1631 -1632 -1634 0
-1626 -1628 -1631 1632 -1634 0
1625 -1626 -1628 1629 -1630 -1631 0
1625 1626 1627 1628 1635 0
1625 -1627 -1631 1632 -1634 0
-1625 1626 1628 -1629 -1631 1632 1634 0
1625 1626 -1628 -1629 1631 -1632 1634 0
-1625 -1626 1628 1629 1630 1632 0
-1625 -1627 1629 -1632 -1634 0
-1625 -1628 1629 1631 -1634 0
1625 -1628 -1630 -1632 -1634 0
1625 -1626 -1627 -1629 -1634 0
-1625 1626 -1627 1628 -1630 -1634 0
1625 1626 -1627 -1628 -1630 1631 -1632 0
-1625 -1628 -1631 -1632 1634 0
-1626 1629 -1631 -1632 1634 0
1625 -1626 1628 -1629 1634 0
-1625 -1628 1631 1632 1634 0
1625 -1626 -1628 1629 1630 -1632 0
-1625 -1626 1627 -1628 1634 0
-1626 1627 -1628 -1629 1631 -1632 0
-1625 1626 1627 -1628 -1631 -1632 0
-1629 1630 -1631 -1632 -1634 0
-1625 -1626 1628 -1629 -1634 0
-1625 1626 1627 1632 -1634 0
1627 1628 -1631 -1632 -1634 0
-1625 1627 1628 1629 1630 1632 0
-1629 -1630 -1631 -1632 1634 0
1625 1630 1631 1632 -1634 0
1626 1629 -1632 1633 0
-1626 -1635 0
1625 1626 1627 1630 1632 1635 0
1626 1627 1628 1630 1631 1635 0
-1626 -1629 -1630 1631 1632 0
-1627 -1628 -1629 -1631 1632 0
-1625 -1627 -1629 1631 -1632 0
1625 1627 1628 -1633 0
1629 1631 1632 -1633 0
1626 -1627 1630 1631 1632 0
1626 1627 -1628 1631 1633 0
-1629 -1635 0
1625 1626 1628 1629 1635 0
1629 -1631 1632 1633 0
1629 1631 -1632 1633 0
-1630 -1635 0
-1633 -1635 0
-1633 -1634 0
1633 1634 1635 0
1636 1638 1640 1641 1642 -1644 0
1636 -1638 -1639 -1641 -1642 1643 0
1637 -1638 1639 1640 -1641 1643 0
1636 1637 -1639 -1640 -1642 1643 1645 0
1637 -1638 1639 1640 -1641 1642 0
1637 1638 1639 -1640 1642 -1643 1645 0
1636 1639 -1642 -1643 1645 0
1636 1639 1642 1643 1645 1646 0
1636 -1637 1639 1642 1643 0
-1636 -1637 1639 1640 -1641 -1643 0
1638 1639 -1640 -1642 1643 1645 0
1636 1637 -1639 -1641 1642 -1645 0
-1638 1639 1642 -1643 -1645 0
-1637 -1639 -1642 1643 -1645 0
1636 -1637 -1639 1640 -1641 -1642 0
1636 1637 1638 1639 1646 0
1636 -1638 -1642 1643 -1645 0
-1636 1637 1639 -1640 -1642 1643 1645 0
1636 1637 -1639 -1640 1642 -1643 1645 0
-1636 -1637 1639 1640 1641 1643 0
-1636 -1638 1640 -1643 -1645 0
-1636 -1639 1640 1642 -1645 0
1636 -1639 -1641 -1643 -1645 0
1636 -1637 -1638 -1640 -1645 0
-1636 1637 -1638 1639 -1641 -1645 0
1636 1637 -1638 -1639 -1641 1642 -1643 0
-1636 -1639 -1642 -1643 1645 0
-1637 1640 -1642 -1643 1645 0
1636 -1637 1639 -1640 1645 0
-1636 -1639 1642 1643 1645 0
1636 -1637 -1639 1640 1641 -1643 0
-1636 -1637 1638 -1639 1645 0
-1637 1638 -1639 -1640 1642 -1643 0
-1636 1637 1638 -1639 -1642 -1643 0
-1640 1641 -1642 -1643 -1645 0
-1636 -1637 1639 -1640 -1645 0
-1636 1637 1638 1643 -1645 0
1638 1639 -1642 -1643 -1645 0
-1636 1638 1639 1640 1641 1643 0
-1640 -1641 -1642 -1643 1645 0
1636 1641 1642 1643 -1645 0
1637 1640 -1643 1644 0
-1637 -1646 0
1636 1637 1638 1641 1643 1646 0
1637 1638 1639 1641 1642 1646 0
-1637 -1640 -1641 1642 1643 0
-1638 -1639 -1640 -1642 1643 0
-1636 -1638 -1640 1642 -1643 0
1636 1638 1639 -1644 0
1640 1642 1643 -1644 0
1637 -1638 1641 1642 1643 0
1637 1638 -1639 1642 1644 0
-1640 -1646 0
1636 1637 1639 1640 1646 0
1640 -1642 1643 1644 0
1640 1642 -1643 1644 0
-1641 -1646 0
-1644 -1646 0
-1644 -1645 0
1644 1645 1646 0
1647 1649 1651 1652 1653 -1655 0
1647 -1649 -1650 -1652 -1653 1654 0
1648 -1649 1650 1651 -1652 1654 0
1647 1648 -1650 -1651 -1653 1654 1656 0
1648 -1649 1650 1651 -1652 1653 0
1648 1649 1650 -1651 1653 -1654 1656 0
1647 1650 -1653 -1654 1656 0
1647 1650 1653 1654 1656 1657 0
1647 -1648 1650 1653 1654 0
-1647 -1648 1650 1651 -1652 -1654 0
1649 1650 -1651 -1653 1654 1656 0
1647 1648 -1650 -1652 1653 -1656 0
-1649 1650 1653 -1654 -1656 0
-1648 -1650 -1653 1654 -1656 0
1647 -1648 -1650 1651 -1652 -1653 0
1647 1648 1649 1650 1657 0
1647 -1649 -1653 1654 -1656 0
-1647 1648 1650 -1651 -1653 1654 1656 0
1647 1648 -1650 -1651 1653 -1654 1656 0
-1647 -1648 1650 1651 1652 1654 0
-1647 -1649 1651 -1654 -1656 0
-1647 -1650 1651 1653 -1656 0
1647 -1650 -1652 -1654 -1656 0
1647 -1648 -1649 -1651 -1656 0
-1647 1648 -1649 1650 -1652 -1656 0
1647 1648 -1649 -1650 -1652 1653 -1654 0
-1647 -1650 -1653 -1654 1656 0
-1648 1651 -1653 -1654 1656 0
1647 -1648 1650 -1651 1656 0
-1647 -1650 1653 1654 1656 0
1647 -1648 -1650 1651 1652 -1654 0
-1647 -1648 1649 -1650 1656 0
-1648 1649 -1650 -1651 1653 -1654 0
-1647 1648 1649 -1650 -1653 -1654 0
-1651 1652 -1653 -1654 -1656 0
-1647 -1648 1650 -1651 -1656 0
-1647 1648 1649 1654 -1656 0
1649 1650 -1653 -1654 -1656 0
-1647 1649 1650 1651 1652 1654 0
-1651 -1652 -1653 -1654 1656 0
1647 1652 1653 1654 -1656 0
1648 1651 -1654 1655 0
-1648 -1657 0
1647 1648 1649 1652 1654 1657 0
1648 1649 1650 1652 1653 1657 0
-1648 -1651 -1652 1653 1654 0
-1649 -1650 -1651 -1653 1654 0
-1647 -1649 -1651 1653 -1654 0
1647 1649 1650 -1655 0
1651 1653 1654 -1655 0
1648 -1649 1652 1653 1654 0
1648 1649 -1650 1653 1655 0
-1651 -1657 0
1647 1648 1650 1651 1657 0
1651 -1653 1654 1655 0
1651 1653 -1654 1655 0
-1652 -1657 0
-1655 -1657 0
-1655 -1656 0
1655 1656 1657 0
1658 1660 1662 1663 1664 -1666 0
1658 -1660 -1661 -1663 -1664 1665 0
1659 -1660 1661 1662 -1663 1665 0
1658 1659 -1661 -1662 -1664 1665 1667 0
1659 -1660 1661 1662 -1663 1664 0
1659 1660 1661 -1662 1664 -1665 1667 0
1658 1661 -1664 -1665 1667 0
1658 1661 1664 1665 1667 1668 0
1658 -1659 1661 1664 1665 0
-1658 -1659 1661 1662 -1663 -1665 0
1660 1661 -1662 -1664 1665 1667 0
1658 1659 -1661 -1663 1664 -1667 0
-1660 1661 1664 -1665 -1667 0
-1659 -1661 -1664 1665 -1667 0
1658 -1659 -1661 1662 -1663 -1664 0
1658 1659 1660 1661 1668 0
1658 -1660 -1664 1665 -1667 0
-1658 1659 1661 -1662 -1664 1665 1667 0
1658 1659 -1661 -1662 1664 -1665 1667 0
-1658 -1659 1661 1662 1663 1665 0
-1658 -1660 1662 -1665 -1667 0
-1658 -1661 1662 1664 -1667 0
1658 -1661 -1663 -1665 -1667 0
1658 -1659 -1660 -1662 -1667 0
-1658 1659 -1660 1661 -1663 -1667 0
1658 1659 -1660 -1661 -1663 1664 -1665 0
-1658 -1661 -1664 -1665 1667 0
-1659 1662 -1664 -1665 1667 0
1658 -1659 1661 -1662 1667 0
-1658 -1661 1664 1665 1667 0
1658 -1659 -1661 1662 1663 -1665 0
-1658 -1659 1660 -1661 1667 0
-1659 1660 -1661 -1662 1664 -1665 0
-1658 1659 1660 -1661 -1664 -1665 0
-1662 1663 -1664 -1665 -1667 0
-1658 -1659 1661 -1662 -1667 0
-1658 1659 1660 1665 -1667 0
1660 1661 -1664 -1665 -1667 0
-1658 1660 1661 1662 1663 1665 0
-1662 -1663 -1664 -1665 1667 0
1658 1663 1664 1665 -1667 0
1659 1662 -1665 1666 0
-1659 -1668 0
1658 1659 1660 1663 1665 1668 0
1659 1660 1661 1663 1664 1668 0
-1659 -1662 -1663 1664 1665 0
-1660 -1661 -1662 -1664 1665 0
-1658 -1660 -1662 1664 -1665 0
1658 1660 1661 -1666 0
1662 1664 1665 -1666 0
1659 -1660 1663 1664 1665 0
1659 1660 -1661 1664 1666 0
-1662 -1668 0
1658 1659 1661 1662 1668 0
1662 -1664 1665 1666 0
1662 1664 -1665 1666 0
-1663 -1668 0
-1666 -1668 0
-1666 -1667 0
1666 1667 1668 0
1669 1671 1673 1674 1675 -1677 0
1669 -1671 -1672 -1674 -1675 1676 0
1670 -1671 1672 1673 -1674 1676 0
1669 1670 -1672 -1673 -1675 1676 1678 0
1670 -1671 1672 1673 -1674 1675 0
1670 1671 1672 -1673 1675 -1676 1678 0
1669 1672 -1675 -1676 1678 0
1669 1672 1675 1676 1678 1679 0
1669 -1670 1672 1675 1676 0
-1669 -1670 1672 1673 -1674 -1676 0
1671 1672 -1673 -1675 1676 1678 0
1669 1670 -1672 -1674 1675 -1678 0
-1671 1672 1675 -1676 -1678 0
-1670 -1672 -1675 1676 -1678 0
1669 -1670 -1672 1673 -1674 -1675 0
1669 1670 1671 1672 1679 0
1669 -1671 -1675 1676 -1678 0
-1669 1670 1672 -1673 -1675 1676 1678 0
1669 1670 -1672 -1673 1675 -1676 1678 0
-1669 -1670 1672 1673 1674 1676 0
-1669 -1671 1673 -1676 -1678 0
-1669 -1672 1673 1675 -1678 0
1669 -1672 -1674 -1676 -1678 0
1669 -1670 -1671 -1673 -1678 0
-1669 1670 -1671 1672 -1674 -1678 0
1669 1670 -1671 -1672 -1674 1675 -1676 0
-1669 -1672 -1675 -1676 1678 0
-1670 1673 -1675 -1676 1678 0
1669 -1670 1672 -1673 1678 0
-1669 -1672 1675 1676 1678 0
1669 -1670 -1672 1673 1674 -1676 0
-1669 -1670 1671 -1672 1678 0
-1670 1671 -1672 -1673 1675 -1676 0
-1669 1670 1671 -1672 -1675 -1676 0
-1673 1674 -1675 -1676 -1678 0
-1669 -1670 1672 -1673 -1678 0
-1669 1670 1671 1676 -1678 0
1671 1672 -1675 -1676 -1678 0
-1669 1671 1672 1673 1674 1676 0
-1673 -1674 -1675 -1676 1678 0
1669 1674 1675 1676 -1678 0
1670 1673 -1676 1677 0
-1670 -1679 0
1669 1670 1671 1674 1676 1679 0
1670 1671 1672 1674 1675 1679 0
-1670 -1673 -1674 1675 1676 0
-1671 -1672 -1673 -1675 1676 0
-1669 -1671 -1673 1675 -1676 0
1669 1671 1672 -1677 0
1673 1675 1676 -1677 0
1670 -1671 1674 1675 1676 0
1670 1671 -1672 1675 1677 0
-1673 -1679 0
1669 1670 1672 1673 1679 0
1673 -1675 1676 1677 0
1673 1675 -1676 1677 0
-1674 -1679 0
-1677 -1679 0
-1677 -1678 0
1677 1678 1679 0
1680 1682 1684 1685 1686 -1688 0
1680 -1682 -1683 -1685 -1686 1687 0
1681 -1682 1683 1684 -1685 1687 0
1680 1681 -1683 -1684 -1686 1687 1689 0
1681 -1682 1683 1684 -1685 1686 0
1681 1682 1683 -1684 1686 -1687 1689 0
1680 1683 -1686 -1687 1689 0
1680 1683 1686 1687 1689 1690 0
1680 -1681 1683 1686 1687 0
-1680 -1681 1683 1684 -1685 -1687 0
1682 1683 -1684 -1686 1687 1689 0
1680 1681 -1683 -1685 1686 -1689 0
-1682 1683 1686 -1687 -1689 0
-1681 -1683 -1686 1687 -1689 0
1680 -1681 -1683 1684 -1685 -1686 0
1680 1681 1682 1683 1690 0
1680 -1682 -1686 1687 -1689 0
-1680 1681 1683 -1684 -1686 1687 1689 0
1680 1681 -1683 -1684 1686 -1687 1689 0
-1680 -1681 1683 1684 1685 1687 0
-1680 -1682 1684 -1687 -1689 0
-1680 -1683 1684 1686 -1689 0
1680 -1683 -1685 -1687 -1689 0
1680 -1681 -1682 -1684 -1689 0
-1680 1681 -1682 1683 -1685 -1689 0
1680 1681 -1682 -1683 -1685 1686 -1687 0
-1680 -1683 -1686 -1687 1689 0
-1681 1684 -1686 -1687 1689 0
1680 -1681 1683 -1684 1689 0
-1680 -1683 1686 1687 1689 0
1680 -1681 -1683 1684 1685 -1687 0
-1680 -1681 1682 -1683 1689 0
-1681 1682 -1683 -1684 1686 -1687 0
-1680 1681 1682 -1683 -1686 -1687 0
-1684 1685 -1686 -1687 -1689 0
-1680 -1681 1683 -1684 -1689 0
-1680 1681 1682 1687 -1689 0
1682 1683 -1686 -1687 -1689 0
-1680 1682 1683 1684 1685 1687 0
-1684 -1685 -1686 -1687 1689 0
1680 1685 1686 1687 -1689 0
1681 1684 -1687 1688 0
-1681 -1690 0
1680 1681 1682 1685 1687 1690 0
1681 1682 1683 1685 1686 1690 0
-1681 -1684 -1685 1686 1687 0
-1682 -1683 -1684 -1686 1687 0
-1680 -1682 -1684 1686 -1687 0
1680 1682 1683 -1688 0
1684 1686 1687 -1688 0
1681 -1682 1685 1686 1687 0
1681 1682 -1683 1686 1688 0
-1684 -1690 0
1680 1681 1683 1684 1690 0
1684 -1686 1687 1688 0
1684 1686 -1687 1688 0
-1685 -1690 0
-1688 -1690 0
-1688 -1689 0
1688 1689 1690 0
1691 1693 1695 1696 1697 -1699 0
1691 -1693 -1694 -1696 -1697 1698 0
1692 -1693 1694 1695 -1696 1698 0
1691 1692 -1694 -1695 -1697 1698 1700 0
1692 -1693 1694 1695 -1696 1697 0
1692 1693 1694 -1695 1697 -1698 1700 0
1691 1694 -1697 -1698 1700 0
1691 1694 1697 1698 1700 1701 0
1691 -1692 1694 1697 1698 0
-1691 -1692 1694 1695 -1696 -1698 0
1693 1694 -1695 -1697 1698 1700 0
1691 1692 -1694 -1696 1697 -1700 0
-1693 1694 1697 -1698 -1700 0
-1692 -1694 -1697 1698 -1700 0
1691 -1692 -1694 1695 -1696 -1697 0
1691 1692 1693 1694 1701 0
1691 -1693 -1697 1698 -1700 0
-1691 1692 1694 -1695 -1697 1698 1700 0
1691 1692 -1694 -1695 1697 -1698 1700 0
-1691 -1692 1694 1695 1696 1698 0
-1691 -1693 1695 -1698 -1700 0
-1691 -1694 1695 1697 -1700 0
1691 -1694 -1696 -1698 -1700 0
1691 -1692 -1693 -1695 -1700 0
-1691 1692 -1693 1694 -1696 -1700 0
1691 1692 -1693 -1694 -1696 1697 -1698 0
-1691 -1694 -1697 -1698 1700 0
-1692 1695 -1697 -1698 1700 0
1691 -1692 1694 -1695 1700 0
-1691 -1694 1697 1698 1700 0
1691 -1692 -1694 1695 1696 -1698 0
-1691 -1692 1693 -1694 1700 0
-1692 1693 -1694 -1695 1697 -1698 0
-1691 1692 1693 -1694 -1697 -1698 0
-1695 1696 -1697 -1698 -1700 0
-1691 -1692 1694 -1695 -1700 0
-1691 1692 1693 1698 -1700 0
1693 1694 -1697 -1698 -1700 0
-1691 1693 1694 1695 1696 1698 0
-1695 -1696 -1697 -1698 1700 0
1691 1696 1697 1698 -1700 0
1692 1695 -1698 1699 0
-1692 -1701 0
1691 1692 1693 1696 1698 1701 0
1692 1693 1694 1696 1697 1701 0
-1692 -1695 -1696 1697 1698 0
-1693 -1694 -1695 -1697 1698 0
-1691 -1693 -1695 1697 -1698 0
1691 1693 1694 -1699 0
1695 1697 1698 -1699 0
1692 -1693 1696 1697 1698 0
1692 1693 -1694 1697 1699 0
-1695 -1701 0
1691 1692 1694 1695 1701 0
1695 -1697 1698 1699 0
1695 1697 -1698 1699 0
-1696 -1701 0
-1699 -1701 0
-1699 -1700 0
1699 1700 1701 0
1702 1704 1706 1707 1708 -1710 0
1702 -1704 -1705 -1707 -1708 1709 0
1703 -1704 1705 1706 -1707 1709 0
1702 1703 -1705 -1706 -1708 1709 1711 0
1703 -1704 1705 1706 -1707 1708 0
1703 1704 1705 -1706 1708 -1709 1711 0
1702 1705 -1708 -1709 1711 0
1702 1705 1708 1709 1711 1712 0
1702 -1703 1705 1708 1709 0
-1702 -1703 1705 1706 -1707 -1709 0
1704 1705 -1706 -1708 1709 1711 0
1702 1703 -1705 -1707 1708 -1711 0
-1704 1705 1708 -1709 -1711 0
-1703 -1705 -1708 1709 -1711 0
1702 -1703 -1705 1706 -1707 -1708 0
1702 1703 1704 1705 1712 0
1702 -1704 -1708 1709 -1711 0
-1702 1703 1705 -1706 -1708 1709 1711 0
1702 1703 -1705 -1706 1708 -1709 1711 0
-1702 -1703 1705 1706 1707 1709 0
-1702 -1704 1706 -1709 -1711 0
-1702 -1705 1706 1708 -1711 0
1702 -1705 -1707 -1709 -1711 0
1702 -1703 -1704 -1706 -1711 0
-1702 1703 -1704 1705 -1707 -1711 0
1702 1703 -1704 -1705 -1707 1708 -1709 0
-1702 -1705 -1708 -1709 1711 0
-1703 1706 -1708 -1709 1711 0
1702 -1703 1705 -1706 1711 0
-1702 -1705 1708 1709 1711 0
1702 -1703 -1705 1706 1707 -1709 0
-1702 -1703 1704 -1705 1711 0
-1703 1704 -1705 -1706 1708 -1709 0
-1702 1703 1704 -1705 -1708 -1709 0
-1706 1707 -1708 -1709 -1711 0
-1702 -1703 1705 -1706 -1711 0
-1702 1703 1704 1709 -1711 0
1704 1705 -1708 -1709 -1711 0
-1702 1704 1705 1706 1707 1709 0
-1706 -1707 -1708 -1709 1711 0
1702 1707 1708 1709 -1711 0
1703 1706 -1709 1710 0
-1703 -1712 0
1702 1703 1704 1707 1709 1712 0
1703 1704 1705 1707 1708 1712 0
-1703 -1706 -1707 1708 1709 0
-1704 -1705 -1706 -1708 1709 0
-1702 -1704 -1706 1708 -1709 0
1702 1704 1705 -1710 0
1706 1708 1709 -1710 0
1703 -1704 1707 1708 1709 0
1703 1704 -1705 1708 1710 0
-1706 -1712 0
1702 1703 1705 1706 1712 0
1706 -1708 1709 1710 0
1706 1708 -1709 1710 0
-1707 -1712 0
-1710 -1712 0
-1710 -1711 0
1710 1711 1712 0
1713 1715 1717 1718 1719 -1721 0
1713 -1715 -1716 -1718 -1719 1720 0
1714 -1715 1716 1717 -1718 1720 0
1713 1714 -1716 -1717 -1719 1720 1722 0
1714 -1715 1716 1717 -1718 1719 0
1714 1715 1716 -1717 1719 -1720 1722 0
1713 1716 -1719 -1720 1722 0
1713 1716 1719 1720 1722 1723 0
1713 -1714 1716 1719 1720 0
-1713 -1714 1716 1717 -1718 -1720 0
1715 1716 -1717 -1719 1720 1722 0
1713 1714 -1716 -1718 1719 -1722 0
-1715 1716 1719 -1720 -1722 0
-1714 -1716 -1719 1720 -1722 0
1713 -1714 -1716 1717 -1718 -1719 0
1713 1714 1715 1716 1723 0
1713 -1715 -1719 1720 -1722 0
-1713 1714 1716 -1717 -1719 1720 1722 0
1713 1714 -1716 -1717 1719 -1720 1722 0
-1713 -1714 1716 1717 1718 1720 0
-1713 -1715 1717 -1720 -1722 0
-1713 -1716 1717 1719 -1722 0
1713 -1716 -1718 -1720 -1722 0
1713 -1714 -1715 -1717 -1722 0
-1713 1714 -1715 1716 -1718 -1722 0
1713 1714 -1715 -1716 -1718 1719 -1720 0
-1713 -1716 -1719 -1720 1722 0
-1714 1717 -1719 -1720 1722 0
1713 -1714 1716 -1717 1722 0
-1713 -1716 1719 1720 1722 0
1713 -1714 -1716 1717 1718 -1720 0
-1713 -1714 1715 -1716 1722 0
-1714 1715 -1716 -1717 1719 -1720 0
-1713 1714 1715 -1716 -1719 -1720 0
-1717 1718 -1719 -1720 -1722 0
-1713 -1714 1716 -1717 -1722 0
-1713 1714 1715 1720 -1722 0
1715 1716 -1719 -1720 -1722 0
-1713 1715 1716 1717 1718 1720 0
-1717 -1718 -1719 -1720 1722 0
1713 1718 1719 1720 -1722 0
1714 1717 -1720 1721 0
-1714 -1723 0
1713 1714 1715 1718 1720 1723 0
1714 1715 1716 1718 1719 1723 0
-1714 -1717 -1718 1719 1720 0
-1715 -1716 -1717 -1719 1720 0
-1713 -1715 -1717 1719 -1720 0
1713 1715 1716 -1721 0
1717 1719 1720 -1721 0
1714 -1715 1718 1719 1720 0
1714 1715 -1716 1719 1721 0
-1717 -1723 0
1713 1714 1716 1717 1723 0
1717 -1719 1720 1721 0
1717 1719 -1720 1721 0
-1718 -1723 0
-1721 -1723 0
-1721 -1722 0
1721 1722 1723 0
1724 1726 1728 1729 1730 -1732 0
1724 -1726 -1727 -1729 -1730 1731 0
1725 -1726 1727 1728 -1729 1731 0
1724 1725 -1727 -1728 -1730 1731 1733 0
1725 -1726 1727 1728 -1729 1730 0
1725 1726 1727 -1728 1730 -1731 1733 0
1724 1727 -1730 -1731 1733 0
1724 1727 1730 1731 1733 1734 0
1724 -1725 1727 1730 1731 0
-1724 -1725 1727 1728 -1729 -1731 0
1726 1727 -1728 -1730 1731 1733 0
1724 1725 -1727 -1729 1730 -1733 0
-1726 1727 1730 -1731 -1733 0
-1725 -1727 -1730 1731 -1733 0
1724 -1725 -1727 1728 -1729 -1730 0
1724 1725 1726 1727 1734 0
1724 -1726 -1730 1731 -1733 0
-1724 1725 1727 -1728 -1730 1731 1733 0
1724 1725 -1727 -1728 1730 -1731 1733 0
-1724 -1725 1727 1728 1729 1731 0
-1724 -1726 1728 -1731 -1733 0
-1724 -1727 1728 1730 -1733 0
1724 -1727 -1729 -1731 -1733 0
1724 -1725 -1726 -1728 -1733 0
-1724 1725 -1726 1727 -1729 -1733 0
1724 1725 -1726 -1727 -1729 1730 -1731 0
-1724 -1727 -1730 -1731 1733 0
-1725 1728 -1730 -1731 1733 0
1724 -1725 1727 -1728 1733 0
-1724 -1727 1730 1731 1733 0
1724 -1725 -1727 1728 1729 -1731 0
-1724 -1725 1726 -1727 1733 0
-1725 1726 -1727 -1728 1730 -1731 0
-1724 1725 1726 -1727 -1730 -1731 0
-1728 1729 -1730 -1731 -1733 0
-1724 -1725 1727 -1728 -1733 0
-1724 1725 1726 1731 -1733 0
1726 1727 -1730 -1731 -1733 0
-1724 1726 1727 1728 1729 1731 0
-1728 -1729 -1730 -1731 1733 0
1724 1729 1730 1731 -1733 0
1725 1728 -1731 1732 0
-1725 -1734 0
1724 1725 1726 1729 1731 1734 0
1725 1726 1727 1729 1730 1734 0
-1725 -1728 -1729 1730 1731 0
-1726 -1727 -1728 -1730 1731 0
-1724 -1726 -1728 1730 -1731 0
1724 1726 1727 -1732 0
1728 1730 1731 -1732 0
1725 -1726 1729 1730 1731 0
1725 1726 -1727 1730 1732 0
-1728 -1734 0
1724 1725 1727 1728 1734 0
1728 -1730 1731 1732 0
1728 1730 -1731 1732 0
-1729 -1734 0
-1732 -1734 0
-1732 -1733 0
1732 1733 1734 0
1735 1737 1739 1740 1741 -1743 0
1735 -1737 -1738 -1740 -1741 1742 0
1736 -1737 1738 1739 -1740 1742 0
1735 1736 -1738 -1739 -1741 1742 1744 0
1736 -1737 1738 1739 -1740 1741 0
1736 1737 1738 -1739 1741 -1742 1744 0
1735 1738 -1741 -1742 1744 0
1735 1738 1741 1742 1744 1745 0
1735 -1736 1738 1741 1742 0
-1735 -1736 1738 1739 -1740 -1742 0
1737 1738 -1739 -1741 1742 1744 0
1735 1736 -1738 -1740 1741 -1744 0
-1737 1738 1741 -1742 -1744 0
-1736 -1738 -1741 1742 -1744 0
1735 -1736 -1738 1739 -1740 -1741 0
1735 1736 1737 1738 1745 0
1735 -1737 -1741 1742 -1744 0
-1735 1736 1738 -1739 -1741 1742 1744 0
1735 1736 -1738 -1739 1741 -1742 1744 0
-1735 -1736 1738 1739 1740 1742 0
-1735 -1737 1739 -1742 -1744 0
-1735 -1738 1739 1741 -1744 0
1735 -1738 -1740 -1742 -1744 0
1735 -1736 -1737 -1739 -1744 0
-1735 1736 -1737 1738 -1740 -1744 0
1735 1736 -1737 -1738 -1740 1741 -1742 0
-1735 -1738 -1741 -1742 1744 0
-1736 1739 -1741 -1742 1744 0
1735 -1736 1738 -1739 1744 0
-1735 -1738 1741 1742 1744 0
1735 -1736 -1738 1739 1740 -1742 0
-1735 -1736 1737 -1738 1744 0
-1736 1737 -1738 -1739 1741 -1742 0
-1735 1736 1737 -1738 -1741 -1742 0
-1739 1740 -1741 -1742 -1744 0
-1735 -1736 1738 -1739 -1744 0
-1735 1736 1737 1742 -1744 0
1737 1738 -1741 -1742 -1744 0
-1735 1737 1738 1739 1740 1742 0
-1739 -1740 -1741 -1742 1744 0
1735 1740 1741 1742 -1744 0
1736 1739 -1742 1743 0
-1736 -1745 0
1735 1736 1737 1740 1742 1745 0
1736 1737 1738 1740 1741 1745 0
-1736 -1739 -1740 1741 1742 0
-1737 -1738 -1739 -1741 1742 0
-1735 -1737 -1739 1741 -1742 0
1735 1737 1738 -1743 0
1739 1741 1742 -1743 0
1736 -1737 1740 1741 1742 0
1736 1737 -1738 1741 1743 0
-1739 -1745 0
1735 1736 1738 1739 1745 0
1739 -1741 1742 1743 0
1739 1741 -1742 1743 0
-1740 -1745 0
-1743 -1745 0
-1743 -1744 0
1743 1744 1745 0
1746 1748 1750 1751 1752 -1754 0
1746 -1748 -1749 -1751 -1752 1753 0
1747 -1748 1749 1750 -1751 1753 0
1746 1747 -1749 -1750 -1752 1753 1755 0
1747 -1748 1749 1750 -1751 1752 0
1747 1748 1749 -1750 1752 -1753 1755 0
1746 1749 -1752 -1753 1755 0
1746 1749 1752 1753 1755 1756 0
1746 -1747 1749 1752 1753 0
-1746 -1747 1749 1750 -1751 -1753 0
1748 1749 -1750 -1752 1753 1755 0
1746 1747 -1749 -1751 1752 -1755 0
-1748 1749 1752 -1753 -1755 0
-1747 -1749 -1752 1753 -1755 0
1746 -1747 -1749 1750 -1751 -1752 0
1746 1747 1748 1749 1756 0
1746 -1748 -1752 1753 -1755 0
-1746 1747 1749 -1750 -1752 1753 1755 0
1746 1747 -1749 -1750 1752 -1753 1755 0
-1746 -1747 1749 1750 1751 1753 0
-1746 -1748 1750 -1753 -1755 0
-1746 -1749 1750 1752 -1755 0
1746 -1749 -1751 -1753 -1755 0
1746 -1747 -1748 -1750 -1755 0
-1746 1747 -1748 1749 -1751 -1755 0
1746 1747 -1748 -1749 -1751 1752 -1753 0
-1746 -1749 -1752 -1753 1755 0
-1747 1750 -1752 -1753 1755 0
1746 -1747 1749 -1750 1755 0
-1746 -1749 1752 1753 1755 0
1746 -1747 -1749 1750 1751 -1753 0
-1746 -1747 1748 -1749 1755 0
-1747 1748 -1749 -1750 1752 -1753 0
-1746 1747 1748 -1749 -1752 -1753 0
-1750 1751 -1752 -1753 -1755 0
-1746 -1747 1749 -1750 -1755 0
-1746 1747 1748 1753 -1755 0
1748 1749 -1752 -1753 -1755 0
-1746 1748 1749 1750 1751 1753 0
-1750 -1751 -1752 -1753 1755 0
1746 1751 1752 1753 -1755 0
1747 1750 -1753 1754 0
-1747 -1756 0
1746 1747 1748 1751 1753 1756 0
1747 1748 1749 1751 1752 1756 0
-1747 -1750 -1751 1752 1753 0
-1748 -1749 -1750 -1752 1753 0
-1746 -1748 -1750 1752 -1753 0
1746 1748 1749 -1754 0
1750 1752 1753 -1754 0
1747 -1748 1751 1752 1753 0
1747 1748 -1749 1752 1754 0
-1750 -1756 0
1746 1747 1749 1750 1756 0
1750 -1752 1753 1754 0
1750 1752 -1753 1754 0
-1751 -1756 0
-1754 -1756 0
-1754 -1755 0
1754 1755 1756 0
1757 1759 1761 1762 1763 -1765 0
1757 -1759 -1760 -1762 -1763 1764 0
1758 -1759 1760 1761 -1762 1764 0
1757 1758 -1760 -1761 -1763 1764 1766 0
1758 -1759 1760 1761 -1762 1763 0
1758 1759 1760 -1761 1763 -1764 1766 0
1757 1760 -1763 -1764 1766 0
1757 1760 1763 1764 1766 1767 0
1757 -1758 1760 1763 1764 0
-1757 -1758 1760 1761 -1762 -1764 0
1759 1760 -1761 -1763 1764 1766 0
1757 1758 -1760 -1762 1763 -1766 0
-1759 1760 1763 -1764 -1766 0
-1758 -1760 -1763 1764 -1766 0
1757 -1758 -1760 1761 -1762 -1763 0
1757 1758 1759 1760 1767 0
1757 -1759 -1763 1764 -1766 0
-1757 1758 1760 -1761 -1763 1764 1766 0
1757 1758 -1760 -1761 1763 -1764 1766 0
-1757 -1758 1760 1761 1762 1764 0
-1757 -1759 1761 -1764 -1766 0
-1757 -1760 1761 1763 -1766 0
1757 -1760 -1762 -1764 -1766 0
1757 -1758 -1759 -1761 -1766 0
-1757 1758 -1759 1760 -1762 -1766 0
1757 1758 -1759 -1760 -1762 1763 -1764 0
-1757 -1760 -1763 -1764 1766 0
-1758 1761 -1763 -1764 1766 0
1757 -1758 1760 -1761 1766 0
-1757 -1760 1763 1764 1766 0
1757 -1758 -1760 1761 1762 -1764 0
-1757 -1758 1759 -1760 1766 0
-1758 1759 -1760 -1761 1763 -1764 0
-1757 1758 1759 -1760 -1763 -1764 0
-1761 1762 -1763 -1764 -1766 0
-1757 -1758 1760 -1761 -1766 0
-1757 1758 1759 1764 -1766 0
1759 1760 -1763 -1764 -1766 0
-1757 1759 1760 1761 1762 1764 0
-1761 -1762 -1763 -1764 1766 0
1757 1762 1763 1764 -1766 0
1758 1761 -1764 1765 0
-1758 -1767 0
1757 1758 1759 1762 1764 1767 0
1758 1759 1760 1762 1763 1767 0
-1758 -1761 -1762 1763 1764 0
-1759 -1760 -1761 -1763 1764 0
-1757 -1759 -1761 1763 -1764 0
1757 1759 1760 -1765 0
1761 1763 1764 -1765 0
1758 -1759 1762 1763 1764 0
1758 1759 -1760 1763 1765 0
-1761 -1767 0
1757 1758 1760 1761 1767 0
1761 -1763 1764 1765 0
1761 1763 -1764 1765 0
-1762 -1767 0
-1765 -1767 0
-1765 -1766 0
1765 1766 1767 0
1768 1770 1772 1773 1774 -1776 0
1768 -1770 -1771 -1773 -1774 1775 0
1769 -1770 1771 1772 -1773 1775 0
1768 1769 -1771 -1772 -1774 1775 1777 0
1769 -1770 1771 1772 -1773 1774 0
1769 1770 1771 -1772 1774 -1775 1777 0
1768 1771 -1774 -1775 1777 0
1768 1771 1774 1775 1777 1778 0
1768 -1769 1771 1774 1775 0
-1768 -1769 1771 1772 -1773 -1775 0
1770 1771 -1772 -1774 1775 1777 0
1768 1769 -1771 -1773 1774 -1777 0
-1770 1771 1774 -1775 -1777 0
-1769 -1771 -1774 1775 -1777 0
1768 -1769 -1771 1772 -1773 -1774 0
1768 1769 1770 1771 1778 0
1768 -1770 -1774 1775 -1777 0
-1768 1769 1771 -1772 -1774 1775 1777 0
1768 1769 -1771 -1772 1774 -1775 1777 0
-1768 -1769 1771 1772 1773 1775 0
-1768 -1770 1772 -1775 -1777 0
-1768 -1771 1772 1774 -1777 0
1768 -1771 -1773 -1775 -1777 0
1768 -1769 -1770 -1772 -1777 0
-1768 1769 -1770 1771 -1773 -1777 0
1768 1769 -1770 -1771 -1773 1774 -1775 0
-1768 -1771 -1774 -1775 1777 0
-1769 1772 -1774 -1775 1777 0
1768 -1769 1771 -1772 1777 0
-1768 -1771 1774 1775 1777 0
1768 -1769 -1771 1772 1773 -1775 0
-1768 -1769 1770 -1771 1777 0
-1769 1770 -1771 -1772 1774 -1775 0
-1768 1769 1770 -1771 -1774 -1775 0
-1772 1773 -1774 -1775 -1777 0
-1768 -1769 1771 -1772 -1777 0
-1768 1769 1770 1775 -1777 0
1770 1771 -1774 -1775 -1777 0
-1768 1770 1771 1772 1773 1775 0
-1772 -1773 -1774 -1775 1777 0
1768 1773 1774 1775 -1777 0
1769 1772 -1775 1776 0
-1769 -1778 0
1768 1769 1770 1773 1775 1778 0
1769 1770 1771 1773 1774 1778 0
-1769 -1772 -1773 1774 1775 0
-1770 -1771 -1772 -1774 1775 0
-1768 -1770 -1772 1774 -1775 0
1768 1770 1771 -1776 0
1772 1774 1775 -1776 0
1769 -1770 1773 1774 1775 0
1769 1770 -1771 1774 1776 0
-1772 -1778 0
1768 1769 1771 1772 1778 0
1772 -1774 1775 1776 0
1772 1774 -1775 1776 0
-1773 -1778 0
-1776 -1778 0
-1776 -1777 0
1776 1777 1778 0
1779 1781 1783 1784 1785 -1787 0
1779 -1781 -1782 -1784 -1785 1786 0
1780 -1781 1782 1783 -1784 1786 0
1779 1780 -1782 -1783 -1785 1786 1788 0
1780 -1781 1782 1783 -1784 1785 0
1780 1781 1782 -1783 1785 -1786 1788 0
1779 1782 -1785 -1786 1788 0
1779 1782 1785 1786 1788 1789 0
1779 -1780 1782 1785 1786 0
-1779 -1780 1782 1783 -1784 -1786 0
1781 1782 -1783 -1785 1786 1788 0
1779 1780 -1782 -1784 1785 -1788 0
-1781 1782 1785 -1786 -1788 0
-1780 -1782 -1785 1786 -1788 0
1779 -1780 -1782 1783 -1784 -1785 0
1779 1780 1781 1782 1789 0
1779 -1781 -1785 1786 -1788 0
-1779 1780 1782 -1783 -1785 1786 1788 0
1779 1780 -1782 -1783 1785 -1786 1788 0
-1779 -1780 1782 1783 1784 1786 0
-1779 -1781 1783 -1786 -1788 0
-1779 -1782 1783 1785 -1788 0
1779 -1782 -1784 -1786 -1788 0
1779 -1780 -1781 -1783 -1788 0
-1779 1780 -1781 1782 -1784 -1788 0
1779 1780 -1781 -1782 -1784 1785 -1786 0
-1779 -1782 -1785 -1786 1788 0
-1780 1783 -1785 -1786 1788 0
1779 -1780 1782 -1783 1788 0
-1779 -1782 1785 1786 1788 0
1779 -1780 -1782 1783 1784 -1786 0
-1779 -1780 1781 -1782 1788 0
-1780 1781 -1782 -1783 1785 -1786 0
-1779 1780 1781 -1782 -1785 -1786 0
-1783 1784 -1785 -1786 -1788 0
-1779 -1780 1782 -1783 -1788 0
-1779 1780 1781 1786 -1788 0
1781 1782 -1785 -1786 -1788 0
-1779 1781 1782 1783 1784 1786 0
-1783 -1784 -1785 -1786 1788 0
1779 1784 1785 1786 -1788 0
1780 1783 -1786 1787 0
-1780 -1789 0
1779 1780 1781 1784 1786 1789 0
1780 1781 1782 1784 1785 1789 0
-1780 -1783 -1784 1785 1786 0
-1781 -1782 -1783 -1785 1786 0
-1779 -1781 -1783 1785 -1786 0
1779 1781 1782 -1787 0
1783 1785 1786 -1787 0
1780 -1781 1784 1785 1786 0
1780 1781 -1782 1785 1787 0
-1783 -1789 0
1779 1780 1782 1783 1789 0
1783 -1785 1786 1787 0
1783 1785 -1786 1787 0
-1784 -1789 0
-1787 -1789 0
-1787 -1788 0
1787 1788 1789 0
1790 1792 1794 1795 1796 -1798 0
1790 -1792 -1793 -1795 -1796 1797 0
1791 -1792 1793 1794 -1795 1797 0
1790 1791 -1793 -1794 -1796 1797 1799 0
1791 -1792 1793 1794 -1795 1796 0
1791 1792 1793 -1794 1796 -1797 1799 0
1790 1793 -1796 -1797 1799 0
1790 1793 1796 1797 1799 1800 0
1790 -1791 1793 1796 1797 0
-1790 -1791 1793 1794 -1795 -1797 0
1792 1793 -1794 -1796 1797 1799 0
1790 1791 -1793 -1795 1796 -1799 0
-1792 1793 1796 -1797 -1799 0
-1791 -1793 -1796 1797 -1799 0
1790 -1791 -1793 1794 -1795 -1796 0
1790 1791 1792 1793 1800 0
1790 -1792 -1796 1797 -1799 0
-1790 1791 1793 -1794 -1796 1797 1799 0
1790 1791 -1793 -1794 1796 -1797 1799 0
-1790 -1791 1793 1794 1795 1797 0
-1790 -1792 1794 -1797 -1799 0
-1790 -1793 1794 1796 -1799 0
1790 -1793 -1795 -1797 -1799 0
1790 -1791 -1792 -1794 -1799 0
-1790 1791 -1792 1793 -1795 -1799 0
1790 1791 -1792 -1793 -1795 1796 -1797 0
-1790 -1793 -1796 -1797 1799 0
-1791 1794 -1796 -1797 1799 0
1790 -1791 1793 -1794 1799 0
-1790 -1793 1796 1797 1799 0
1790 -1791 -1793 1794 1795 -1797 0
-1790 -1791 1792 -1793 1799 0
-1791 1792 -1793 -1794 1796 -1797 0
-1790 1791 1792 -1793 -1796 -1797 0
-1794 1795 -1796 -1797 -1799 0
-1790 -1791 1793 -1794 -1799 0
-1790 1791 1792 1797 -1799 0
1792 1793 -1796 -1797 -1799 0
-1790 1792 1793 1794 1795 1797 0
-1794 -1795 -1796 -1797 1799 0
1790 1795 1796 1797 -1799 0
1791 1794 -1797 1798 0
-1791 -1800 0
1790 1791 1792 1795 1797 1800 0
1791 1792 1793 1795 1796 1800 0
-1791 -1794 -1795 1796 1797 0
-1792 -1793 -1794 -1796 1797 0
-1790 -1792 -1794 1796 -1797 0
1790 1792 1793 -1798 0
1794 1796 1797 -1798 0
1791 -1792 1795 1796 1797 0
1791 1792 -1793 1796 1798 0
-1794 -1800 0
1790 1791 1793 1794 1800 0
1794 -1796 1797 1798 0
1794 1796 -1797 1798 0
-1795 -1800 0
-1798 -1800 0
-1798 -1799 0
1798 1799 1800 0
1801 1803 1805 1806 1807 -1809 0
1801 -1803 -1804 -1806 -1807 1808 0
1802 -1803 1804 1805 -1806 1808 0
1801 1802 -1804 -1805 -1807 1808 1810 0
1802 -1803 1804 1805 -1806 1807 0
1802 1803 1804 -1805 1807 -1808 1810 0
1801 1804 -1807 -1808 1810 0
1801 1804 1807 1808 1810 1811 0
1801 -1802 1804 1807 1808 0
-1801 -1802 1804 1805 -1806 -1808 0
1803 1804 -1805 -1807 1808 1810 0
1801 1802 -1804 -1806 1807 -1810 0
-1803 1804 1807 -1808 -1810 0
-1802 -1804 -1807 1808 -1810 0
1801 -1802 -1804 1805 -1806 -1807 0
1801 1802 1803 1804 1811 0
1801 -1803 -1807 1808 -1810 0
-1801 1802 1804 -1805 -1807 1808 1810 0
1801 1802 -1804 -1805 1807 -1808 1810 0
-1801 -1802 1804 1805 1806 1808 0
-1801 -1803 1805 -1808 -1810 0
-1801 -1804 1805 1807 -1810 0
1801 -1804 -1806 -1808 -1810 0
1801 -1802 -1803 -1805 -1810 0
-1801 1802 -1803 1804 -1806 -1810 0
1801 1802 -1803 -1804 -1806 1807 -1808 0
-1801 -1804 -1807 -1808 1810 0
-1802 1805 -1807 -1808 1810 0
1801 -1802 1804 -1805 1810 0
-1801 -1804 1807 1808 1810 0
1801 -1802 -1804 1805 1806 -1808 0
-1801 -1802 1803 -1804 1810 0
-1802 1803 -1804 -1805 1807 -1808 0
-1801 1802 1803 -1804 -1807 -1808 0
-1805 1806 -1807 -1808 -1810 0
-1801 -1802 1804 -1805 -1810 0
-1801 1802 1803 1808 -1810 0
1803 1804 -1807 -1808 -1810 0
-1801 1803 1804 1805 1806 1808 0
-1805 -1806 -1807 -1808 1810 0
1801 1806 1807 1808 -1810 0
1802 1805 -1808 1809 0
-1802 -1811 0
1801 1802 1803 1806 1808 1811 0
1802 1803 1804 1806 1807 1811 0
-1802 -1805 -1806 1807 1808 0
-1803 -1804 -1805 -1807 1808 0
-1801 -1803 -1805 1807 -1808 0
1801 1803 1804 -1809 0
1805 1807 1808 -1809 0
1802 -1803 1806 1807 1808 0
1802 1803 -1804 1807 1809 0
-1805 -1811 0
1801 1802 1804 1805 1811 0
1805 -1807 1808 1809 0
1805 1807 -1808 1809 0
-1806 -1811 0
-1809 -1811 0
-1809 -1810 0
1809 1810 1811 0
1812 1814 1816 1817 1818 -1820 0
1812 -1814 -1815 -1817 -1818 1819 0
1813 -1814 1815 1816 -1817 1819 0
1812 1813 -1815 -1816 -1818 1819 1821 0
1813 -1814 1815 1816 -1817 1818 0
1813 1814 1815 -1816 1818 -1819 1821 0
1812 1815 -1818 -1819 1821 0
1812 1815 1818 1819 1821 1822 0
1812 -1813 1815 1818 1819 0
-1812 -1813 1815 1816 -1817 -1819 0
1814 1815 -1816 -1818 1819 1821 0
1812 1813 -1815 -1817 1818 -1821 0
-1814 1815 1818 -1819 -1821 0
-1813 -1815 -1818 1819 -1821 0
1812 -1813 -1815 1816 -1817 -1818 0
1812 1813 1814 1815 1822 0
1812 -1814 -1818 1819 -1821 0
-1812 1813 1815 -1816 -1818 1819 1821 0
1812 1813 -1815 -1816 1818 -1819 1821 0
-1812 -1813 1815 1816 1817 1819 0
-1812 -1814 1816 -1819 -1821 0
-1812 -1815 1816 1818 -1821 0
1812 -1815 -1817 -1819 -1821 0
1812 -1813 -1814 -1816 -1821 0
-1812 1813 -1814 1815 -1817 -1821 0
1812 1813 -1814 -1815 -1817 1818 -1819 0
-1812 -1815 -1818 -1819 1821 0
-1813 1816 -1818 -1819 1821 0
1812 -1813 1815 -1816 1821 0
-1812 -1815 1818 1819 1821 0
1812 -1813 -1815 1816 1817 -1819 0
-1812 -1813 1814 -1815 1821 0
-1813 1814 -1815 -1816 1818 -1819 0
-1812 1813 1814 -1815 -1818 -1819 0
-1816 1817 -1818 -1819 -1821 0
-1812 -1813 1815 -1816 -1821 0
-1812 1813 1814 1819 -1821 0
1814 1815 -1818 -1819 -1821 0
-1812 1814 1815 1816 1817 1819 0
-1816 -1817 -1818 -1819 1821 0
1812 1817 1818 1819 -1821 0
1813 1816 -1819 1820 0
-1813 -1822 0
1812 1813 1814 1817 1819 1822 0
1813 1814 1815 1817 1818 1822 0
-1813 -1816 -1817 1818 1819 0
-1814 -1815 -1816 -1818 1819 0
-1812 -1814 -1816 1818 -1819 0
1812 1814 1815 -1820 0
1816 1818 1819 -1820 0
1813 -1814 1817 1818 1819 0
1813 1814 -1815 1818 1820 0
-1816 -1822 0
1812 1813 1815 1816 1822 0
1816 -1818 1819 1820 0
1816 1818 -1819 1820 0
-1817 -1822 0
-1820 -1822 0
-1820 -1821 0
1820 1821 1822 0
1823 1825 1827 1828 1829 -1831 0
1823 -1825 -1826 -1828 -1829 1830 0
1824 -1825 1826 1827 -1828 1830 0
1823 1824 -1826 -1827 -1829 1830 1832 0
1824 -1825 1826 1827 -1828 1829 0
1824 1825 1826 -1827 1829 -1830 1832 0
1823 1826 -1829 -1830 1832 0
1823 1826 1829 1830 1832 1833 0
1823 -1824 1826 1829 1830 0
-1823 -1824 1826 1827 -1828 -1830 0
1825 1826 -1827 -1829 1830 1832 0
1823 1824 -1826 -1828 1829 -1832 0
-1825 1826 1829 -1830 -1832 0
-1824 -1826 -1829 1830 -1832 0
1823 -1824 -1826 1827 -1828 -1829 0
1823 1824 1825 1826 1833 0
1823 -1825 -1829 1830 -1832 0
-1823 1824 1826 -1827 -1829 1830 1832 0
1823 1824 -1826 -1827 1829 -1830 1832 0
-1823 -1824 1826 1827 1828 1830 0
-1823 -1825 1827 -1830 -1832 0
-1823 -1826 1827 1829 -1832 0
1823 -1826 -1828 -1830 -1832 0
1823 -1824 -1825 -1827 -1832 0
-1823 1824 -1825 1826 -1828 -1832 0
1823 1824 -1825 -1826 -1828 1829 -1830 0
-1823 -1826 -1829 -1830 1832 0
-1824 1827 -1829 -1830 1832 0
1823 -1824 1826 -1827 1832 0
-1823 -1826 1829 1830 1832 0
1823 -1824 -1826 1827 1828 -1830 0
-1823 -1824 1825 -1826 1832 0
-1824 1825 -1826 -1827 1829 -1830 0
-1823 1824 1825 -1826 -1829 -1830 0
-1827 1828 -1829 -1830 -1832 0
-1823 -1824 1826 -1827 -1832 0
-1823 1824 1825 1830 -1832 0
1825 1826 -1829 -1830 -1832 0
-1823 1825 1826 1827 1828 1830 0
-1827 -1828 -1829 -1830 1832 0
1823 1828 1829 1830 -1832 0
1824 1827 -1830 1831 0
-1824 -1833 0
1823 1824 1825 1828 1830 1833 0
1824 1825 1826 1828 1829 1833 0
-1824 -1827 -1828 1829 1830 0
-1825 -1826 -1827 -1829 1830 0
-1823 -1825 -1827 1829 -1830 0
1823 1825 1826 -1831 0
1827 1829 1830 -1831 0
1824 -1825 1828 1829 1830 0
1824 1825 -1826 1829 1831 0
-1827 -1833 0
1823 1824 1826 1827 1833 0
1827 -1829 1830 1831 0
1827 1829 -1830 1831 0
-1828 -1833 0
-1831 -1833 0
-1831 -1832 0
1831 1832 1833 0
1834 1836 1838 1839 1840 -1842 0
1834 -1836 -1837 -1839 -1840 1841 0
1835 -1836 1837 1838 -1839 1841 0
1834 1835 -1837 -1838 -1840 1841 1843 0
1835 -1836 1837 1838 -1839 1840 0
1835 1836 1837 -1838 1840 -1841 1843 0
1834 1837 -1840 -1841 1843 0
1834 1837 1840 1841 1843 1844 0
1834 -1835 1837 1840 1841 0
-1834 -1835 1837 1838 -1839 -1841 0
1836 1837 -1838 -1840 1841 1843 0
1834 1835 -1837 -1839 1840 -1843 0
-1836 1837 1840 -1841 -1843 0
-1835 -1837 -1840 1841 -1843 0
1834 -1835 -1837 1838 -1839 -1840 0
1834 1835 1836 1837 1844 0
1834 -1836 -1840 1841 -1843 0
-1834 1835 1837 -1838 -1840 1841 1843 0
1834 1835 -1837 -1838 1840 -1841 1843 0
-1834 -1835 1837 1838 1839 1841 0
-1834 -1836 1838 -1841 -1843 0
-1834 -1837 1838 1840 -1843 0
1834 -1837 -1839 -1841 -1843 0
1834 -1835 -1836 -1838 -1843 0
-1834 1835 -1836 1837 -1839 -1843 0
1834 1835 -1836 -1837 -1839 1840 -1841 0
-1834 -1837 -1840 -1841 1843 0
-1835 1838 -1840 -1841 1843 0
1834 -1835 1837 -1838 1843 0
-1834 -1837 1840 1841 1843 0
1834 -1835 -1837 1838 1839 -1841 0
-1834 -1835 1836 -1837 1843 0
-1835 1836 -1837 -1838 1840 -1841 0
-1834 1835 1836 -1837 -1840 -1841 0
-1838 1839 -1840 -1841 -1843 0
-1834 -1835 1837 -1838 -1843 0
-1834 1835 1836 1841 -1843 0
1836 1837 -1840 -1841 -1843 0
-1834 1836 1837 1838 1839 1841 0
-1838 -1839 -1840 -1841 1843 0
1834 1839 1840 1841 -1843 0
1835 1838 -1841 1842 0
-1835 -1844 0
1834 1835 1836 1839 1841 1844 0
1835 1836 1837 1839 1840 1844 0
-1835 -1838 -1839 1840 1841 0
-1836 -1837 -1838 -1840 1841 0
-1834 -1836 -1838 1840 -1841 0
1834 1836 1837 -1842 0
1838 1840 1841 -1842 0
1835 -1836 1839 1840 1841 0
1835 1836 -1837 1840 1842 0
-1838 -1844 0
1834 1835 1837 1838 1844 0
1838 -1840 1841 1842 0
1838 1840 -1841 1842 0
-1839 -1844 0
-1842 -1844 0
-1842 -1843 0
1842 1843 1844 0
1845 1847 1849 1850 1851 -1853 0
1845 -1847 -1848 -1850 -1851 1852 0
1846 -1847 1848 1849 -1850 1852 0
1845 1846 -1848 -1849 -1851 1852 1854 0
1846 -1847 1848 1849 -1850 1851 0
1846 1847 1848 -1849 1851 -1852 1854 0
1845 1848 -1851 -1852 1854 0
1845 1848 1851 1852 1854 1855 0
1845 -1846 1848 1851 1852 0
-1845 -1846 1848 1849 -1850 -1852 0
1847 1848 -1849 -1851 1852 1854 0
1845 1846 -1848 -1850 1851 -1854 0
-1847 1848 1851 -1852 -1854 0
-1846 -1848 -1851 1852 -1854 0
1845 -1846 -1848 1849 -1850 -1851 0
1845 1846 1847 1848 1855 0
1845 -1847 -1851 1852 -1854 0
-1845 1846 1848 -1849 -1851 1852 1854 0
1845 1846 -1848 -1849 1851 -1852 1854 0
-1845 -1846 1848 1849 1850 1852 0
-1845 -1847 1849 -1852 -1854 0
-1845 -1848 1849 1851 -1854 0
1845 -1848 -1850 -1852 -1854 0
1845 -1846 -1847 -1849 -1854 0
-1845 1846 -1847 1848 -1850 -1854 0
1845 1846 -1847 -1848 -1850 1851 -1852 0
-1845 -1848 -1851 -1852 1854 0
-1846 1849 -1851 -1852 1854 0
1845 -1846 1848 -1849 1854 0
-1845 -1848 1851 1852 1854 0
1845 -1846 -1848 1849 1850 -1852 0
-1845 -1846 1847 -1848 1854 0
-1846 1847 -1848 -1849 1851 -1852 0
-1845 1846 1847 -1848 -1851 -1852 0
-1849 1850 -1851 -1852 -1854 0
-1845 -1846 1848 -1849 -1854 0
-1845 1846 1847 1852 -1854 0
1847 1848 -1851 -1852 -1854 0
-1845 1847 1848 1849 1850 1852 0
-1849 -1850 -1851 -1852 1854 0
1845 1850 1851 1852 -1854 0
1846 1849 -1852 1853 0
-1846 -1855 0
1845 1846 1847 1850 1852 1855 0
1846 1847 1848 1850 1851 1855 0
-1846 -1849 -1850 1851 1852 0
-1847 -1848 -1849 -1851 1852 0
-1845 -1847 -1849 1851 -1852 0
1845 1847 1848 -1853 0
1849 1851 1852 -1853 0
1846 -1847 1850 1851 1852 0
1846 1847 -1848 1851 1853 0
-1849 -1855 0
1845 1846 1848 1849 1855 0
1849 -1851 1852 1853 0
1849 1851 -1852 1853 0
-1850 -1855 0
-1853 -1855 0
-1853 -1854 0
1853 1854 1855 0
1856 1858 1860 1861 1862 -1864 0
1856 -1858 -1859 -1861 -1862 1863 0
1857 -1858 1859 1860 -1861 1863 0
1856 1857 -1859 -1860 -1862 1863 1865 0
1857 -1858 1859 1860 -1861 1862 0
1857 1858 1859 -1860 1862 -1863 1865 0
1856 1859 -1862 -1863 1865 0
1856 1859 1862 1863 1865 1866 0
1856 -1857 1859 1862 1863 0
-1856 -1857 1859 1860 -1861 -1863 0
1858 1859 -1860 -1862 1863 1865 0
1856 1857 -1859 -1861 1862 -1865 0
-1858 1859 1862 -1863 -1865 0
-1857 -1859 -1862 1863 -1865 0
1856 -1857 -1859 1860 -1861 -1862 0
1856 1857 1858 1859 1866 0
1856 -1858 -1862 1863 -1865 0
-1856 1857 1859 -1860 -1862 1863 1865 0
1856 1857 -1859 -1860 1862 -1863 1865 0
-1856 -1857 1859 1860 1861 1863 0
-1856 -1858 1860 -1863 -1865 0
-1856 -1859 1860 1862 -1865 0
1856 -1859 -1861 -1863 -1865 0
1856 -1857 -1858 -1860 -1865 0
-1856 1857 -1858 1859 -1861 -1865 0
1856 1857 -1858 -1859 -1861 1862 -1863 0
-1856 -1859 -1862 -1863 1865 0
-1857 1860 -1862 -1863 1865 0
1856 -1857 1859 -1860 1865 0
-1856 -1859 1862 1863 1865 0
1856 -1857 -1859 1860 1861 -1863 0
-1856 -1857 1858 -1859 1865 0
-1857 1858 -1859 -1860 1862 -1863 0
-1856 1857 1858 -1859 -1862 -1863 0
-1860 1861 -1862 -1863 -1865 0
-1856 -1857 1859 -1860 -1865 0
-1856 1857 1858 1863 -1865 0
1858 1859 -1862 -1863 -1865 0
-1856 1858 1859 1860 1861 1863 0
-1860 -1861 -1862 -1863 1865 0
1856 1861 1862 1863 -1865 0
1857 1860 -1863 1864 0
-1857 -1866 0
1856 1857 1858 1861 1863 1866 0
1857 1858 1859 1861 1862 1866 0
-1857 -1860 -1861 1862 1863 0
-1858 -1859 -1860 -1862 1863 0
-1856 -1858 -1860 1862 -1863 0
1856 1858 1859 -1864 0
1860 1862 1863 -1864 0
1857 -1858 1861 1862 1863 0
1857 1858 -1859 1862 1864 0
-1860 -1866 0
1856 1857 1859 1860 1866 0
1860 -1862 1863 1864 0
1860 1862 -1863 1864 0
-1861 -1866 0
-1864 -1866 0
-1864 -1865 0
1864 1865 1866 0
1867 1869 1871 1872 1873 -1875 0
1867 -1869 -1870 -1872 -1873 1874 0
1868 -1869 1870 1871 -1872 1874 0
1867 1868 -1870 -1871 -1873 1874 1876 0
1868 -1869 1870 1871 -1872 1873 0
1868 1869 1870 -1871 1873 -1874 1876 0
1867 1870 -1873 -1874 1876 0
1867 1870 1873 1874 1876 1877 0
1867 -1868 1870 1873 1874 0
-1867 -1868 1870 1871 -1872 -1874 0
1869 1870 -1871 -1873 1874 1876 0
1867 1868 -1870 -1872 1873 -1876 0
-1869 1870 1873 -1874 -1876 0
-1868 -1870 -1873 1874 -1876 0
1867 -1868 -1870 1871 -1872 -1873 0
1867 1868 1869 1870 1877 0
1867 -1869 -1873 1874 -1876 0
-1867 1868 1870 -1871 -1873 1874 1876 0
1867 1868 -1870 -1871 1873 -1874 1876 0
-1867 -1868 1870 1871 1872 1874 0
-1867 -1869 1871 -1874 -1876 0
-1867 -1870 1871 1873 -1876 0
1867 -1870 -1872 -1874 -1876 0
1867 -1868 -1869 -1871 -1876 0
-1867 1868 -1869 1870 -1872 -1876 0
1867 1868 -1869 -1870 -1872 1873 -1874 0
-1867 -1870 -1873 -1874 1876 0
-1868 1871 -1873 -1874 1876 0
1867 -1868 1870 -1871 1876 0
-1867 -1870 1873 1874 1876 0
1867 -1868 -1870 1871 1872 -1874 0
-1867 -1868 1869 -1870 1876 0
-1868 1869 -1870 -1871 1873 -1874 0
-1867 1868 1869 -1870 -1873 -1874 0
-1871 1872 -1873 -1874 -1876 0
-1867 -1868 1870 -1871 -1876 0
-1867 1868 1869 1874 -1876 0
1869 1870 -1873 -1874 -1876 0
-1867 1869 1870 1871 1872 1874 0
-1871 -1872 -1873 -1874 1876 0
1867 1872 1873 1874 -1876 0
1868 1871 -1874 1875 0
-1868 -1877 0
1867 1868 1869 1872 1874 1877 0
1868 1869 1870 1872 1873 1877 0
-1868 -1871 -1872 1873 1874 0
-1869 -1870 -1871 -1873 1874 0
-1867 -1869 -1871 1873 -1874 0
1867 1869 1870 -1875 0
1871 1873 1874 -1875 0
1868 -1869 1872 1873 1874 0
1868 1869 -1870 1873 1875 0
-1871 -1877 0
1867 1868 1870 1871 1877 0
1871 -1873 1874 1875 0
1871 1873 -1874 1875 0
-1872 -1877 0
-1875 -1877 0
-1875 -1876 0
1875 1876 1877 0
1878 1880 1882 1883 1884 -1886 0
1878 -1880 -1881 -1883 -1884 1885 0
1879 -1880 1881 1882 -1883 1885 0
1878 1879 -1881 -1882 -1884 1885 1887 0
1879 -1880 1881 1882 -1883 1884 0
1879 1880 1881 -1882 1884 -1885 1887 0
1878 1881 -1884 -1885 1887 0
1878 1881 1884 1885 1887 1888 0
1878 -1879 1881 1884 1885 0
-1878 -1879 1881 1882 -1883 -1885 0
1880 1881 -1882 -1884 1885 1887 0
1878 1879 -1881 -1883 1884 -1887 0
-1880 1881 1884 -1885 -1887 0
-1879 -1881 -1884 1885 -1887 0
1878 -1879 -1881 1882 -1883 -1884 0
1878 1879 1880 1881 1888 0
1878 -1880 -1884 1885 -1887 0
-1878 1879 1881 -1882 -1884 1885 1887 0
1878 1879 -1881 -1882 1884 -1885 1887 0
-1878 -1879 1881 1882 1883 1885 0
-1878 -1880 1882 -1885 -1887 0
-1878 -1881 1882 1884 -1887 0
1878 -1881 -1883 -1885 -1887 0
1878 -1879 -1880 -1882 -1887 0
-1878 1879 -1880 1881 -1883 -1887 0
1878 1879 -1880 -1881 -1883 1884 -1885 0
-1878 -1881 -1884 -1885 1887 0
-1879 1882 -1884 -1885 1887 0
1878 -1879 1881 -1882 1887 0
-1878 -1881 1884 1885 1887 0
1878 -1879 -1881 1882 1883 -1885 0
-1878 -1879 1880 -1881 1887 0
-1879 1880 -1881 -1882 1884 -1885 0
-1878 1879 1880 -1881 -1884 -1885 0
-1882 1883 -1884 -1885 -1887 0
-1878 -1879 1881 -1882 -1887 0
-1878 1879 1880 1885 -1887 0
1880 1881 -1884 -1885 -1887 0
-1878 1880 1881 1882 1883 1885 0
-1882 -1883 -1884 -1885 1887 0
1878 1883 1884 1885 -1887 0
1879 1882 -1885 1886 0
-1879 -1888 0
1878 1879 1880 1883 1885 1888 0
1879 1880 1881 1883 1884 1888 0
-1879 -1882 -1883 1884 1885 0
-1880 -1881 -1882 -1884 1885 0
-1878 -1880 -1882 1884 -1885 0
1878 1880 1881 -1886 0
1882 1884 1885 -1886 0
1879 -1880 1883 1884 1885 0
1879 1880 -1881 1884 1886 0
-1882 -1888 0
1878 1879 1881 1882 1888 0
1882 -1884 1885 1886 0
1882 1884 -1885 1886 0
-1883 -1888 0
-1886 -1888 0
-1886 -1887 0
1886 1887 1888 0
-2017 1889 0
2017 -1889 0
-2018 1890 0
2018 -1890 0
-2019 1891 0
2019 -1891 0
-2020 1892 0
2020 -1892 0
-2021 1893 0
2021 -1893 0
-2022 1894 0
2022 -1894 0
-2023 1895 0
2023 -1895 0
-2024 1896 0
2024 -1896 0
-2025 1897 0
2025 -1897 0
-2026 1898 0
2026 -1898 0
-2027 1899 0
2027 -1899 0
-2028 1900 0
2028 -1900 0
-2029 1901 0
2029 -1901 0
-2030 1902 0
2030 -1902 0
-2031 1903 0
2031 -1903 0
-2032 1904 0
2032 -1904 0
-2033 1905 0
2033 -1905 0
-2034 1906 0
2034 -1906 0
-2035 1907 0
2035 -1907 0
-2036 1908 0
2036 -1908 0
-2037 1909 0
2037 -1909 0
-2038 1910 0
2038 -1910 0
-2039 1911 0
2039 -1911 0
-2040 1912 0
2040 -1912 0
-2041 1913 0
2041 -1913 0
-2042 1914 0
2042 -1914 0
-2043 1915 0
2043 -1915 0
-2044 1916 0
2044 -1916 0
-2045 1917 0
2045 -1917 0
-2046 1918 0
2046 -1918 0
-2047 1919 0
2047 -1919 0
-2048 1920 0
2048 -1920 0
-2049 1921 0
2049 -1921 0
-2050 1922 0
2050 -1922 0
-2051 1923 0
2051 -1923 0
-2052 1924 0
2052 -1924 0
-2053 1925 0
2053 -1925 0
-2054 1926 0
2054 -1926 0
-2055 1927 0
2055 -1927 0
-2056 1928 0
2056 -1928 0
-2057 1929 0
2057 -1929 0
-2058 1930 0
2058 -1930 0
-2059 1931 0
2059 -1931 0
-2060 1932 0
2060 -1932 0
-2061 1933 0
2061 -1933 0
-2062 1934 0
2062 -1934 0
-2063 1935 0
2063 -1935 0
-2064 1936 0
2064 -1936 0
-2065 1937 0
2065 -1937 0
-2066 1938 0
2066 -1938 0
-2067 1939 0
2067 -1939 0
-2068 1940 0
2068 -1940 0
-2069 1941 0
2069 -1941 0
-2070 1942 0
2070 -1942 0
-2071 1943 0
2071 -1943 0
-2072 1944 0
2072 -1944 0
-2073 1945 0
2073 -1945 0
-2074 1946 0
2074 -1946 0
-2075 1947 0
2075 -1947 0
-2076 1948 0
2076 -1948 0
-2077 1949 0
2077 -1949 0
-2078 1950 0
2078 -1950 0
-2079 1951 0
2079 -1951 0
-2080 1952 0
2080 -1952 0
-2081 1953 0
2081 -1953 0
-2082 1954 0
2082 -1954 0
-2083 1955 0
2083 -1955 0
-2084 1956 0
2084 -1956 0
-2085 1957 0
2085 -1957 0
-2086 1958 0
2086 -1958 0
-2087 1959 0
2087 -1959 0
-2088 1960 0
2088 -1960 0
-2089 1961 0
2089 -1961 0
-2090 1962 0
2090 -1962 0
-2091 1963 0
2091 -1963 0
-2092 1964 0
2092 -1964 0
-2093 1965 0
2093 -1965 0
-2094 1966 0
2094 -1966 0
-2095 1967 0
2095 -1967 0
-2096 1968 0
2096 -1968 0
-2097 1969 0
2097 -1969 0
-2098 1970 0
2098 -1970 0
-2099 1971 0
2099 -1971 0
-2100 1972 0
2100 -1972 0
-2101 1973 0
2101 -1973 0
-2102 1974 0
2102 -1974 0
-2103 1975 0
2103 -1975 0
-2104 1976 0
2104 -1976 0
-2105 1977 0
2105 -1977 0
-2106 1978 0
2106 -1978 0
-2107 1979 0
2107 -1979 0
-2108 1980 0
2108 -1980 0
-2109 1981 0
2109 -1981 0
-2110 1982 0
2110 -1982 0
-2111 1983 0
2111 -1983 0
-2112 1984 0
2112 -1984 0
-2113 1985 0
2113 -1985 0
-2114 1986 0
2114 -1986 0
-2115 1987 0
2115 -1987 0
-2116 1988 0
2116 -1988 0
-2117 1989 0
2117 -1989 0
-2118 1990 0
2118 -1990 0
-2119 1991 0
2119 -1991 0
-2120 1992 0
2120 -1992 0
-2121 1993 0
2121 -1993 0
-2122 1994 0
2122 -1994 0
-2123 1995 0
2123 -1995 0
-2124 1996 0
2124 -1996 0
-2125 1997 0
2125 -1997 0
-2126 1998 0
2126 -1998 0
-2127 1999 0
2127 -1999 0
-2128 2000 0
2128 -2000 0
-2129 2001 0
2129 -2001 0
-2130 2002 0
2130 -2002 0
-2131 2003 0
2131 -2003 0
-2132 2004 0
2132 -2004 0
-2133 2005 0
2133 -2005 0
-2134 2006 0
2134 -2006 0
-2135 2007 0
2135 -2007 0
-2136 2008 0
2136 -2008 0
-2137 2009 0
2137 -2009 0
-2138 2010 0
2138 -2010 0
-2139 2011 0
2139 -2011 0
-2140 2012 0
2140 -2012 0
-2141 2013 0
2141 -2013 0
-2142 2014 0
2142 -2014 0
-2143 2015 0
2143 -2015 0
-2144 2016 0
2144 -2016 0
1025 -1281 0
-1025 1281 0
1026 -1282 0
-1026 1282 0
1027 -1283 0
-1027 1283 0
1028 -1284 0
-1028 1284 0
1029 -1285 0
-1029 1285 0
1030 -1286 0
-1030 1286 0
1031 -1287 0
-1031 1287 0
1032 -1288 0
-1032 1288 0
1033 -1289 0
-1033 1289 0
1034 -1290 0
-1034 1290 0
1035 -1291 0
-1035 1291 0
1036 -1292 0
-1036 1292 0
1037 -1293 0
-1037 1293 0
1038 -1294 0
-1038 1294 0
1039 -1295 0
-1039 1295 0
1040 -1296 0
-1040 1296 0
1041 -1297 0
-1041 1297 0
1042 -1298 0
-1042 1298 0
1043 -1299 0
-1043 1299 0
1044 -1300 0
-1044 1300 0
1045 -1301 0
-1045 1301 0
1046 -1302 0
-1046 1302 0
1047 -1303 0
-1047 1303 0
1048 -1304 0
-1048 1304 0
1049 -1305 0
-1049 1305 0
1050 -1306 0
-1050 1306 0
1051 -1307 0
-1051 1307 0
1052 -1308 0
-1052 1308 0
1053 -1309 0
-1053 1309 0
1054 -1310 0
-1054 1310 0
1055 -1311 0
-1055 1311 0
1056 -1312 0
-1056 1312 0
1057 -1313 0
-1057 1313 0
1058 -1314 0
-1058 1314 0
1059 -1315 0
-1059 1315 0
1060 -1316 0
-1060 1316 0
1061 -1317 0
-1061 1317 0
1062 -1318 0
-1062 1318 0
1063 -1319 0
-1063 1319 0
1064 -1320 0
-1064 1320 0
1065 -1321 0
-1065 1321 0
1066 -1322 0
-1066 1322 0
1067 -1323 0
-1067 1323 0
1068 -1324 0
-1068 1324 0
1069 -1325 0
-1069 1325 0
1070 -1326 0
-1070 1326 0
1071 -1327 0
-1071 1327 0
1072 -1328 0
-1072 1328 0
1073 -1329 0
-1073 1329 0
1074 -1330 0
-1074 1330 0
1075 -1331 0
-1075 1331 0
1076 -1332 0
-1076 1332 0
1077 -1333 0
-1077 1333 0
1078 -1334 0
-1078 1334 0
1079 -1335 0
-1079 1335 0
1080 -1336 0
-1080 1336 0
1081 -1337 0
-1081 1337 0
1082 -1338 0
-1082 1338 0
1083 -1339 0
-1083 1339 0
1084 -1340 0
-1084 1340 0
1085 -1341 0
-1085 1341 0
1086 -1342 0
-1086 1342 0
1087 -1343 0
-1087 1343 0
1088 -1344 0
-1088 1344 0
1089 -1345 0
-1089 1345 0
1090 -1346 0
-1090 1346 0
1091 -1347 0
-1091 1347 0
1092 -1348 0
-1092 1348 0
1093 -1349 0
-1093 1349 0
1094 -1350 0
-1094 1350 0
1095 -1351 0
-1095 1351 0
1096 -1352 0
-1096 1352 0
1097 -1353 0
-1097 1353 0
1098 -1354 0
-1098 1354 0
1099 -1355 0
-1099 1355 0
1100 -1356 0
-1100 1356 0
1101 -1357 0
-1101 1357 0
1102 -1358 0
-1102 1358 0
1103 -1359 0
-1103 1359 0
1104 -1360 0
-1104 1360 0
1105 -1361 0
-1105 1361 0
1106 -1362 0
-1106 1362 0
1107 -1363 0
-1107 1363 0
1108 -1364 0
-1108 1364 0
1109 -1365 0
-1109 1365 0
1110 -1366 0
-1110 1366 0
1111 -1367 0
-1111 1367 0
1112 -1368 0
-1112 1368 0
1113 -1369 0
-1113 1369 0
1114 -1370 0
-1114 1370 0
1115 -1371 0
-1115 1371 0
1116 -1372 0
-1116 1372 0
1117 -1373 0
-1117 1373 0
1118 -1374 0
-1118 1374 0
1119 -1375 0
-1119 1375 0
1120 -1376 0
-1120 1376 0
1121 -1377 0
-1121 1377 0
1122 -1378 0
-1122 1378 0
1123 -1379 0
-1123 1379 0
1124 -1380 0
-1124 1380 0
1125 -1381 0
-1125 1381 0
1126 -1382 0
-1126 1382 0
1127 -1383 0
-1127 1383 0
1128 -1384 0
-1128 1384 0
1129 -1385 0
-1129 1385 0
1130 -1386 0
-1130 1386 0
1131 -1387 0
-1131 1387 0
1132 -1388 0
-1132 1388 0
1133 -1389 0
-1133 1389 0
1134 -1390 0
-1134 1390 0
1135 -1391 0
-1135 1391 0
1136 -1392 0
-1136 1392 0
1137 -1393 0
-1137 1393 0
1138 -1394 0
-1138 1394 0
1139 -1395 0
-1139 1395 0
1140 -1396 0
-1140 1396 0
1141 -1397 0
-1141 1397 0
1142 -1398 0
-1142 1398 0
1143 -1399 0
-1143 1399 0
1144 -1400 0
-1144 1400 0
1145 -1401 0
-1145 1401 0
1146 -1402 0
-1146 1402 0
1147 -1403 0
-1147 1403 0
1148 -1404 0
-1148 1404 0
1149 -1405 0
-1149 1405 0
1150 -1406 0
-1150 1406 0
1151 -1407 0
-1151 1407 0
1152 -1408 0
-1152 1408 0
2017 -1153 0
-2017 1153 0
2018 -1154 0
-2018 1154 0
2019 -1155 0
-2019 1155 0
2020 -1156 0
-2020 1156 0
2021 -1157 0
-2021 1157 0
2022 -1158 0
-2022 1158 0
2023 -1159 0
-2023 1159 0
2024 -1160 0
-2024 1160 0
2025 -1161 0
-2025 1161 0
2026 -1162 0
-2026 1162 0
2027 -1163 0
-2027 1163 0
2028 -1164 0
-2028 1164 0
2029 -1165 0
-2029 1165 0
2030 -1166 0
-2030 1166 0
2031 -1167 0
-2031 1167 0
2032 -1168 0
-2032 1168 0
2033 -1169 0
-2033 1169 0
2034 -1170 0
-2034 1170 0
2035 -1171 0
-2035 1171 0
2036 -1172 0
-2036 1172 0
2037 -1173 0
-2037 1173 0
2038 -1174 0
-2038 1174 0
2039 -1175 0
-2039 1175 0
2040 -1176 0
-2040 1176 0
2041 -1177 0
-2041 1177 0
2042 -1178 0
-2042 1178 0
2043 -1179 0
-2043 1179 0
2044 -1180 0
-2044 1180 0
2045 -1181 0
-2045 1181 0
2046 -1182 0
-2046 1182 0
2047 -1183 0
-2047 1183 0
2048 -1184 0
-2048 1184 0
2049 -1185 0
-2049 1185 0
2050 -1186 0
-2050 1186 0
2051 -1187 0
-2051 1187 0
2052 -1188 0
-2052 1188 0
2053 -1189 0
-2053 1189 0
2054 -1190 0
-2054 1190 0
2055 -1191 0
-2055 1191 0
2056 -1192 0
-2056 1192 0
2057 -1193 0
-2057 1193 0
2058 -1194 0
-2058 1194 0
2059 -1195 0
-2059 1195 0
2060 -1196 0
-2060 1196 0
2061 -1197 0
-2061 1197 0
2062 -1198 0
-2062 1198 0
2063 -1199 0
-2063 1199 0
2064 -1200 0
-2064 1200 0
2065 -1201 0
-2065 1201 0
2066 -1202 0
-2066 1202 0
2067 -1203 0
-2067 1203 0
2068 -1204 0
-2068 1204 0
2069 -1205 0
-2069 1205 0
2070 -1206 0
-2070 1206 0
2071 -1207 0
-2071 1207 0
2072 -1208 0
-2072 1208 0
2073 -1209 0
-2073 1209 0
2074 -1210 0
-2074 1210 0
2075 -1211 0
-2075 1211 0
2076 -1212 0
-2076 1212 0
2077 -1213 0
-2077 1213 0
2078 -1214 0
-2078 1214 0
2079 -1215 0
-2079 1215 0
2080 -1216 0
-2080 1216 0
2081 -1217 0
-2081 1217 0
2082 -1218 0
-2082 1218 0
2083 -1219 0
-2083 1219 0
2084 -1220 0
-2084 1220 0
2085 -1221 0
-2085 1221 0
2086 -1222 0
-2086 1222 0
2087 -1223 0
-2087 1223 0
2088 -1224 0
-2088 1224 0
2089 -1225 0
-2089 1225 0
2090 -1226 0
-2090 1226 0
2091 -1227 0
-2091 1227 0
2092 -1228 0
-2092 1228 0
2093 -1229 0
-2093 1229 0
2094 -1230 0
-2094 1230 0
2095 -1231 0
-2095 1231 0
2096 -1232 0
-2096 1232 0
2097 -1233 0
-2097 1233 0
2098 -1234 0
-2098 1234 0
2099 -1235 0
-2099 1235 0
2100 -1236 0
-2100 1236 0
2101 -1237 0
-2101 1237 0
2102 -1238 0
-2102 1238 0
2103 -1239 0
-2103 1239 0
2104 -1240 0
-2104 1240 0
2105 -1241 0
-2105 1241 0
2106 -1242 0
-2106 1242 0
2107 -1243 0
-2107 1243 0
2108 -1244 0
-2108 1244 0
2109 -1245 0
-2109 1245 0
2110 -1246 0
-2110 1246 0
2111 -1247 0
-2111 1247 0
2112 -1248 0
-2112 1248 0
2113 -1249 0
-2113 1249 0
2114 -1250 0
-2114 1250 0
2115 -1251 0
-2115 1251 0
2116 -1252 0
-2116 1252 0
2117 -1253 0
-2117 1253 0
2118 -1254 0
-2118 1254 0
2119 -1255 0
-2119 1255 0
2120 -1256 0
-2120 1256 0
2121 -1257 0
-2121 1257 0
2122 -1258 0
-2122 1258 0
2123 -1259 0
-2123 1259 0
2124 -1260 0
-2124 1260 0
2125 -1261 0
-2125 1261 0
2126 -1262 0
-2126 1262 0
2127 -1263 0
-2127 1263 0
2128 -1264 0
-2128 1264 0
2129 -1265 0
-2129 1265 0
2130 -1266 0
-2130 1266 0
2131 -1267 0
-2131 1267 0
2132 -1268 0
-2132 1268 0
2133 -1269 0
-2133 1269 0
2134 -1270 0
-2134 1270 0
2135 -1271 0
-2135 1271 0
2136 -1272 0
-2136 1272 0
2137 -1273 0
-2137 1273 0
2138 -1274 0
-2138 1274 0
2139 -1275 0
-2139 1275 0
2140 -1276 0
-2140 1276 0
2141 -1277 0
-2141 1277 0
2142 -1278 0
-2142 1278 0
2143 -1279 0
-2143 1279 0
2144 -1280 0
-2144 1280 0
-1533 1537 0
1533 -1537 0
-1534 1538 0
1534 -1538 0
-1535 1539 0
1535 -1539 0
-1536 1540 0
1536 -1540 0
-1529 1548 0
1529 -1548 0
-1530 1549 0
1530 -1549 0
-1531 1550 0
1531 -1550 0
-1532 1551 0
1532 -1551 0
-1525 1559 0
1525 -1559 0
-1526 1560 0
1526 -1560 0
-1527 1561 0
1527 -1561 0
-1528 1562 0
1528 -1562 0
-1521 1570 0
1521 -1570 0
-1522 1571 0
1522 -1571 0
-1523 1572 0
1523 -1572 0
-1524 1573 0
1524 -1573 0
-1517 1581 0
1517 -1581 0
-1518 1582 0
1518 -1582 0
-1519 1583 0
1519 -1583 0
-1520 1584 0
1520 -1584 0
-1513 1592 0
1513 -1592 0
-1514 1593 0
1514 -1593 0
-1515 1594 0
1515 -1594 0
-1516 1595 0
1516 -1595 0
-1509 1603 0
1509 -1603 0
-1510 1604 0
1510 -1604 0
-1511 1605 0
1511 -1605 0
-1512 1606 0
1512 -1606 0
-1505 1614 0
1505 -1614 0
-1506 1615 0
1506 -1615 0
-1507 1616 0
1507 -1616 0
-1508 1617 0
1508 -1617 0
-1501 1625 0
1501 -1625 0
-1502 1626 0
1502 -1626 0
-1503 1627 0
1503 -1627 0
-1504 1628 0
1504 -1628 0
-1497 1636 0
1497 -1636 0
-1498 1637 0
1498 -1637 0
-1499 1638 0
1499 -1638 0
-1500 1639 0
1500 -1639 0
-1493 1647 0
1493 -1647 0
-1494 1648 0
1494 -1648 0
-1495 1649 0
1495 -1649 0
-1496 1650 0
1496 -1650 0
-1489 1658 0
1489 -1658 0
-1490 1659 0
1490 -1659 0
-1491 1660 0
1491 -1660 0
-1492 1661 0
1492 -1661 0
-1485 1669 0
1485 -1669 0
-1486 1670 0
1486 -1670 0
-1487 1671 0
1487 -1671 0
-1488 1672 0
1488 -1672 0
-1481 1680 0
1481 -1680 0
-1482 1681 0
1482 -1681 0
-1483 1682 0
1483 -1682 0
-1484 1683 0
1484 -1683 0
-1477 1691 0
1477 -1691 0
-1478 1692 0
1478 -1692 0
-1479 1693 0
1479 -1693 0
-1480 1694 0
1480 -1694 0
-1473 1702 0
1473 -1702 0
-1474 1703 0
1474 -1703 0
-1475 1704 0
1475 -1704 0
-1476 1705 0
1476 -1705 0
-1469 1713 0
1469 -1713 0
-1470 1714 0
1470 -1714 0
-1471 1715 0
1471 -1715 0
-1472 1716 0
1472 -1716 0
-1465 1724 0
1465 -1724 0
-1466 1725 0
1466 -1725 0
-1467 1726 0
1467 -1726 0
-1468 1727 0
1468 -1727 0
-1461 1735 0
1461 -1735 0
-1462 1736 0
1462 -1736 0
-1463 1737 0
1463 -1737 0
-1464 1738 0
1464 -1738 0
-1457 1746 0
1457 -1746 0
-1458 1747 0
1458 -1747 0
-1459 1748 0
1459 -1748 0
-1460 1749 0
1460 -1749 0
-1453 1757 0
1453 -1757 0
-1454 1758 0
1454 -1758 0
-1455 1759 0
1455 -1759 0
-1456 1760 0
1456 -1760 0
-1449 1768 0
1449 -1768 0
-1450 1769 0
1450 -1769 0
-1451 1770 0
1451 -1770 0
-1452 1771 0
1452 -1771 0
-1445 1779 0
1445 -1779 0
-1446 1780 0
1446 -1780 0
-1447 1781 0
1447 -1781 0
-1448 1782 0
1448 -1782 0
-1441 1790 0
1441 -1790 0
-1442 1791 0
1442 -1791 0
-1443 1792 0
1443 -1792 0
-1444 1793 0
1444 -1793 0
-1437 1801 0
1437 -1801 0
-1438 1802 0
1438 -1802 0
-1439 1803 0
1439 -1803 0
-1440 1804 0
1440 -1804 0
-1433 1812 0
1433 -1812 0
-1434 1813 0
1434 -1813 0
-1435 1814 0
1435 -1814 0
-1436 1815 0
1436 -1815 0
-1429 1823 0
1429 -1823 0
-1430 1824 0
1430 -1824 0
-1431 1825 0
1431 -1825 0
-1432 1826 0
1432 -1826 0
-1425 1834 0
1425 -1834 0
-1426 1835 0
1426 -1835 0
-1427 1836 0
1427 -1836 0
-1428 1837 0
1428 -1837 0
-1421 1845 0
1421 -1845 0
-1422 1846 0
1422 -1846 0
-1423 1847 0
1423 -1847 0
-1424 1848 0
1424 -1848 0
-1417 1856 0
1417 -1856 0
-1418 1857 0
1418 -1857 0
-1419 1858 0
1419 -1858 0
-1420 1859 0
1420 -1859 0
-1413 1867 0
1413 -1867 0
-1414 1868 0
1414 -1868 0
-1415 1869 0
1415 -1869 0
-1416 1870 0
1416 -1870 0
-1409 1878 0
1409 -1878 0
-1410 1879 0
1410 -1879 0
-1411 1880 0
1411 -1880 0
-1412 1881 0
1412 -1881 0
-1882 1889 0
1882 -1889 0
-1883 1890 0
1883 -1890 0
-1884 1891 0
1884 -1891 0
-1885 1892 0
1885 -1892 0
-1871 1893 0
1871 -1893 0
-1872 1894 0
1872 -1894 0
-1873 1895 0
1873 -1895 0
-1874 1896 0
1874 -1896 0
-1860 1897 0
1860 -1897 0
-1861 1898 0
1861 -1898 0
-1862 1899 0
1862 -1899 0
-1863 1900 0
1863 -1900 0
-1849 1901 0
1849 -1901 0
-1850 1902 0
1850 -1902 0
-1851 1903 0
1851 -1903 0
-1852 1904 0
1852 -1904 0
-1838 1905 0
1838 -1905 0
-1839 1906 0
1839 -1906 0
-1840 1907 0
1840 -1907 0
-1841 1908 0
1841 -1908 0
-1827 1909 0
1827 -1909 0
-1828 1910 0
1828 -1910 0
-1829 1911 0
1829 -1911 0
-1830 1912 0
1830 -1912 0
-1816 1913 0
1816 -1913 0
-1817 1914 0
1817 -1914 0
-1818 1915 0
1818 -1915 0
-1819 1916 0
1819 -1916 0
-1805 1917 0
1805 -1917 0
-1806 1918 0
1806 -1918 0
-1807 1919 0
1807 -1919 0
-1808 1920 0
1808 -1920 0
-1794 1921 0
1794 -1921 0
-1795 1922 0
1795 -1922 0
-1796 1923 0
1796 -1923 0
-1797 1924 0
1797 -1924 0
-1783 1925 0
1783 -1925 0
-1784 1926 0
1784 -1926 0
-1785 1927 0
1785 -1927 0
-1786 1928 0
1786 -1928 0
-1772 1929 0
1772 -1929 0
-1773 1930 0
1773 -1930 0
-1774 1931 0
1774 -1931 0
-1775 1932 0
1775 -1932 0
-1761 1933 0
1761 -1933 0
-1762 1934 0
1762 -1934 0
-1763 1935 0
1763 -1935 0
-1764 1936 0
1764 -1936 0
-1750 1937 0
1750 -1937 0
-1751 1938 0
1751 -1938 0
-1752 1939 0
1752 -1939 0
-1753 1940 0
1753 -1940 0
-1739 1941 0
1739 -1941 0
-1740 1942 0
1740 -1942 0
-1741 1943 0
1741 -1943 0
-1742 1944 0
1742 -1944 0
-1728 1945 0
1728 -1945 0
-1729 1946 0
1729 -1946 0
-1730 1947 0
1730 -1947 0
-1731 1948 0
1731 -1948 0
-1717 1949 0
1717 -1949 0
-1718 1950 0
1718 -1950 0
-1719 1951 0
1719 -1951 0
-1720 1952 0
1720 -1952 0
-1706 1953 0
1706 -1953 0
-1707 1954 0
1707 -1954 0
-1708 1955 0
1708 -1955 0
-1709 1956 0
1709 -1956 0
-1695 1957 0
1695 -1957 0
-1696 1958 0
1696 -1958 0
-1697 1959 0
1697 -1959 0
-1698 1960 0
1698 -1960 0
-1684 1961 0
1684 -1961 0
-1685 1962 0
1685 -1962 0
-1686 1963 0
1686 -1963 0
-1687 1964 0
1687 -1964 0
-1673 1965 0
1673 -1965 0
-1674 1966 0
1674 -1966 0
-1675 1967 0
1675 -1967 0
-1676 1968 0
1676 -1968 0
-1662 1969 0
1662 -1969 0
-1663 1970 0
1663 -1970 0
-1664 1971 0
1664 -1971 0
-1665 1972 0
1665 -1972 0
-1651 1973 0
1651 -1973 0
-1652 1974 0
1652 -1974 0
-1653 1975 0
1653 -1975 0
-1654 1976 0
1654 -1976 0
-1640 1977 0
1640 -1977 0
-1641 1978 0
1641 -1978 0
-1642 1979 0
1642 -1979 0
-1643 1980 0
1643 -1980 0
-1629 1981 0
1629 -1981 0
-1630 1982 0
1630 -1982 0
-1631 1983 0
1631 -1983 0
-1632 1984 0
1632 -1984 0
-1618 1985 0
1618 -1985 0
-1619 1986 0
1619 -1986 0
-1620 1987 0
1620 -1987 0
-1621 1988 0
1621 -1988 0
-1607 1989 0
1607 -1989 0
-1608 1990 0
1608 -1990 0
-1609 1991 0
1609 -1991 0
-1610 1992 0
1610 -1992 0
-1596 1993 0
1596 -1993 0
-1597 1994 0
1597 -1994 0
-1598 1995 0
1598 -1995 0
-1599 1996 0
1599 -1996 0
-1585 1997 0
1585 -1997 0
-1586 1998 0
1586 -1998 0
-1587 1999 0
1587 -1999 0
-1588 2000 0
1588 -2000 0
-1574 2001 0
1574 -2001 0
-1575 2002 0
1575 -2002 0
-1576 2003 0
1576 -2003 0
-1577 2004 0
1577 -2004 0
-1563 2005 0
1563 -2005 0
-1564 2006 0
1564 -2006 0
-1565 2007 0
1565 -2007 0
-1566 2008 0
1566 -2008 0
-1552 2009 0
1552 -2009 0
-1553 2010 0
1553 -2010 0
-1554 2011 0
1554 -2011 0
-1555 2012 0
1555 -2012 0
-1541 2013 0
1541 -2013 0
-1542 2014 0
1542 -2014 0
-1543 2015 0
1543 -2015 0
-1544 2016 0
1544 -2016 0
2173 2186 -2401 0
2173 -2186 2401 0
-2173 2186 2401 0
-2173 -2186 -2401 0
2401 2240 -2273 0
2401 -2240 2273 0
-2401 2240 2273 0
-2401 -2240 -2273 0
2146 2150 -2402 0
2146 -2150 2402 0
-2146 2150 2402 0
-2146 -2150 -2402 0
2402 2192 -2403 0
2402 -2192 2403 0
-2402 2192 2403 0
-2402 -2192 -2403 0
2403 2246 -2404 0
2403 -2246 2404 0
-2403 2246 2404 0
-2403 -2246 -2404 0
2404 2261 -2405 0
2404 -2261 2405 0
-2404 2261 2405 0
-2404 -2261 -2405 0
2405 2267 -2274 0
2405 -2267 2274 0
-2405 2267 2274 0
-2405 -2267 -2274 0
2151 2162 -2406 0
2151 -2162 2406 0
-2151 2162 2406 0
-2151 -2162 -2406 0
2406 2204 -2275 0
2406 -2204 2275 0
-2406 2204 2275 0
-2406 -2204 -2275 0
2171 2182 -2407 0
2171 -2182 2407 0
-2171 2182 2407 0
-2171 -2182 -2407 0
2407 2193 -2408 0
2407 -2193 2408 0
-2407 2193 2408 0
-2407 -2193 -2408 0
2408 2206 -2409 0
2408 -2206 2409 0
-2408 2206 2409 0
-2408 -2206 -2409 0
2409 2220 -2410 0
2409 -2220 2410 0
-2409 2220 2410 0
-2409 -2220 -2410 0
2410 2224 -2411 0
2410 -2224 2411 0
-2410 2224 2411 0
-2410 -2224 -2411 0
2411 2260 -2276 0
2411 -2260 2276 0
-2411 2260 2276 0
-2411 -2260 -2276 0
2177 2190 -2412 0
2177 -2190 2412 0
-2177 2190 2412 0
-2177 -2190 -2412 0
2412 2244 -2277 0
2412 -2244 2277 0
-2412 2244 2277 0
-2412 -2244 -2277 0
2150 2154 -2413 0
2150 -2154 2413 0
-2150 2154 2413 0
-2150 -2154 -2413 0
2413 2196 -2414 0
2413 -2196 2414 0
-2413 2196 2414 0
-2413 -2196 -2414 0
2414 2250 -2415 0
2414 -2250 2415 0
-2414 2250 2415 0
-2414 -2250 -2415 0
2415 2265 -2416 0
2415 -2265 2416 0
-2415 2265 2416 0
-2415 -2265 -2416 0
2416 2271 -2278 0
2416 -2271 2278 0
-2416 2271 2278 0
-2416 -2271 -2278 0
2155 2166 -2417 0
2155 -2166 2417 0
-2155 2166 2417 0
-2155 -2166 -2417 0
2417 2208 -2279 0
2417 -2208 2279 0
-2417 2208 2279 0
-2417 -2208 -2279 0
2175 2186 -2418 0
2175 -2186 2418 0
-2175 2186 2418 0
-2175 -2186 -2418 0
2418 2197 -2419 0
2418 -2197 2419 0
-2418 2197 2419 0
-2418 -2197 -2419 0
2419 2210 -2420 0
2419 -2210 2420 0
-2419 2210 2420 0
-2419 -2210 -2420 0
2420 2224 -2421 0
2420 -2224 2421 0
-2420 2224 2421 0
-2420 -2224 -2421 0
2421 2228 -2422 0
2421 -2228 2422 0
-2421 2228 2422 0
-2421 -2228 -2422 0
2422 2264 -2280 0
2422 -2264 2280 0
-2422 2264 2280 0
-2422 -2264 -2280 0
2181 2194 -2423 0
2181 -2194 2423 0
-2181 2194 2423 0
-2181 -2194 -2423 0
2423 2248 -2281 0
2423 -2248 2281 0
-2423 2248 2281 0
-2423 -2248 -2281 0
2147 2154 -2424 0
2147 -2154 2424 0
-2147 2154 2424 0
-2147 -2154 -2424 0
2424 2158 -2425 0
2424 -2158 2425 0
-2424 2158 2425 0
-2424 -2158 -2425 0
2425 2200 -2426 0
2425 -2200 2426 0
-2425 2200 2426 0
-2425 -2200 -2426 0
2426 2254 -2427 0
2426 -2254 2427 0
-2426 2254 2427 0
-2426 -2254 -2427 0
2427 2269 -2282 0
2427 -2269 2282 0
-2427 2269 2282 0
-2427 -2269 -2282 0
2159 2170 -2428 0
2159 -2170 2428 0
-2159 2170 2428 0
-2159 -2170 -2428 0
2428 2212 -2283 0
2428 -2212 2283 0
-2428 2212 2283 0
-2428 -2212 -2283 0
2179 2190 -2429 0
2179 -2190 2429 0
-2179 2190 2429 0
-2179 -2190 -2429 0
2429 2201 -2430 0
2429 -2201 2430 0
-2429 2201 2430 0
-2429 -2201 -2430 0
2430 2214 -2431 0
2430 -2214 2431 0
-2430 2214 2431 0
-2430 -2214 -2431 0
2431 2228 -2432 0
2431 -2228 2432 0
-2431 2228 2432 0
-2431 -2228 -2432 0
2432 2232 -2433 0
2432 -2232 2433 0
-2432 2232 2433 0
-2432 -2232 -2433 0
2433 2268 -2284 0
2433 -2268 2284 0
-2433 2268 2284 0
-2433 -2268 -2284 0
2185 2198 -2434 0
2185 -2198 2434 0
-2185 2198 2434 0
-2185 -2198 -2434 0
2434 2252 -2285 0
2434 -2252 2285 0
-2434 2252 2285 0
-2434 -2252 -2285 0
2145 2158 -2435 0
2145 -2158 2435 0
-2145 2158 2435 0
-2145 -2158 -2435 0
2435 2212 -2436 0
2435 -2212 2436 0
-2435 2212 2436 0
-2435 -2212 -2436 0
2436 2258 -2286 0
2436 -2258 2286 0
-2436 2258 2286 0
-2436 -2258 -2286 0
2163 2174 -2437 0
2163 -2174 2437 0
-2163 2174 2437 0
-2163 -2174 -2437 0
2437 2216 -2287 0
2437 -2216 2287 0
-2437 2216 2287 0
-2437 -2216 -2287 0
2183 2194 -2438 0
2183 -2194 2438 0
-2183 2194 2438 0
-2183 -2194 -2438 0
2438 2205 -2439 0
2438 -2205 2439 0
-2438 2205 2439 0
-2438 -2205 -2439 0
2439 2218 -2440 0
2439 -2218 2440 0
-2439 2218 2440 0
-2439 -2218 -2440 0
2440 2232 -2441 0
2440 -2232 2441 0
-2440 2232 2441 0
-2440 -2232 -2441 0
2441 2236 -2442 0
2441 -2236 2442 0
-2441 2236 2442 0
-2441 -2236 -2442 0
2442 2272 -2288 0
2442 -2272 2288 0
-2442 2272 2288 0
-2442 -2272 -2288 0
2189 2202 -2443 0
2189 -2202 2443 0
-2189 2202 2443 0
-2189 -2202 -2443 0
2443 2256 -2289 0
2443 -2256 2289 0
-2443 2256 2289 0
-2443 -2256 -2289 0
2149 2162 -2444 0
2149 -2162 2444 0
-2149 2162 2444 0
-2149 -2162 -2444 0
2444 2216 -2445 0
2444 -2216 2445 0
-2444 2216 2445 0
-2444 -2216 -2445 0
2445 2262 -2290 0
2445 -2262 2290 0
-2445 2262 2290 0
-2445 -2262 -2290 0
2167 2178 -2446 0
2167 -2178 2446 0
-2167 2178 2446 0
-2167 -2178 -2446 0
2446 2220 -2291 0
2446 -2220 2291 0
-2446 2220 2291 0
-2446 -2220 -2291 0
2148 2187 -2447 0
2148 -2187 2447 0
-2148 2187 2447 0
-2148 -2187 -2447 0
2447 2198 -2448 0
2447 -2198 2448 0
-2447 2198 2448 0
-2447 -2198 -2448 0
2448 2209 -2449 0
2448 -2209 2449 0
-2448 2209 2449 0
-2448 -2209 -2449 0
2449 2222 -2450 0
2449 -2222 2450 0
-2449 2222 2450 0
-2449 -2222 -2450 0
2450 2236 -2451 0
2450 -2236 2451 0
-2450 2236 2451 0
-2450 -2236 -2451 0
2451 2240 -2292 0
2451 -2240 2292 0
-2451 2240 2292 0
-2451 -2240 -2292 0
2193 2206 -2452 0
2193 -2206 2452 0
-2193 2206 2452 0
-2193 -2206 -2452 0
2452 2260 -2293 0
2452 -2260 2293 0
-2452 2260 2293 0
-2452 -2260 -2293 0
2153 2166 -2453 0
2153 -2166 2453 0
-2153 2166 2453 0
-2153 -2166 -2453 0
2453 2220 -2454 0
2453 -2220 2454 0
-2453 2220 2454 0
-2453 -2220 -2454 0
2454 2266 -2294 0
2454 -2266 2294 0
-2454 2266 2294 0
-2454 -2266 -2294 0
2171 2182 -2455 0
2171 -2182 2455 0
-2171 2182 2455 0
-2171 -2182 -2455 0
2455 2224 -2295 0
2455 -2224 2295 0
-2455 2224 2295 0
-2455 -2224 -2295 0
2152 2191 -2456 0
2152 -2191 2456 0
-2152 2191 2456 0
-2152 -2191 -2456 0
2456 2202 -2457 0
2456 -2202 2457 0
-2456 2202 2457 0
-2456 -2202 -2457 0
2457 2213 -2458 0
2457 -2213 2458 0
-2457 2213 2458 0
-2457 -2213 -2458 0
2458 2226 -2459 0
2458 -2226 2459 0
-2458 2226 2459 0
-2458 -2226 -2459 0
2459 2240 -2460 0
2459 -2240 2460 0
-2459 2240 2460 0
-2459 -2240 -2460 0
2460 2244 -2296 0
2460 -2244 2296 0
-2460 2244 2296 0
-2460 -2244 -2296 0
2197 2210 -2461 0
2197 -2210 2461 0
-2197 2210 2461 0
-2197 -2210 -2461 0
2461 2264 -2297 0
2461 -2264 2297 0
-2461 2264 2297 0
-2461 -2264 -2297 0
2157 2170 -2462 0
2157 -2170 2462 0
-2157 2170 2462 0
-2157 -2170 -2462 0
2462 2224 -2463 0
2462 -2224 2463 0
-2462 2224 2463 0
-2462 -2224 -2463 0
2463 2270 -2298 0
2463 -2270 2298 0
-2463 2270 2298 0
-2463 -2270 -2298 0
2175 2186 -2464 0
2175 -2186 2464 0
-2175 2186 2464 0
-2175 -2186 -2464 0
2464 2228 -2299 0
2464 -2228 2299 0
-2464 2228 2299 0
-2464 -2228 -2299 0
2156 2195 -2465 0
2156 -2195 2465 0
-2156 2195 2465 0
-2156 -2195 -2465 0
2465 2206 -2466 0
2465 -2206 2466 0
-2465 2206 2466 0
-2465 -2206 -2466 0
2466 2217 -2467 0
2466 -2217 2467 0
-2466 2217 2467 0
-2466 -2217 -2467 0
2467 2230 -2468 0
2467 -2230 2468 0
-2467 2230 2468 0
-2467 -2230 -2468 0
2468 2244 -2469 0
2468 -2244 2469 0
-2468 2244 2469 0
-2468 -2244 -2469 0
2469 2248 -2300 0
2469 -2248 2300 0
-2469 2248 2300 0
-2469 -2248 -2300 0
2201 2214 -2470 0
2201 -2214 2470 0
-2201 2214 2470 0
-2201 -2214 -2470 0
2470 2268 -2301 0
2470 -2268 2301 0
-2470 2268 2301 0
-2470 -2268 -2301 0
2146 2161 -2471 0
2146 -2161 2471 0
-2146 2161 2471 0
-2146 -2161 -2471 0
2471 2174 -2472 0
2471 -2174 2472 0
-2471 2174 2472 0
-2471 -2174 -2472 0
2472 2228 -2302 0
2472 -2228 2302 0
-2472 2228 2302 0
-2472 -2228 -2302 0
2179 2190 -2473 0
2179 -2190 2473 0
-2179 2190 2473 0
-2179 -2190 -2473 0
2473 2232 -2303 0
2473 -2232 2303 0
-2473 2232 2303 0
-2473 -2232 -2303 0
2160 2199 -2474 0
2160 -2199 2474 0
-2160 2199 2474 0
-2160 -2199 -2474 0
2474 2210 -2475 0
2474 -2210 2475 0
-2474 2210 2475 0
-2474 -2210 -2475 0
2475 2221 -2476 0
2475 -2221 2476 0
-2475 2221 2476 0
-2475 -2221 -2476 0
2476 2234 -2477 0
2476 -2234 2477 0
-2476 2234 2477 0
-2476 -2234 -2477 0
2477 2248 -2478 0
2477 -2248 2478 0
-2477 2248 2478 0
-2477 -2248 -2478 0
2478 2252 -2304 0
2478 -2252 2304 0
-2478 2252 2304 0
-2478 -2252 -2304 0
2205 2218 -2479 0
2205 -2218 2479 0
-2205 2218 2479 0
-2205 -2218 -2479 0
2479 2272 -2305 0
2479 -2272 2305 0
-2479 2272 2305 0
-2479 -2272 -2305 0
2150 2165 -2480 0
2150 -2165 2480 0
-2150 2165 2480 0
-2150 -2165 -2480 0
2480 2178 -2481 0
2480 -2178 2481 0
-2480 2178 2481 0
-2480 -2178 -2481 0
2481 2232 -2306 0
2481 -2232 2306 0
-2481 2232 2306 0
-2481 -2232 -2306 0
2183 2194 -2482 0
2183 -2194 2482 0
-2183 2194 2482 0
-2183 -2194 -2482 0
2482 2236 -2307 0
2482 -2236 2307 0
-2482 2236 2307 0
-2482 -2236 -2307 0
2164 2203 -2483 0
2164 -2203 2483 0
-2164 2203 2483 0
-2164 -2203 -2483 0
2483 2214 -2484 0
2483 -2214 2484 0
-2483 2214 2484 0
-2483 -2214 -2484 0
2484 2225 -2485 0
2484 -2225 2485 0
-2484 2225 2485 0
-2484 -2225 -2485 0
2485 2238 -2486 0
2485 -2238 2486 0
-2485 2238 2486 0
-2485 -2238 -2486 0
2486 2252 -2487 0
2486 -2252 2487 0
-2486 2252 2487 0
-2486 -2252 -2487 0
2487 2256 -2308 0
2487 -2256 2308 0
-2487 2256 2308 0
-2487 -2256 -2308 0
2148 2209 -2488 0
2148 -2209 2488 0
-2148 2209 2488 0
-2148 -2209 -2488 0
2488 2222 -2309 0
2488 -2222 2309 0
-2488 2222 2309 0
-2488 -2222 -2309 0
2154 2169 -2489 0
2154 -2169 2489 0
-2154 2169 2489 0
-2154 -2169 -2489 0
2489 2182 -2490 0
2489 -2182 2490 0
-2489 2182 2490 0
-2489 -2182 -2490 0
2490 2236 -2310 0
2490 -2236 2310 0
-2490 2236 2310 0
-2490 -2236 -2310 0
2187 2198 -2491 0
2187 -2198 2491 0
-2187 2198 2491 0
-2187 -2198 -2491 0
2491 2240 -2311 0
2491 -2240 2311 0
-2491 2240 2311 0
-2491 -2240 -2311 0
2168 2207 -2492 0
2168 -2207 2492 0
-2168 2207 2492 0
-2168 -2207 -2492 0
2492 2218 -2493 0
2492 -2218 2493 0
-2492 2218 2493 0
-2492 -2218 -2493 0
2493 2229 -2494 0
2493 -2229 2494 0
-2493 2229 2494 0
-2493 -2229 -2494 0
2494 2242 -2495 0
2494 -2242 2495 0
-2494 2242 2495 0
-2494 -2242 -2495 0
2495 2256 -2496 0
2495 -2256 2496 0
-2495 2256 2496 0
-2495 -2256 -2496 0
2496 2260 -2312 0
2496 -2260 2312 0
-2496 2260 2312 0
-2496 -2260 -2312 0
2152 2213 -2497 0
2152 -2213 2497 0
-2152 2213 2497 0
-2152 -2213 -2497 0
2497 2226 -2313 0
2497 -2226 2313 0
-2497 2226 2313 0
-2497 -2226 -2313 0
2158 2173 -2498 0
2158 -2173 2498 0
-2158 2173 2498 0
-2158 -2173 -2498 0
2498 2179 -2499 0
2498 -2179 2499 0
-2498 2179 2499 0
-2498 -2179 -2499 0
2499 2186 -2500 0
2499 -2186 2500 0
-2499 2186 2500 0
-2499 -2186 -2500 0
2500 2190 -2501 0
2500 -2190 2501 0
-2500 2190 2501 0
-2500 -2190 -2501 0
2501 2232 -2502 0
2501 -2232 2502 0
-2501 2232 2502 0
-2501 -2232 -2502 0
2502 2240 -2314 0
2502 -2240 2314 0
-2502 2240 2314 0
-2502 -2240 -2314 0
2191 2202 -2503 0
2191 -2202 2503 0
-2191 2202 2503 0
-2191 -2202 -2503 0
2503 2244 -2315 0
2503 -2244 2315 0
-2503 2244 2315 0
-2503 -2244 -2315 0
2172 2211 -2504 0
2172 -2211 2504 0
-2172 2211 2504 0
-2172 -2211 -2504 0
2504 2222 -2505 0
2504 -2222 2505 0
-2504 2222 2505 0
-2504 -2222 -2505 0
2505 2233 -2506 0
2505 -2233 2506 0
-2505 2233 2506 0
-2505 -2233 -2506 0
2506 2246 -2507 0
2506 -2246 2507 0
-2506 2246 2507 0
-2506 -2246 -2507 0
2507 2260 -2508 0
2507 -2260 2508 0
-2507 2260 2508 0
-2507 -2260 -2508 0
2508 2264 -2316 0
2508 -2264 2316 0
-2508 2264 2316 0
-2508 -2264 -2316 0
2156 2217 -2509 0
2156 -2217 2509 0
-2156 2217 2509 0
-2156 -2217 -2509 0
2509 2230 -2317 0
2509 -2230 2317 0
-2509 2230 2317 0
-2509 -2230 -2317 0
2162 2177 -2510 0
2162 -2177 2510 0
-2162 2177 2510 0
-2162 -2177 -2510 0
2510 2183 -2511 0
2510 -2183 2511 0
-2510 2183 2511 0
-2510 -2183 -2511 0
2511 2190 -2512 0
2511 -2190 2512 0
-2511 2190 2512 0
-2511 -2190 -2512 0
2512 2194 -2513 0
2512 -2194 2513 0
-2512 2194 2513 0
-2512 -2194 -2513 0
2513 2236 -2514 0
2513 -2236 2514 0
-2513 2236 2514 0
-2513 -2236 -2514 0
2514 2244 -2318 0
2514 -2244 2318 0
-2514 2244 2318 0
-2514 -2244 -2318 0
2195 2206 -2515 0
2195 -2206 2515 0
-2195 2206 2515 0
-2195 -2206 -2515 0
2515 2248 -2319 0
2515 -2248 2319 0
-2515 2248 2319 0
-2515 -2248 -2319 0
2176 2215 -2516 0
2176 -2215 2516 0
-2176 2215 2516 0
-2176 -2215 -2516 0
2516 2226 -2517 0
2516 -2226 2517 0
-2516 2226 2517 0
-2516 -2226 -2517 0
2517 2237 -2518 0
2517 -2237 2518 0
-2517 2237 2518 0
-2517 -2237 -2518 0
2518 2250 -2519 0
2518 -2250 2519 0
-2518 2250 2519 0
-2518 -2250 -2519 0
2519 2264 -2520 0
2519 -2264 2520 0
-2519 2264 2520 0
-2519 -2264 -2520 0
2520 2268 -2320 0
2520 -2268 2320 0
-2520 2268 2320 0
-2520 -2268 -2320 0
2160 2221 -2521 0
2160 -2221 2521 0
-2160 2221 2521 0
-2160 -2221 -2521 0
2521 2234 -2321 0
2521 -2234 2321 0
-2521 2234 2321 0
-2521 -2234 -2321 0
2166 2181 -2522 0
2166 -2181 2522 0
-2166 2181 2522 0
-2166 -2181 -2522 0
2522 2187 -2523 0
2522 -2187 2523 0
-2522 2187 2523 0
-2522 -2187 -2523 0
2523 2194 -2524 0
2523 -2194 2524 0
-2523 2194 2524 0
-2523 -2194 -2524 0
2524 2198 -2525 0
2524 -2198 2525 0
-2524 2198 2525 0
-2524 -2198 -2525 0
2525 2240 -2526 0
2525 -2240 2526 0
-2525 2240 2526 0
-2525 -2240 -2526 0
2526 2248 -2322 0
2526 -2248 2322 0
-2526 2248 2322 0
-2526 -2248 -2322 0
2199 2210 -2527 0
2199 -2210 2527 0
-2199 2210 2527 0
-2199 -2210 -2527 0
2527 2252 -2323 0
2527 -2252 2323 0
-2527 2252 2323 0
-2527 -2252 -2323 0
2180 2219 -2528 0
2180 -2219 2528 0
-2180 2219 2528 0
-2180 -2219 -2528 0
2528 2230 -2529 0
2528 -2230 2529 0
-2528 2230 2529 0
-2528 -2230 -2529 0
2529 2241 -2530 0
2529 -2241 2530 0
-2529 2241 2530 0
-2529 -2241 -2530 0
2530 2254 -2531 0
2530 -2254 2531 0
-2530 2254 2531 0
-2530 -2254 -2531 0
2531 2268 -2532 0
2531 -2268 2532 0
-2531 2268 2532 0
-2531 -2268 -2532 0
2532 2272 -2324 0
2532 -2272 2324 0
-2532 2272 2324 0
-2532 -2272 -2324 0
2164 2225 -2533 0
2164 -2225 2533 0
-2164 2225 2533 0
-2164 -2225 -2533 0
2533 2238 -2325 0
2533 -2238 2325 0
-2533 2238 2325 0
-2533 -2238 -2325 0
2170 2185 -2534 0
2170 -2185 2534 0
-2170 2185 2534 0
-2170 -2185 -2534 0
2534 2191 -2535 0
2534 -2191 2535 0
-2534 2191 2535 0
-2534 -2191 -2535 0
2535 2198 -2536 0
2535 -2198 2536 0
-2535 2198 2536 0
-2535 -2198 -2536 0
2536 2202 -2537 0
2536 -2202 2537 0
-2536 2202 2537 0
-2536 -2202 -2537 0
2537 2244 -2538 0
2537 -2244 2538 0
-2537 2244 2538 0
-2537 -2244 -2538 0
2538 2252 -2326 0
2538 -2252 2326 0
-2538 2252 2326 0
-2538 -2252 -2326 0
2203 2214 -2539 0
2203 -2214 2539 0
-2203 2214 2539 0
-2203 -2214 -2539 0
2539 2256 -2327 0
2539 -2256 2327 0
-2539 2256 2327 0
-2539 -2256 -2327 0
2148 2184 -2540 0
2148 -2184 2540 0
-2148 2184 2540 0
-2148 -2184 -2540 0
2540 2223 -2541 0
2540 -2223 2541 0
-2540 2223 2541 0
-2540 -2223 -2541 0
2541 2234 -2542 0
2541 -2234 2542 0
-2541 2234 2542 0
-2541 -2234 -2542 0
2542 2245 -2543 0
2542 -2245 2543 0
-2542 2245 2543 0
-2542 -2245 -2543 0
2543 2258 -2544 0
2543 -2258 2544 0
-2543 2258 2544 0
-2543 -2258 -2544 0
2544 2272 -2328 0
2544 -2272 2328 0
-2544 2272 2328 0
-2544 -2272 -2328 0
2168 2229 -2545 0
2168 -2229 2545 0
-2168 2229 2545 0
-2168 -2229 -2545 0
2545 2242 -2329 0
2545 -2242 2329 0
-2545 2242 2329 0
-2545 -2242 -2329 0
2174 2189 -2546 0
2174 -2189 2546 0
-2174 2189 2546 0
-2174 -2189 -2546 0
2546 2195 -2547 0
2546 -2195 2547 0
-2546 2195 2547 0
-2546 -2195 -2547 0
2547 2202 -2548 0
2547 -2202 2548 0
-2547 2202 2548 0
-2547 -2202 -2548 0
2548 2206 -2549 0
2548 -2206 2549 0
-2548 2206 2549 0
-2548 -2206 -2549 0
2549 2248 -2550 0
2549 -2248 2550 0
-2549 2248 2550 0
-2549 -2248 -2550 0
2550 2256 -2330 0
2550 -2256 2330 0
-2550 2256 2330 0
-2550 -2256 -2330 0
2207 2218 -2551 0
2207 -2218 2551 0
-2207 2218 2551 0
-2207 -2218 -2551 0
2551 2260 -2331 0
2551 -2260 2331 0
-2551 2260 2331 0
-2551 -2260 -2331 0
2148 2152 -2552 0
2148 -2152 2552 0
-2148 2152 2552 0
-2148 -2152 -2552 0
2552 2188 -2553 0
2552 -2188 2553 0
-2552 2188 2553 0
-2552 -2188 -2553 0
2553 2227 -2554 0
2553 -2227 2554 0
-2553 2227 2554 0
-2553 -2227 -2554 0
2554 2238 -2555 0
2554 -2238 2555 0
-2554 2238 2555 0
-2554 -2238 -2555 0
2555 2249 -2556 0
2555 -2249 2556 0
-2555 2249 2556 0
-2555 -2249 -2556 0
2556 2262 -2332 0
2556 -2262 2332 0
-2556 2262 2332 0
-2556 -2262 -2332 0
2172 2233 -2557 0
2172 -2233 2557 0
-2172 2233 2557 0
-2172 -2233 -2557 0
2557 2246 -2333 0
2557 -2246 2333 0
-2557 2246 2333 0
-2557 -2246 -2333 0
2178 2193 -2558 0
2178 -2193 2558 0
-2178 2193 2558 0
-2178 -2193 -2558 0
2558 2199 -2559 0
2558 -2199 2559 0
-2558 2199 2559 0
-2558 -2199 -2559 0
2559 2206 -2560 0
2559 -2206 2560 0
-2559 2206 2560 0
-2559 -2206 -2560 0
2560 2210 -2561 0
2560 -2210 2561 0
-2560 2210 2561 0
-2560 -2210 -2561 0
2561 2252 -2562 0
2561 -2252 2562 0
-2561 2252 2562 0
-2561 -2252 -2562 0
2562 2260 -2334 0
2562 -2260 2334 0
-2562 2260 2334 0
-2562 -2260 -2334 0
2211 2222 -2563 0
2211 -2222 2563 0
-2211 2222 2563 0
-2211 -2222 -2563 0
2563 2264 -2335 0
2563 -2264 2335 0
-2563 2264 2335 0
-2563 -2264 -2335 0
2152 2156 -2564 0
2152 -2156 2564 0
-2152 2156 2564 0
-2152 -2156 -2564 0
2564 2192 -2565 0
2564 -2192 2565 0
-2564 2192 2565 0
-2564 -2192 -2565 0
2565 2231 -2566 0
2565 -2231 2566 0
-2565 2231 2566 0
-2565 -2231 -2566 0
2566 2242 -2567 0
2566 -2242 2567 0
-2566 2242 2567 0
-2566 -2242 -2567 0
2567 2253 -2568 0
2567 -2253 2568 0
-2567 2253 2568 0
-2567 -2253 -2568 0
2568 2266 -2336 0
2568 -2266 2336 0
-2568 2266 2336 0
-2568 -2266 -2336 0
2176 2237 -2569 0
2176 -2237 2569 0
-2176 2237 2569 0
-2176 -2237 -2569 0
2569 2250 -2337 0
2569 -2250 2337 0
-2569 2250 2337 0
-2569 -2250 -2337 0
2182 2197 -2570 0
2182 -2197 2570 0
-2182 2197 2570 0
-2182 -2197 -2570 0
2570 2203 -2571 0
2570 -2203 2571 0
-2570 2203 2571 0
-2570 -2203 -2571 0
2571 2210 -2572 0
2571 -2210 2572 0
-2571 2210 2572 0
-2571 -2210 -2572 0
2572 2214 -2573 0
2572 -2214 2573 0
-2572 2214 2573 0
-2572 -2214 -2573 0
2573 2256 -2574 0
2573 -2256 2574 0
-2573 2256 2574 0
-2573 -2256 -2574 0
2574 2264 -2338 0
2574 -2264 2338 0
-2574 2264 2338 0
-2574 -2264 -2338 0
2215 2226 -2575 0
2215 -2226 2575 0
-2215 2226 2575 0
-2215 -2226 -2575 0
2575 2268 -2339 0
2575 -2268 2339 0
-2575 2268 2339 0
-2575 -2268 -2339 0
2156 2160 -2576 0
2156 -2160 2576 0
-2156 2160 2576 0
-2156 -2160 -2576 0
2576 2196 -2577 0
2576 -2196 2577 0
-2576 2196 2577 0
-2576 -2196 -2577 0
2577 2235 -2578 0
2577 -2235 2578 0
-2577 2235 2578 0
-2577 -2235 -2578 0
2578 2246 -2579 0
2578 -2246 2579 0
-2578 2246 2579 0
-2578 -2246 -2579 0
2579 2257 -2580 0
2579 -2257 2580 0
-2579 2257 2580 0
-2579 -2257 -2580 0
2580 2270 -2340 0
2580 -2270 2340 0
-2580 2270 2340 0
-2580 -2270 -2340 0
2180 2241 -2581 0
2180 -2241 2581 0
-2180 2241 2581 0
-2180 -2241 -2581 0
2581 2254 -2341 0
2581 -2254 2341 0
-2581 2254 2341 0
-2581 -2254 -2341 0
2186 2201 -2582 0
2186 -2201 2582 0
-2186 2201 2582 0
-2186 -2201 -2582 0
2582 2207 -2583 0
2582 -2207 2583 0
-2582 2207 2583 0
-2582 -2207 -2583 0
2583 2214 -2584 0
2583 -2214 2584 0
-2583 2214 2584 0
-2583 -2214 -2584 0
2584 2218 -2585 0
2584 -2218 2585 0
-2584 2218 2585 0
-2584 -2218 -2585 0
2585 2260 -2586 0
2585 -2260 2586 0
-2585 2260 2586 0
-2585 -2260 -2586 0
2586 2268 -2342 0
2586 -2268 2342 0
-2586 2268 2342 0
-2586 -2268 -2342 0
2219 2230 -2587 0
2219 -2230 2587 0
-2219 2230 2587 0
-2219 -2230 -2587 0
2587 2272 -2343 0
2587 -2272 2343 0
-2587 2272 2343 0
-2587 -2272 -2343 0
2146 2160 -2588 0
2146 -2160 2588 0
-2146 2160 2588 0
-2146 -2160 -2588 0
2588 2164 -2589 0
2588 -2164 2589 0
-2588 2164 2589 0
-2588 -2164 -2589 0
2589 2239 -2590 0
2589 -2239 2590 0
-2589 2239 2590 0
-2589 -2239 -2590 0
2590 2250 -2591 0
2590 -2250 2591 0
-2590 2250 2591 0
-2590 -2250 -2591 0
2591 2261 -2344 0
2591 -2261 2344 0
-2591 2261 2344 0
-2591 -2261 -2344 0
2184 2245 -2592 0
2184 -2245 2592 0
-2184 2245 2592 0
-2184 -2245 -2592 0
2592 2258 -2345 0
2592 -2258 2345 0
-2592 2258 2345 0
-2592 -2258 -2345 0
2190 2205 -2593 0
2190 -2205 2593 0
-2190 2205 2593 0
-2190 -2205 -2593 0
2593 2211 -2594 0
2593 -2211 2594 0
-2593 2211 2594 0
-2593 -2211 -2594 0
2594 2218 -2595 0
2594 -2218 2595 0
-2594 2218 2595 0
-2594 -2218 -2595 0
2595 2222 -2596 0
2595 -2222 2596 0
-2595 2222 2596 0
-2595 -2222 -2596 0
2596 2264 -2597 0
2596 -2264 2597 0
-2596 2264 2597 0
-2596 -2264 -2597 0
2597 2272 -2346 0
2597 -2272 2346 0
-2597 2272 2346 0
-2597 -2272 -2346 0
2148 2223 -2598 0
2148 -2223 2598 0
-2148 2223 2598 0
-2148 -2223 -2598 0
2598 2234 -2347 0
2598 -2234 2347 0
-2598 2234 2347 0
-2598 -2234 -2347 0
2150 2164 -2599 0
2150 -2164 2599 0
-2150 2164 2599 0
-2150 -2164 -2599 0
2599 2168 -2600 0
2599 -2168 2600 0
-2599 2168 2600 0
-2599 -2168 -2600 0
2600 2243 -2601 0
2600 -2243 2601 0
-2600 2243 2601 0
-2600 -2243 -2601 0
2601 2254 -2602 0
2601 -2254 2602 0
-2601 2254 2602 0
-2601 -2254 -2602 0
2602 2265 -2348 0
2602 -2265 2348 0
-2602 2265 2348 0
-2602 -2265 -2348 0
2188 2249 -2603 0
2188 -2249 2603 0
-2188 2249 2603 0
-2188 -2249 -2603 0
2603 2262 -2349 0
2603 -2262 2349 0
-2603 2262 2349 0
-2603 -2262 -2349 0
2148 2194 -2604 0
2148 -2194 2604 0
-2148 2194 2604 0
-2148 -2194 -2604 0
2604 2209 -2605 0
2604 -2209 2605 0
-2604 2209 2605 0
-2604 -2209 -2605 0
2605 2215 -2606 0
2605 -2215 2606 0
-2605 2215 2606 0
-2605 -2215 -2606 0
2606 2222 -2607 0
2606 -2222 2607 0
-2606 2222 2607 0
-2606 -2222 -2607 0
2607 2226 -2608 0
2607 -2226 2608 0
-2607 2226 2608 0
-2607 -2226 -2608 0
2608 2268 -2350 0
2608 -2268 2350 0
-2608 2268 2350 0
-2608 -2268 -2350 0
2152 2227 -2609 0
2152 -2227 2609 0
-2152 2227 2609 0
-2152 -2227 -2609 0
2609 2238 -2351 0
2609 -2238 2351 0
-2609 2238 2351 0
-2609 -2238 -2351 0
2154 2168 -2610 0
2154 -2168 2610 0
-2154 2168 2610 0
-2154 -2168 -2610 0
2610 2172 -2611 0
2610 -2172 2611 0
-2610 2172 2611 0
-2610 -2172 -2611 0
2611 2247 -2612 0
2611 -2247 2612 0
-2611 2247 2612 0
-2611 -2247 -2612 0
2612 2258 -2613 0
2612 -2258 2613 0
-2612 2258 2613 0
-2612 -2258 -2613 0
2613 2269 -2352 0
2613 -2269 2352 0
-2613 2269 2352 0
-2613 -2269 -2352 0
2192 2253 -2614 0
2192 -2253 2614 0
-2192 2253 2614 0
-2192 -2253 -2614 0
2614 2266 -2353 0
2614 -2266 2353 0
-2614 2266 2353 0
-2614 -2266 -2353 0
2152 2198 -2615 0
2152 -2198 2615 0
-2152 2198 2615 0
-2152 -2198 -2615 0
2615 2213 -2616 0
2615 -2213 2616 0
-2615 2213 2616 0
-2615 -2213 -2616 0
2616 2219 -2617 0
2616 -2219 2617 0
-2616 2219 2617 0
-2616 -2219 -2617 0
2617 2226 -2618 0
2617 -2226 2618 0
-2617 2226 2618 0
-2617 -2226 -2618 0
2618 2230 -2619 0
2618 -2230 2619 0
-2618 2230 2619 0
-2618 -2230 -2619 0
2619 2272 -2354 0
2619 -2272 2354 0
-2619 2272 2354 0
-2619 -2272 -2354 0
2156 2231 -2620 0
2156 -2231 2620 0
-2156 2231 2620 0
-2156 -2231 -2620 0
2620 2242 -2355 0
2620 -2242 2355 0
-2620 2242 2355 0
-2620 -2242 -2355 0
2145 2158 -2621 0
2145 -2158 2621 0
-2145 2158 2621 0
-2145 -2158 -2621 0
2621 2172 -2622 0
2621 -2172 2622 0
-2621 2172 2622 0
-2621 -2172 -2622 0
2622 2176 -2623 0
2622 -2176 2623 0
-2622 2176 2623 0
-2622 -2176 -2623 0
2623 2212 -2624 0
2623 -2212 2624 0
-2623 2212 2624 0
-2623 -2212 -2624 0
2624 2251 -2625 0
2624 -2251 2625 0
-2624 2251 2625 0
-2624 -2251 -2625 0
2625 2262 -2356 0
2625 -2262 2356 0
-2625 2262 2356 0
-2625 -2262 -2356 0
2196 2257 -2626 0
2196 -2257 2626 0
-2196 2257 2626 0
-2196 -2257 -2626 0
2626 2270 -2357 0
2626 -2270 2357 0
-2626 2270 2357 0
-2626 -2270 -2357 0
2148 2156 -2627 0
2148 -2156 2627 0
-2148 2156 2627 0
-2148 -2156 -2627 0
2627 2202 -2628 0
2627 -2202 2628 0
-2627 2202 2628 0
-2627 -2202 -2628 0
2628 2217 -2629 0
2628 -2217 2629 0
-2628 2217 2629 0
-2628 -2217 -2629 0
2629 2223 -2630 0
2629 -2223 2630 0
-2629 2223 2630 0
-2629 -2223 -2630 0
2630 2230 -2631 0
2630 -2230 2631 0
-2630 2230 2631 0
-2630 -2230 -2631 0
2631 2234 -2358 0
2631 -2234 2358 0
-2631 2234 2358 0
-2631 -2234 -2358 0
2160 2235 -2632 0
2160 -2235 2632 0
-2160 2235 2632 0
-2160 -2235 -2632 0
2632 2246 -2359 0
2632 -2246 2359 0
-2632 2246 2359 0
-2632 -2246 -2359 0
2149 2162 -2633 0
2149 -2162 2633 0
-2149 2162 2633 0
-2149 -2162 -2633 0
2633 2176 -2634 0
2633 -2176 2634 0
-2633 2176 2634 0
-2633 -2176 -2634 0
2634 2180 -2635 0
2634 -2180 2635 0
-2634 2180 2635 0
-2634 -2180 -2635 0
2635 2216 -2636 0
2635 -2216 2636 0
-2635 2216 2636 0
-2635 -2216 -2636 0
2636 2255 -2637 0
2636 -2255 2637 0
-2636 2255 2637 0
-2636 -2255 -2637 0
2637 2266 -2360 0
2637 -2266 2360 0
-2637 2266 2360 0
-2637 -2266 -2360 0
2146 2261 -2361 0
2146 -2261 2361 0
-2146 2261 2361 0
-2146 -2261 -2361 0
2152 2160 -2638 0
2152 -2160 2638 0
-2152 2160 2638 0
-2152 -2160 -2638 0
2638 2206 -2639 0
2638 -2206 2639 0
-2638 2206 2639 0
-2638 -2206 -2639 0
2639 2221 -2640 0
2639 -2221 2640 0
-2639 2221 2640 0
-2639 -2221 -2640 0
2640 2227 -2641 0
2640 -2227 2641 0
-2640 2227 2641 0
-2640 -2227 -2641 0
2641 2234 -2642 0
2641 -2234 2642 0
-2641 2234 2642 0
-2641 -2234 -2642 0
2642 2238 -2362 0
2642 -2238 2362 0
-2642 2238 2362 0
-2642 -2238 -2362 0
2164 2239 -2643 0
2164 -2239 2643 0
-2164 2239 2643 0
-2164 -2239 -2643 0
2643 2250 -2363 0
2643 -2250 2363 0
-2643 2250 2363 0
-2643 -2250 -2363 0
2153 2166 -2644 0
2153 -2166 2644 0
-2153 2166 2644 0
-2153 -2166 -2644 0
2644 2180 -2645 0
2644 -2180 2645 0
-2644 2180 2645 0
-2644 -2180 -2645 0
2645 2184 -2646 0
2645 -2184 2646 0
-2645 2184 2646 0
-2645 -2184 -2646 0
2646 2220 -2647 0
2646 -2220 2647 0
-2646 2220 2647 0
-2646 -2220 -2647 0
2647 2259 -2648 0
2647 -2259 2648 0
-2647 2259 2648 0
-2647 -2259 -2648 0
2648 2270 -2364 0
2648 -2270 2364 0
-2648 2270 2364 0
-2648 -2270 -2364 0
2150 2265 -2365 0
2150 -2265 2365 0
-2150 2265 2365 0
-2150 -2265 -2365 0
2156 2164 -2649 0
2156 -2164 2649 0
-2156 2164 2649 0
-2156 -2164 -2649 0
2649 2210 -2650 0
2649 -2210 2650 0
-2649 2210 2650 0
-2649 -2210 -2650 0
2650 2225 -2651 0
2650 -2225 2651 0
-2650 2225 2651 0
-2650 -2225 -2651 0
2651 2231 -2652 0
2651 -2231 2652 0
-2651 2231 2652 0
-2651 -2231 -2652 0
2652 2238 -2653 0
2652 -2238 2653 0
-2652 2238 2653 0
-2652 -2238 -2653 0
2653 2242 -2366 0
2653 -2242 2366 0
-2653 2242 2366 0
-2653 -2242 -2366 0
2168 2243 -2654 0
2168 -2243 2654 0
-2168 2243 2654 0
-2168 -2243 -2654 0
2654 2254 -2367 0
2654 -2254 2367 0
-2654 2254 2367 0
-2654 -2254 -2367 0
2146 2157 -2655 0
2146 -2157 2655 0
-2146 2157 2655 0
-2146 -2157 -2655 0
2655 2170 -2656 0
2655 -2170 2656 0
-2655 2170 2656 0
-2655 -2170 -2656 0
2656 2184 -2657 0
2656 -2184 2657 0
-2656 2184 2657 0
-2656 -2184 -2657 0
2657 2188 -2658 0
2657 -2188 2658 0
-2657 2188 2658 0
-2657 -2188 -2658 0
2658 2224 -2659 0
2658 -2224 2659 0
-2658 2224 2659 0
-2658 -2224 -2659 0
2659 2263 -2368 0
2659 -2263 2368 0
-2659 2263 2368 0
-2659 -2263 -2368 0
2154 2269 -2369 0
2154 -2269 2369 0
-2154 2269 2369 0
-2154 -2269 -2369 0
2160 2168 -2660 0
2160 -2168 2660 0
-2160 2168 2660 0
-2160 -2168 -2660 0
2660 2214 -2661 0
2660 -2214 2661 0
-2660 2214 2661 0
-2660 -2214 -2661 0
2661 2229 -2662 0
2661 -2229 2662 0
-2661 2229 2662 0
-2661 -2229 -2662 0
2662 2235 -2663 0
2662 -2235 2663 0
-2662 2235 2663 0
-2662 -2235 -2663 0
2663 2242 -2664 0
2663 -2242 2664 0
-2663 2242 2664 0
-2663 -2242 -2664 0
2664 2246 -2370 0
2664 -2246 2370 0
-2664 2246 2370 0
-2664 -2246 -2370 0
2172 2247 -2665 0
2172 -2247 2665 0
-2172 2247 2665 0
-2172 -2247 -2665 0
2665 2258 -2371 0
2665 -2258 2371 0
-2665 2258 2371 0
-2665 -2258 -2371 0
2150 2161 -2666 0
2150 -2161 2666 0
-2150 2161 2666 0
-2150 -2161 -2666 0
2666 2174 -2667 0
2666 -2174 2667 0
-2666 2174 2667 0
-2666 -2174 -2667 0
2667 2188 -2668 0
2667 -2188 2668 0
-2667 2188 2668 0
-2667 -2188 -2668 0
2668 2192 -2669 0
2668 -2192 2669 0
-2668 2192 2669 0
-2668 -2192 -2669 0
2669 2228 -2670 0
2669 -2228 2670 0
-2669 2228 2670 0
-2669 -2228 -2670 0
2670 2267 -2372 0
2670 -2267 2372 0
-2670 2267 2372 0
-2670 -2267 -2372 0
2145 2158 -2671 0
2145 -2158 2671 0
-2145 2158 2671 0
-2145 -2158 -2671 0
2671 2212 -2373 0
2671 -2212 2373 0
-2671 2212 2373 0
-2671 -2212 -2373 0
2164 2172 -2672 0
2164 -2172 2672 0
-2164 2172 2672 0
-2164 -2172 -2672 0
2672 2218 -2673 0
2672 -2218 2673 0
-2672 2218 2673 0
-2672 -2218 -2673 0
2673 2233 -2674 0
2673 -2233 2674 0
-2673 2233 2674 0
-2673 -2233 -2674 0
2674 2239 -2675 0
2674 -2239 2675 0
-2674 2239 2675 0
-2674 -2239 -2675 0
2675 2246 -2676 0
2675 -2246 2676 0
-2675 2246 2676 0
-2675 -2246 -2676 0
2676 2250 -2374 0
2676 -2250 2374 0
-2676 2250 2374 0
-2676 -2250 -2374 0
2176 2251 -2677 0
2176 -2251 2677 0
-2176 2251 2677 0
-2176 -2251 -2677 0
2677 2262 -2375 0
2677 -2262 2375 0
-2677 2262 2375 0
-2677 -2262 -2375 0
2154 2165 -2678 0
2154 -2165 2678 0
-2154 2165 2678 0
-2154 -2165 -2678 0
2678 2178 -2679 0
2678 -2178 2679 0
-2678 2178 2679 0
-2678 -2178 -2679 0
2679 2192 -2680 0
2679 -2192 2680 0
-2679 2192 2680 0
-2679 -2192 -2680 0
2680 2196 -2681 0
2680 -2196 2681 0
-2680 2196 2681 0
-2680 -2196 -2681 0
2681 2232 -2682 0
2681 -2232 2682 0
-2681 2232 2682 0
-2681 -2232 -2682 0
2682 2271 -2376 0
2682 -2271 2376 0
-2682 2271 2376 0
-2682 -2271 -2376 0
2149 2162 -2683 0
2149 -2162 2683 0
-2149 2162 2683 0
-2149 -2162 -2683 0
2683 2216 -2377 0
2683 -2216 2377 0
-2683 2216 2377 0
-2683 -2216 -2377 0
2168 2176 -2684 0
2168 -2176 2684 0
-2168 2176 2684 0
-2168 -2176 -2684 0
2684 2222 -2685 0
2684 -2222 2685 0
-2684 2222 2685 0
-2684 -2222 -2685 0
2685 2237 -2686 0
2685 -2237 2686 0
-2685 2237 2686 0
-2685 -2237 -2686 0
2686 2243 -2687 0
2686 -2243 2687 0
-2686 2243 2687 0
-2686 -2243 -2687 0
2687 2250 -2688 0
2687 -2250 2688 0
-2687 2250 2688 0
-2687 -2250 -2688 0
2688 2254 -2378 0
2688 -2254 2378 0
-2688 2254 2378 0
-2688 -2254 -2378 0
2180 2255 -2689 0
2180 -2255 2689 0
-2180 2255 2689 0
-2180 -2255 -2689 0
2689 2266 -2379 0
2689 -2266 2379 0
-2689 2266 2379 0
-2689 -2266 -2379 0
2147 2158 -2690 0
2147 -2158 2690 0
-2147 2158 2690 0
-2147 -2158 -2690 0
2690 2169 -2691 0
2690 -2169 2691 0
-2690 2169 2691 0
-2690 -2169 -2691 0
2691 2182 -2692 0
2691 -2182 2692 0
-2691 2182 2692 0
-2691 -2182 -2692 0
2692 2196 -2693 0
2692 -2196 2693 0
-2692 2196 2693 0
-2692 -2196 -2693 0
2693 2200 -2694 0
2693 -2200 2694 0
-2693 2200 2694 0
-2693 -2200 -2694 0
2694 2236 -2380 0
2694 -2236 2380 0
-2694 2236 2380 0
-2694 -2236 -2380 0
2153 2166 -2695 0
2153 -2166 2695 0
-2153 2166 2695 0
-2153 -2166 -2695 0
2695 2220 -2381 0
2695 -2220 2381 0
-2695 2220 2381 0
-2695 -2220 -2381 0
2172 2180 -2696 0
2172 -2180 2696 0
-2172 2180 2696 0
-2172 -2180 -2696 0
2696 2226 -2697 0
2696 -2226 2697 0
-2696 2226 2697 0
-2696 -2226 -2697 0
2697 2241 -2698 0
2697 -2241 2698 0
-2697 2241 2698 0
-2697 -2241 -2698 0
2698 2247 -2699 0
2698 -2247 2699 0
-2698 2247 2699 0
-2698 -2247 -2699 0
2699 2254 -2700 0
2699 -2254 2700 0
-2699 2254 2700 0
-2699 -2254 -2700 0
2700 2258 -2382 0
2700 -2258 2382 0
-2700 2258 2382 0
-2700 -2258 -2382 0
2184 2259 -2701 0
2184 -2259 2701 0
-2184 2259 2701 0
-2184 -2259 -2701 0
2701 2270 -2383 0
2701 -2270 2383 0
-2701 2270 2383 0
-2701 -2270 -2383 0
2151 2162 -2702 0
2151 -2162 2702 0
-2151 2162 2702 0
-2151 -2162 -2702 0
2702 2173 -2703 0
2702 -2173 2703 0
-2702 2173 2703 0
-2702 -2173 -2703 0
2703 2186 -2704 0
2703 -2186 2704 0
-2703 2186 2704 0
-2703 -2186 -2704 0
2704 2200 -2705 0
2704 -2200 2705 0
-2704 2200 2705 0
-2704 -2200 -2705 0
2705 2204 -2706 0
2705 -2204 2706 0
-2705 2204 2706 0
-2705 -2204 -2706 0
2706 2240 -2384 0
2706 -2240 2384 0
-2706 2240 2384 0
-2706 -2240 -2384 0
2157 2170 -2707 0
2157 -2170 2707 0
-2157 2170 2707 0
-2157 -2170 -2707 0
2707 2224 -2385 0
2707 -2224 2385 0
-2707 2224 2385 0
-2707 -2224 -2385 0
2176 2184 -2708 0
2176 -2184 2708 0
-2176 2184 2708 0
-2176 -2184 -2708 0
2708 2230 -2709 0
2708 -2230 2709 0
-2708 2230 2709 0
-2708 -2230 -2709 0
2709 2245 -2710 0
2709 -2245 2710 0
-2709 2245 2710 0
-2709 -2245 -2710 0
2710 2251 -2711 0
2710 -2251 2711 0
-2710 2251 2711 0
-2710 -2251 -2711 0
2711 2258 -2712 0
2711 -2258 2712 0
-2711 2258 2712 0
-2711 -2258 -2712 0
2712 2262 -2386 0
2712 -2262 2386 0
-2712 2262 2386 0
-2712 -2262 -2386 0
2146 2188 -2713 0
2146 -2188 2713 0
-2146 2188 2713 0
-2146 -2188 -2713 0
2713 2263 -2387 0
2713 -2263 2387 0
-2713 2263 2387 0
-2713 -2263 -2387 0
2155 2166 -2714 0
2155 -2166 2714 0
-2155 2166 2714 0
-2155 -2166 -2714 0
2714 2177 -2715 0
2714 -2177 2715 0
-2714 2177 2715 0
-2714 -2177 -2715 0
2715 2190 -2716 0
2715 -2190 2716 0
-2715 2190 2716 0
-2715 -2190 -2716 0
2716 2204 -2717 0
2716 -2204 2717 0
-2716 2204 2717 0
-2716 -2204 -2717 0
2717 2208 -2718 0
2717 -2208 2718 0
-2717 2208 2718 0
-2717 -2208 -2718 0
2718 2244 -2388 0
2718 -2244 2388 0
-2718 2244 2388 0
-2718 -2244 -2388 0
2161 2174 -2719 0
2161 -2174 2719 0
-2161 2174 2719 0
-2161 -2174 -2719 0
2719 2228 -2389 0
2719 -2228 2389 0
-2719 2228 2389 0
-2719 -2228 -2389 0
2180 2188 -2720 0
2180 -2188 2720 0
-2180 2188 2720 0
-2180 -2188 -2720 0
2720 2234 -2721 0
2720 -2234 2721 0
-2720 2234 2721 0
-2720 -2234 -2721 0
2721 2249 -2722 0
2721 -2249 2722 0
-2721 2249 2722 0
-2721 -2249 -2722 0
2722 2255 -2723 0
2722 -2255 2723 0
-2722 2255 2723 0
-2722 -2255 -2723 0
2723 2262 -2724 0
2723 -2262 2724 0
-2723 2262 2724 0
-2723 -2262 -2724 0
2724 2266 -2390 0
2724 -2266 2390 0
-2724 2266 2390 0
-2724 -2266 -2390 0
2150 2192 -2725 0
2150 -2192 2725 0
-2150 2192 2725 0
-2150 -2192 -2725 0
2725 2267 -2391 0
2725 -2267 2391 0
-2725 2267 2391 0
-2725 -2267 -2391 0
2159 2170 -2726 0
2159 -2170 2726 0
-2159 2170 2726 0
-2159 -2170 -2726 0
2726 2181 -2727 0
2726 -2181 2727 0
-2726 2181 2727 0
-2726 -2181 -2727 0
2727 2194 -2728 0
2727 -2194 2728 0
-2727 2194 2728 0
-2727 -2194 -2728 0
2728 2208 -2729 0
2728 -2208 2729 0
-2728 2208 2729 0
-2728 -2208 -2729 0
2729 2212 -2730 0
2729 -2212 2730 0
-2729 2212 2730 0
-2729 -2212 -2730 0
2730 2248 -2392 0
2730 -2248 2392 0
-2730 2248 2392 0
-2730 -2248 -2392 0
2165 2178 -2731 0
2165 -2178 2731 0
-2165 2178 2731 0
-2165 -2178 -2731 0
2731 2232 -2393 0
2731 -2232 2393 0
-2731 2232 2393 0
-2731 -2232 -2393 0
2184 2192 -2732 0
2184 -2192 2732 0
-2184 2192 2732 0
-2184 -2192 -2732 0
2732 2238 -2733 0
2732 -2238 2733 0
-2732 2238 2733 0
-2732 -2238 -2733 0
2733 2253 -2734 0
2733 -2253 2734 0
-2733 2253 2734 0
-2733 -2253 -2734 0
2734 2259 -2735 0
2734 -2259 2735 0
-2734 2259 2735 0
-2734 -2259 -2735 0
2735 2266 -2736 0
2735 -2266 2736 0
-2735 2266 2736 0
-2735 -2266 -2736 0
2736 2270 -2394 0
2736 -2270 2394 0
-2736 2270 2394 0
-2736 -2270 -2394 0
2154 2196 -2737 0
2154 -2196 2737 0
-2154 2196 2737 0
-2154 -2196 -2737 0
2737 2271 -2395 0
2737 -2271 2395 0
-2737 2271 2395 0
-2737 -2271 -2395 0
2163 2174 -2738 0
2163 -2174 2738 0
-2163 2174 2738 0
-2163 -2174 -2738 0
2738 2185 -2739 0
2738 -2185 2739 0
-2738 2185 2739 0
-2738 -2185 -2739 0
2739 2198 -2740 0
2739 -2198 2740 0
-2739 2198 2740 0
-2739 -2198 -2740 0
2740 2212 -2741 0
2740 -2212 2741 0
-2740 2212 2741 0
-2740 -2212 -2741 0
2741 2216 -2742 0
2741 -2216 2742 0
-2741 2216 2742 0
-2741 -2216 -2742 0
2742 2252 -2396 0
2742 -2252 2396 0
-2742 2252 2396 0
-2742 -2252 -2396 0
2169 2182 -2743 0
2169 -2182 2743 0
-2169 2182 2743 0
-2169 -2182 -2743 0
2743 2236 -2397 0
2743 -2236 2397 0
-2743 2236 2397 0
-2743 -2236 -2397 0
2146 2188 -2744 0
2146 -2188 2744 0
-2146 2188 2744 0
-2146 -2188 -2744 0
2744 2196 -2745 0
2744 -2196 2745 0
-2744 2196 2745 0
-2744 -2196 -2745 0
2745 2242 -2746 0
2745 -2242 2746 0
-2745 2242 2746 0
-2745 -2242 -2746 0
2746 2257 -2747 0
2746 -2257 2747 0
-2746 2257 2747 0
-2746 -2257 -2747 0
2747 2263 -2748 0
2747 -2263 2748 0
-2747 2263 2748 0
-2747 -2263 -2748 0
2748 2270 -2398 0
2748 -2270 2398 0
-2748 2270 2398 0
-2748 -2270 -2398 0
2147 2158 -2749 0
2147 -2158 2749 0
-2147 2158 2749 0
-2147 -2158 -2749 0
2749 2200 -2399 0
2749 -2200 2399 0
-2749 2200 2399 0
-2749 -2200 -2399 0
2167 2178 -2750 0
2167 -2178 2750 0
-2167 2178 2750 0
-2167 -2178 -2750 0
2750 2189 -2751 0
2750 -2189 2751 0
-2750 2189 2751 0
-2750 -2189 -2751 0
2751 2202 -2752 0
2751 -2202 2752 0
-2751 2202 2752 0
-2751 -2202 -2752 0
2752 2216 -2753 0
2752 -2216 2753 0
-2752 2216 2753 0
-2752 -2216 -2753 0
2753 2220 -2754 0
2753 -2220 2754 0
-2753 2220 2754 0
-2753 -2220 -2754 0
2754 2256 -2400 0
2754 -2256 2400 0
-2754 2256 2400 0
-2754 -2256 -2400 0
2883 -2755 0
-2883 2755 0
2884 -2756 0
-2884 2756 0
2885 -2757 0
-2885 2757 0
2886 -2758 0
-2886 2758 0
2887 -2759 0
-2887 2759 0
2888 -2760 0
-2888 2760 0
2889 -2761 0
-2889 2761 0
2890 -2762 0
-2890 2762 0
2891 -2763 0
-2891 2763 0
2892 -2764 0
-2892 2764 0
2893 -2765 0
-2893 2765 0
2894 -2766 0
-2894 2766 0
2895 -2767 0
-2895 2767 0
2896 -2768 0
-2896 2768 0
2897 -2769 0
-2897 2769 0
2898 -2770 0
-2898 2770 0
2899 -2771 0
-2899 2771 0
2900 -2772 0
-2900 2772 0
2901 -2773 0
-2901 2773 0
2902 -2774 0
-2902 2774 0
2903 -2775 0
-2903 2775 0
2904 -2776 0
-2904 2776 0
2905 -2777 0
-2905 2777 0
2906 -2778 0
-2906 2778 0
2907 -2779 0
-2907 2779 0
2908 -2780 0
-2908 2780 0
2909 -2781 0
-2909 2781 0
2910 -2782 0
-2910 2782 0
2911 -2783 0
-2911 2783 0
2912 -2784 0
-2912 2784 0
2913 -2785 0
-2913 2785 0
2914 -2786 0
-2914 2786 0
2915 -2787 0
-2915 2787 0
2916 -2788 0
-2916 2788 0
2917 -2789 0
-2917 2789 0
2918 -2790 0
-2918 2790 0
2919 -2791 0
-2919 2791 0
2920 -2792 0
-2920 2792 0
2921 -2793 0
-2921 2793 0
2922 -2794 0
-2922 2794 0
2923 -2795 0
-2923 2795 0
2924 -2796 0
-2924 2796 0
2925 -2797 0
-2925 2797 0
2926 -2798 0
-2926 2798 0
2927 -2799 0
-2927 2799 0
2928 -2800 0
-2928 2800 0
2929 -2801 0
-2929 2801 0
2930 -2802 0
-2930 2802 0
2931 -2803 0
-2931 2803 0
2932 -2804 0
-2932 2804 0
2933 -2805 0
-2933 2805 0
2934 -2806 0
-2934 2806 0
2935 -2807 0
-2935 2807 0
2936 -2808 0
-2936 2808 0
2937 -2809 0
-2937 2809 0
2938 -2810 0
-2938 2810 0
2939 -2811 0
-2939 2811 0
2940 -2812 0
-2940 2812 0
2941 -2813 0
-2941 2813 0
2942 -2814 0
-2942 2814 0
2943 -2815 0
-2943 2815 0
2944 -2816 0
-2944 2816 0
2945 -2817 0
-2945 2817 0
2946 -2818 0
-2946 2818 0
2947 -2819 0
-2947 2819 0
2948 -2820 0
-2948 2820 0
2949 -2821 0
-2949 2821 0
2950 -2822 0
-2950 2822 0
2951 -2823 0
-2951 2823 0
2952 -2824 0
-2952 2824 0
2953 -2825 0
-2953 2825 0
2954 -2826 0
-2954 2826 0
2955 -2827 0
-2955 2827 0
2956 -2828 0
-2956 2828 0
2957 -2829 0
-2957 2829 0
2958 -2830 0
-2958 2830 0
2959 -2831 0
-2959 2831 0
2960 -2832 0
-2960 2832 0
2961 -2833 0
-2961 2833 0
2962 -2834 0
-2962 2834 0
2963 -2835 0
-2963 2835 0
2964 -2836 0
-2964 2836 0
2965 -2837 0
-2965 2837 0
2966 -2838 0
-2966 2838 0
2967 -2839 0
-2967 2839 0
2968 -2840 0
-2968 2840 0
2969 -2841 0
-2969 2841 0
2970 -2842 0
-2970 2842 0
2971 -2843 0
-2971 2843 0
2972 -2844 0
-2972 2844 0
2973 -2845 0
-2973 2845 0
2974 -2846 0
-2974 2846 0
2975 -2847 0
-2975 2847 0
2976 -2848 0
-2976 2848 0
2977 -2849 0
-2977 2849 0
2978 -2850 0
-2978 2850 0
2979 -2851 0
-2979 2851 0
2980 -2852 0
-2980 2852 0
2981 -2853 0
-2981 2853 0
2982 -2854 0
-2982 2854 0
2983 -2855 0
-2983 2855 0
2984 -2856 0
-2984 2856 0
2985 -2857 0
-2985 2857 0
2986 -2858 0
-2986 2858 0
2987 -2859 0
-2987 2859 0
2988 -2860 0
-2988 2860 0
2989 -2861 0
-2989 2861 0
2990 -2862 0
-2990 2862 0
2991 -2863 0
-2991 2863 0
2992 -2864 0
-2992 2864 0
2993 -2865 0
-2993 2865 0
2994 -2866 0
-2994 2866 0
2995 -2867 0
-2995 2867 0
2996 -2868 0
-2996 2868 0
2997 -2869 0
-2997 2869 0
2998 -2870 0
-2998 2870 0
2999 -2871 0
-2999 2871 0
3000 -2872 0
-3000 2872 0
3001 -2873 0
-3001 2873 0
3002 -2874 0
-3002 2874 0
3003 -2875 0
-3003 2875 0
3004 -2876 0
-3004 2876 0
3005 -2877 0
-3005 2877 0
3006 -2878 0
-3006 2878 0
3007 -2879 0
-3007 2879 0
3008 -2880 0
-3008 2880 0
3009 -2881 0
-3009 2881 0
3010 -2882 0
-3010 2882 0
-3395 3267 0
3395 -3267 0
-3396 3268 0
3396 -3268 0
-3397 3269 0
3397 -3269 0
-3398 3270 0
3398 -3270 0
-3399 3271 0
3399 -3271 0
-3400 3272 0
3400 -3272 0
-3401 3273 0
3401 -3273 0
-3402 3274 0
3402 -3274 0
-3403 3275 0
3403 -3275 0
-3404 3276 0
3404 -3276 0
-3405 3277 0
3405 -3277 0
-3406 3278 0
3406 -3278 0
-3407 3279 0
3407 -3279 0
-3408 3280 0
3408 -3280 0
-3409 3281 0
3409 -3281 0
-3410 3282 0
3410 -3282 0
-3411 3283 0
3411 -3283 0
-3412 3284 0
3412 -3284 0
-3413 3285 0
3413 -3285 0
-3414 3286 0
3414 -3286 0
-3415 3287 0
3415 -3287 0
-3416 3288 0
3416 -3288 0
-3417 3289 0
3417 -3289 0
-3418 3290 0
3418 -3290 0
-3419 3291 0
3419 -3291 0
-3420 3292 0
3420 -3292 0
-3421 3293 0
3421 -3293 0
-3422 3294 0
3422 -3294 0
-3423 3295 0
3423 -3295 0
-3424 3296 0
3424 -3296 0
-3425 3297 0
3425 -3297 0
-3426 3298 0
3426 -3298 0
-3427 3299 0
3427 -3299 0
-3428 3300 0
3428 -3300 0
-3429 3301 0
3429 -3301 0
-3430 3302 0
3430 -3302 0
-3431 3303 0
3431 -3303 0
-3432 3304 0
3432 -3304 0
-3433 3305 0
3433 -3305 0
-3434 3306 0
3434 -3306 0
-3435 3307 0
3435 -3307 0
-3436 3308 0
3436 -3308 0
-3437 3309 0
3437 -3309 0
-3438 3310 0
3438 -3310 0
-3439 3311 0
3439 -3311 0
-3440 3312 0
3440 -3312 0
-3441 3313 0
3441 -3313 0
-3442 3314 0
3442 -3314 0
-3443 3315 0
3443 -3315 0
-3444 3316 0
3444 -3316 0
-3445 3317 0
3445 -3317 0
-3446 3318 0
3446 -3318 0
-3447 3319 0
3447 -3319 0
-3448 3320 0
3448 -3320 0
-3449 3321 0
3449 -3321 0
-3450 3322 0
3450 -3322 0
-3451 3323 0
3451 -3323 0
-3452 3324 0
3452 -3324 0
-3453 3325 0
3453 -3325 0
-3454 3326 0
3454 -3326 0
-3455 3327 0
3455 -3327 0
-3456 3328 0
3456 -3328 0
-3457 3329 0
3457 -3329 0
-3458 3330 0
3458 -3330 0
-3459 3331 0
3459 -3331 0
-3460 3332 0
3460 -3332 0
-3461 3333 0
3461 -3333 0
-3462 3334 0
3462 -3334 0
-3463 3335 0
3463 -3335 0
-3464 3336 0
3464 -3336 0
-3465 3337 0
3465 -3337 0
-3466 3338 0
3466 -3338 0
-3467 3339 0
3467 -3339 0
-3468 3340 0
3468 -3340 0
-3469 3341 0
3469 -3341 0
-3470 3342 0
3470 -3342 0
-3471 3343 0
3471 -3343 0
-3472 3344 0
3472 -3344 0
-3473 3345 0
3473 -3345 0
-3474 3346 0
3474 -3346 0
-3475 3347 0
3475 -3347 0
-3476 3348 0
3476 -3348 0
-3477 3349 0
3477 -3349 0
-3478 3350 0
3478 -3350 0
-3479 3351 0
3479 -3351 0
-3480 3352 0
3480 -3352 0
-3481 3353 0
3481 -3353 0
-3482 3354 0
3482 -3354 0
-3483 3355 0
3483 -3355 0
-3484 3356 0
3484 -3356 0
-3485 3357 0
3485 -3357 0
-3486 3358 0
3486 -3358 0
-3487 3359 0
3487 -3359 0
-3488 3360 0
3488 -3360 0
-3489 3361 0
3489 -3361 0
-3490 3362 0
3490 -3362 0
-3491 3363 0
3491 -3363 0
-3492 3364 0
3492 -3364 0
-3493 3365 0
3493 -3365 0
-3494 3366 0
3494 -3366 0
-3495 3367 0
3495 -3367 0
-3496 3368 0
3496 -3368 0
-3497 3369 0
3497 -3369 0
-3498 3370 0
3498 -3370 0
-3499 3371 0
3499 -3371 0
-3500 3372 0
3500 -3372 0
-3501 3373 0
3501 -3373 0
-3502 3374 0
3502 -3374 0
-3503 3375 0
3503 -3375 0
-3504 3376 0
3504 -3376 0
-3505 3377 0
3505 -3377 0
-3506 3378 0
3506 -3378 0
-3507 3379 0
3507 -3379 0
-3508 3380 0
3508 -3380 0
-3509 3381 0
3509 -3381 0
-3510 3382 0
3510 -3382 0
-3511 3383 0
3511 -3383 0
-3512 3384 0
3512 -3384 0
-3513 3385 0
3513 -3385 0
-3514 3386 0
3514 -3386 0
-3515 3387 0
3515 -3387 0
-3516 3388 0
3516 -3388 0
-3517 3389 0
3517 -3389 0
-3518 3390 0
3518 -3390 0
-3519 3391 0
3519 -3391 0
-3520 3392 0
3520 -3392 0
-3521 3393 0
3521 -3393 0
-3522 3394 0
3522 -3394 0
3523 3524 3526 3527 -3528 -3529 0
3523 -3524 3526 3527 3528 -3530 0
3523 -3524 -3526 3527 -3528 3530 0
-3523 3524 3525 -3527 3528 -3530 3532 0
3524 -3525 3526 3527 3530 3532 0
-3524 3525 -3526 3527 -3529 -3530 0
3523 3524 -3526 -3527 -3528 3529 0
-3523 -3525 -3526 3527 -3528 -3532 0
-3523 3525 -3526 3527 3528 3530 3532 0
-3525 -3526 3527 3529 3532 0
3523 -3525 -3527 -3530 -3532 0
3525 3526 3527 3528 -3529 -3532 0
3527 3528 3529 3530 3533 0
3525 -3526 3527 -3530 -3532 0
3525 3526 -3527 3528 3529 -3532 0
-3523 -3525 3526 3528 3529 3530 3532 0
-3523 -3525 3526 3527 3528 -3529 3532 0
-3527 -3528 -3529 3530 3532 0
-3527 3528 -3529 3530 -3532 0
3523 -3524 -3525 -3528 3529 3530 0
-3524 -3525 3526 -3527 3529 -3530 0
-3523 -3524 3525 -3528 -3529 -3532 0
-3525 3526 3529 -3530 -3532 0
-3523 -3527 -3528 3529 -3532 0
3524 3525 -3527 3528 3529 3530 0
3523 3527 3528 3529 3533 0
-3524 3525 3526 -3528 3532 0
3525 3526 -3527 -3529 3532 0
-3523 3525 3526 3527 3529 3532 0
3524 3527 -3528 -3529 -3532 0
3523 3526 -3527 -3529 -3532 0
-3523 -3525 3526 -3528 -3529 3530 0
3524 -3527 -3528 3529 -3532 0
-3523 3524 -3525 -3526 -3532 0
-3523 3525 -3526 -3527 -3528 3530 0
-3524 -3525 3527 -3529 -3532 0
3524 3526 3528 3529 3530 3533 0
3523 -3525 -3526 -3528 3532 0
3523 -3524 3525 3528 3529 -3530 0
-3525 -3526 -3527 -3529 3532 0
-3523 -3524 -3525 -3526 3532 0
-3526 -3533 0
-3523 -3524 -3526 -3527 3528 3529 0
3524 3528 3530 -3532 0
-3523 3527 -3528 3529 3532 0
-3523 -3525 3526 -3527 -3530 0
3523 3528 -3532 0
-3523 3525 -3526 -3529 -3530 0
3523 3525 -3526 -3532 0
3524 3525 3527 3528 3530 3533 0
-3527 -3533 0
3524 3525 3526 3528 -3530 0
3523 3525 3526 -3531 0
3525 3526 3527 -3528 3529 0
-3525 -3533 0
3523 3527 3529 3530 3533 0
-3529 -3533 0
-3524 -3533 0
3531 3532 3533 0
-3531 -3532 0
3534 3535 3537 3538 -3539 -3540 0
3534 -3535 3537 3538 3539 -3541 0
3534 -3535 -3537 3538 -3539 3541 0
-3534 3535 3536 -3538 3539 -3541 3543 0
3535 -3536 3537 3538 3541 3543 0
-3535 3536 -3537 3538 -3540 -3541 0
3534 3535 -3537 -3538 -3539 3540 0
-3534 -3536 -3537 3538 -3539 -3543 0
-3534 3536 -3537 3538 3539 3541 3543 0
-3536 -3537 3538 3540 3543 0
3534 -3536 -3538 -3541 -3543 0
3536 3537 3538 3539 -3540 -3543 0
3538 3539 3540 3541 3544 0
3536 -3537 3538 -3541 -3543 0
3536 3537 -3538 3539 3540 -3543 0
-3534 -3536 3537 3539 3540 3541 3543 0
-3534 -3536 3537 3538 3539 -3540 3543 0
-3538 -3539 -3540 3541 3543 0
-3538 3539 -3540 3541 -3543 0
3534 -3535 -3536 -3539 3540 3541 0
-3535 -3536 3537 -3538 3540 -3541 0
-3534 -3535 3536 -3539 -3540 -3543 0
-3536 3537 3540 -3541 -3543 0
-3534 -3538 -3539 3540 -3543 0
3535 3536 -3538 3539 3540 3541 0
3534 3538 3539 3540 3544 0
-3535 3536 3537 -3539 3543 0
3536 3537 -3538 -3540 3543 0
-3534 3536 3537 3538 3540 3543 0
3535 3538 -3539 -3540 -3543 0
3534 3537 -3538 -3540 -3543 0
-3534 -3536 3537 -3539 -3540 3541 0
3535 -3538 -3539 3540 -3543 0
-3534 3535 -3536 -3537 -3543 0
-3534 3536 -3537 -3538 -3539 3541 0
-3535 -3536 3538 -3540 -3543 0
3535 3537 3539 3540 3541 3544 0
3534 -3536 -3537 -3539 3543 0
3534 -3535 3536 3539 3540 -3541 0
-3536 -3537 -3538 -3540 3543 0
-3534 -3535 -3536 -3537 3543 0
-3537 -3544 0
-3534 -3535 -3537 -3538 3539 3540 0
3535 3539 3541 -3543 0
-3534 3538 -3539 3540 3543 0
-3534 -3536 3537 -3538 -3541 0
3534 3539 -3543 0
-3534 3536 -3537 -3540 -3541 0
3534 3536 -3537 -3543 0
3535 3536 3538 3539 3541 3544 0
-3538 -3544 0
3535 3536 3537 3539 -3541 0
3534 3536 3537 -3542 0
3536 3537 3538 -3539 3540 0
-3536 -3544 0
3534 3538 3540 3541 3544 0
-3540 -3544 0
-3535 -3544 0
3542 3543 3544 0
-3542 -3543 0
3545 3546 3548 3549 -3550 -3551 0
3545 -3546 3548 3549 3550 -3552 0
3545 -3546 -3548 3549 -3550 3552 0
-3545 3546 3547 -3549 3550 -3552 3554 0
3546 -3547 3548 3549 3552 3554 0
-3546 3547 -3548 3549 -3551 -3552 0
3545 3546 -3548 -3549 -3550 3551 0
-3545 -3547 -3548 3549 -3550 -3554 0
-3545 3547 -3548 3549 3550 3552 3554 0
-3547 -3548 3549 3551 3554 0
3545 -3547 -3549 -3552 -3554 0
3547 3548 3549 3550 -3551 -3554 0
3549 3550 3551 3552 3555 0
3547 -3548 3549 -3552 -3554 0
3547 3548 -3549 3550 3551 -3554 0
-3545 -3547 3548 3550 3551 3552 3554 0
-3545 -3547 3548 3549 3550 -3551 3554 0
-3549 -3550 -3551 3552 3554 0
-3549 3550 -3551 3552 -3554 0
3545 -3546 -3547 -3550 3551 3552 0
-3546 -3547 3548 -3549 3551 -3552 0
-3545 -3546 3547 -3550 -3551 -3554 0
-3547 3548 3551 -3552 -3554 0
-3545 -3549 -3550 3551 -3554 0
3546 3547 -3549 3550 3551 3552 0
3545 3549 3550 3551 3555 0
-3546 3547 3548 -3550 3554 0
3547 3548 -3549 -3551 3554 0
-3545 3547 3548 3549 3551 3554 0
3546 3549 -3550 -3551 -3554 0
3545 3548 -3549 -3551 -3554 0
-3545 -3547 3548 -3550 -3551 3552 0
3546 -3549 -3550 3551 -3554 0
-3545 3546 -3547 -3548 -3554 0
-3545 3547 -3548 -3549 -3550 3552 0
-3546 -3547 3549 -3551 -3554 0
3546 3548 3550 3551 3552 3555 0
3545 -3547 -3548 -3550 3554 0
3545 -3546 3547 3550 3551 -3552 0
-3547 -3548 -3549 -3551 3554 0
-3545 -3546 -3547 -3548 3554 0
-3548 -3555 0
-3545 -3546 -3548 -3549 3550 3551 0
3546 3550 3552 -3554 0
-3545 3549 -3550 3551 3554 0
-3545 -3547 3548 -3549 -3552 0
3545 3550 -3554 0
-3545 3547 -3548 -3551 -3552 0
3545 3547 -3548 -3554 0
3546 3547 3549 3550 3552 3555 0
-3549 -3555 0
3546 3547 3548 3550 -3552 0
3545 3547 3548 -3553 0
3547 3548 3549 -3550 3551 0
-3547 -3555 0
3545 3549 3551 3552 3555 0
-3551 -3555 0
-3546 -3555 0
3553 3554 3555 0
-3553 -3554 0
3556 3557 3559 3560 -3561 -3562 0
3556 -3557 3559 3560 3561 -3563 0
3556 -3557 -3559 3560 -3561 3563 0
-3556 3557 3558 -3560 3561 -3563 3565 0
3557 -3558 3559 3560 3563 3565 0
-3557 3558 -3559 3560 -3562 -3563 0
3556 3557 -3559 -3560 -3561 3562 0
-3556 -3558 -3559 3560 -3561 -3565 0
-3556 3558 -3559 3560 3561 3563 3565 0
-3558 -3559 3560 3562 3565 0
3556 -3558 -3560 -3563 -3565 0
3558 3559 3560 3561 -3562 -3565 0
3560 3561 3562 3563 3566 0
3558 -3559 3560 -3563 -3565 0
3558 3559 -3560 3561 3562 -3565 0
-3556 -3558 3559 3561 3562 3563 3565 0
-3556 -3558 3559 3560 3561 -3562 3565 0
-3560 -3561 -3562 3563 3565 0
-3560 3561 -3562 3563 -3565 0
3556 -3557 -3558 -3561 3562 3563 0
-3557 -3558 3559 -3560 3562 -3563 0
-3556 -3557 3558 -3561 -3562 -3565 0
-3558 3559 3562 -3563 -3565 0
-3556 -3560 -3561 3562 -3565 0
3557 3558 -3560 3561 3562 3563 0
3556 3560 3561 3562 3566 0
-3557 3558 3559 -3561 3565 0
3558 3559 -3560 -3562 3565 0
-3556 3558 3559 3560 3562 3565 0
3557 3560 -3561 -3562 -3565 0
3556 3559 -3560 -3562 -3565 0
-3556 -3558 3559 -3561 -3562 3563 0
3557 -3560 -3561 3562 -3565 0
-3556 3557 -3558 -3559 -3565 0
-3556 3558 -3559 -3560 -3561 3563 0
-3557 -3558 3560 -3562 -3565 0
3557 3559 3561 3562 3563 3566 0
3556 -3558 -3559 -3561 3565 0
3556 -3557 3558 3561 3562 -3563 0
-3558 -3559 -3560 -3562 3565 0
-3556 -3557 -3558 -3559 3565 0
-3559 -3566 0
-3556 -3557 -3559 -3560 3561 3562 0
3557 3561 3563 -3565 0
-3556 3560 -3561 3562 3565 0
-3556 -3558 3559 -3560 -3563 0
3556 3561 -3565 0
-3556 3558 -3559 -3562 -3563 0
3556 3558 -3559 -3565 0
3557 3558 3560 3561 3563 3566 0
-3560 -3566 0
3557 3558 3559 3561 -3563 0
3556 3558 3559 -3564 0
3558 3559 3560 -3561 3562 0
-3558 -3566 0
3556 3560 3562 3563 3566 0
-3562 -3566 0
-3557 -3566 0
3564 3565 3566 0
-3564 -3565 0
3567 3568 3570 3571 -3572 -3573 0
3567 -3568 3570 3571 3572 -3574 0
3567 -3568 -3570 3571 -3572 3574 0
-3567 3568 3569 -3571 3572 -3574 3576 0
3568 -3569 3570 3571 3574 3576 0
-3568 3569 -3570 3571 -3573 -3574 0
3567 3568 -3570 -3571 -3572 3573 0
-3567 -3569 -3570 3571 -3572 -3576 0
-3567 3569 -3570 3571 3572 3574 3576 0
-3569 -3570 3571 3573 3576 0
3567 -3569 -3571 -3574 -3576 0
3569 3570 3571 3572 -3573 -3576 0
3571 3572 3573 3574 3577 0
3569 -3570 3571 -3574 -3576 0
3569 3570 -3571 3572 3573 -3576 0
-3567 -3569 3570 3572 3573 3574 3576 0
-3567 -3569 3570 3571 3572 -3573 3576 0
-3571 -3572 -3573 3574 3576 0
-3571 3572 -3573 3574 -3576 0
3567 -3568 -3569 -3572 3573 3574 0
-3568 -3569 3570 -3571 3573 -3574 0
-3567 -3568 3569 -3572 -3573 -3576 0
-3569 3570 3573 -3574 -3576 0
-3567 -3571 -3572 3573 -3576 0
3568 3569 -3571 3572 3573 3574 0
3567 3571 3572 3573 3577 0
-3568 3569 3570 -3572 3576 0
3569 3570 -3571 -3573 3576 0
-3567 3569 3570 3571 3573 3576 0
3568 3571 -3572 -3573 -3576 0
3567 3570 -3571 -3573 -3576 0
-3567 -3569 3570 -3572 -3573 3574 0
3568 -3571 -3572 3573 -3576 0
-3567 3568 -3569 -3570 -3576 0
-3567 3569 -3570 -3571 -3572 3574 0
-3568 -3569 3571 -3573 -3576 0
3568 3570 3572 3573 3574 3577 0
3567 -3569 -3570 -3572 3576 0
3567 -3568 3569 3572 3573 -3574 0
-3569 -3570 -3571 -3573 3576 0
-3567 -3568 -3569 -3570 3576 0
-3570 -3577 0
-3567 -3568 -3570 -3571 3572 3573 0
3568 3572 3574 -3576 0
-3567 3571 -3572 3573 3576 0
-3567 -3569 3570 -3571 -3574 0
3567 3572 -3576 0
-3567 3569 -3570 -3573 -3574 0
3567 3569 -3570 -3576 0
3568 3569 3571 3572 3574 3577 0
-3571 -3577 0
3568 3569 3570 3572 -3574 0
3567 3569 3570 -3575 0
3569 3570 3571 -3572 3573 0
-3569 -3577 0
3567 3571 3573 3574 3577 0
-3573 -3577 0
-3568 -3577 0
3575 3576 3577 0
-3575 -3576 0
3578 3579 3581 3582 -3583 -3584 0
3578 -3579 3581 3582 3583 -3585 0
3578 -3579 -3581 3582 -3583 3585 0
-3578 3579 3580 -3582 3583 -3585 3587 0
3579 -3580 3581 3582 3585 3587 0
-3579 3580 -3581 3582 -3584 -3585 0
3578 3579 -3581 -3582 -3583 3584 0
-3578 -3580 -3581 3582 -3583 -3587 0
-3578 3580 -3581 3582 3583 3585 3587 0
-3580 -3581 3582 3584 3587 0
3578 -3580 -3582 -3585 -3587 0
3580 3581 3582 3583 -3584 -3587 0
3582 3583 3584 3585 3588 0
3580 -3581 3582 -3585 -3587 0
3580 3581 -3582 3583 3584 -3587 0
-3578 -3580 3581 3583 3584 3585 3587 0
-3578 -3580 3581 3582 3583 -3584 3587 0
-3582 -3583 -3584 3585 3587 0
-3582 3583 -3584 3585 -3587 0
3578 -3579 -3580 -3583 3584 3585 0
-3579 -3580 3581 -3582 3584 -3585 0
-3578 -3579 3580 -3583 -3584 -3587 0
-3580 3581 3584 -3585 -3587 0
-3578 -3582 -3583 3584 -3587 0
3579 3580 -3582 3583 3584 3585 0
3578 3582 3583 3584 3588 0
-3579 3580 3581 -3583 3587 0
3580 3581 -3582 -3584 3587 0
-3578 3580 3581 3582 3584 3587 0
3579 3582 -3583 -3584 -3587 0
3578 3581 -3582 -3584 -3587 0
-3578 -3580 3581 -3583 -3584 3585 0
3579 -3582 -3583 3584 -3587 0
-3578 3579 -3580 -3581 -3587 0
-3578 3580 -3581 -3582 -3583 3585 0
-3579 -3580 3582 -3584 -3587 0
3579 3581 3583 3584 3585 3588 0
3578 -3580 -3581 -3583 3587 0
3578 -3579 3580 3583 3584 -3585 0
-3580 -3581 -3582 -3584 3587 0
-3578 -3579 -3580 -3581 3587 0
-3581 -3588 0
-3578 -3579 -3581 -3582 3583 3584 0
3579 3583 3585 -3587 0
-3578 3582 -3583 3584 3587 0
-3578 -3580 3581 -3582 -3585 0
3578 3583 -3587 0
-3578 3580 -3581 -3584 -3585 0
3578 3580 -3581 -3587 0
3579 3580 3582 3583 3585 3588 0
-3582 -3588 0
3579 3580 3581 3583 -3585 0
3578 3580 3581 -3586 0
3580 3581 3582 -3583 3584 0
-3580 -3588 0
3578 3582 3584 3585 3588 0
-3584 -3588 0
-3579 -3588 0
3586 3587 3588 0
-3586 -3587 0
3589 3590 3592 3593 -3594 -3595 0
3589 -3590 3592 3593 3594 -3596 0
3589 -3590 -3592 3593 -3594 3596 0
-3589 3590 3591 -3593 3594 -3596 3598 0
3590 -3591 3592 3593 3596 3598 0
-3590 3591 -3592 3593 -3595 -3596 0
3589 3590 -3592 -3593 -3594 3595 0
-3589 -3591 -3592 3593 -3594 -3598 0
-3589 3591 -3592 3593 3594 3596 3598 0
-3591 -3592 3593 3595 3598 0
3589 -3591 -3593 -3596 -3598 0
3591 3592 3593 3594 -3595 -3598 0
3593 3594 3595 3596 3599 0
3591 -3592 3593 -3596 -3598 0
3591 3592 -3593 3594 3595 -3598 0
-3589 -3591 3592 3594 3595 3596 3598 0
-3589 -3591 3592 3593 3594 -3595 3598 0
-3593 -3594 -3595 3596 3598 0
-3593 3594 -3595 3596 -3598 0
3589 -3590 -3591 -3594 3595 3596 0
-3590 -3591 3592 -3593 3595 -3596 0
-3589 -3590 3591 -3594 -3595 -3598 0
-3591 3592 3595 -3596 -3598 0
-3589 -3593 -3594 3595 -3598 0
3590 3591 -3593 3594 3595 3596 0
3589 3593 3594 3595 3599 0
-3590 3591 3592 -3594 3598 0
3591 3592 -3593 -3595 3598 0
-3589 3591 3592 3593 3595 3598 0
3590 3593 -3594 -3595 -3598 0
3589 3592 -3593 -3595 -3598 0
-3589 -3591 3592 -3594 -3595 3596 0
3590 -3593 -3594 3595 -3598 0
-3589 3590 -3591 -3592 -3598 0
-3589 3591 -3592 -3593 -3594 3596 0
-3590 -3591 3593 -3595 -3598 0
3590 3592 3594 3595 3596 3599 0
3589 -3591 -3592 -3594 3598 0
3589 -3590 3591 3594 3595 -3596 0
-3591 -3592 -3593 -3595 3598 0
-3589 -3590 -3591 -3592 3598 0
-3592 -3599 0
-3589 -3590 -3592 -3593 3594 3595 0
3590 3594 3596 -3598 0
-3589 3593 -3594 3595 3598 0
-3589 -3591 3592 -3593 -3596 0
3589 3594 -3598 0
-3589 3591 -3592 -3595 -3596 0
3589 3591 -3592 -3598 0
3590 3591 3593 3594 3596 3599 0
-3593 -3599 0
3590 3591 3592 3594 -3596 0
3589 3591 3592 -3597 0
3591 3592 3593 -3594 3595 0
-3591 -3599 0
3589 3593 3595 3596 3599 0
-3595 -3599 0
-3590 -3599 0
3597 3598 3599 0
-3597 -3598 0
3600 3601 3603 3604 -3605 -3606 0
3600 -3601 3603 3604 3605 -3607 0
3600 -3601 -3603 3604 -3605 3607 0
-3600 3601 3602 -3604 3605 -3607 3609 0
3601 -3602 3603 3604 3607 3609 0
-3601 3602 -3603 3604 -3606 -3607 0
3600 3601 -3603 -3604 -3605 3606 0
-3600 -3602 -3603 3604 -3605 -3609 0
-3600 3602 -3603 3604 3605 3607 3609 0
-3602 -3603 3604 3606 3609 0
3600 -3602 -3604 -3607 -3609 0
3602 3603 3604 3605 -3606 -3609 0
3604 3605 3606 3607 3610 0
3602 -3603 3604 -3607 -3609 0
3602 3603 -3604 3605 3606 -3609 0
-3600 -3602 3603 3605 3606 3607 3609 0
-3600 -3602 3603 3604 3605 -3606 3609 0
-3604 -3605 -3606 3607 3609 0
-3604 3605 -3606 3607 -3609 0
3600 -3601 -3602 -3605 3606 3607 0
-3601 -3602 3603 -3604 3606 -3607 0
-3600 -3601 3602 -3605 -3606 -3609 0
-3602 3603 3606 -3607 -3609 0
-3600 -3604 -3605 3606 -3609 0
3601 3602 -3604 3605 3606 3607 0
3600 3604 3605 3606 3610 0
-3601 3602 3603 -3605 3609 0
3602 3603 -3604 -3606 3609 0
-3600 3602 3603 3604 3606 3609 0
3601 3604 -3605 -3606 -3609 0
3600 3603 -3604 -3606 -3609 0
-3600 -3602 3603 -3605 -3606 3607 0
3601 -3604 -3605 3606 -3609 0
-3600 3601 -3602 -3603 -3609 0
-3600 3602 -3603 -3604 -3605 3607 0
-3601 -3602 3604 -3606 -3609 0
3601 3603 3605 3606 3607 3610 0
3600 -3602 -3603 -3605 3609 0
3600 -3601 3602 3605 3606 -3607 0
-3602 -3603 -3604 -3606 3609 0
-3600 -3601 -3602 -3603 3609 0
-3603 -3610 0
-3600 -3601 -3603 -3604 3605 3606 0
3601 3605 3607 -3609 0
-3600 3604 -3605 3606 3609 0
-3600 -3602 3603 -3604 -3607 0
3600 3605 -3609 0
-3600 3602 -3603 -3606 -3607 0
3600 3602 -3603 -3609 0
3601 3602 3604 3605 3607 3610 0
-3604 -3610 0
3601 3602 3603 3605 -3607 0
3600 3602 3603 -3608 0
3602 3603 3604 -3605 3606 0
-3602 -3610 0
3600 3604 3606 3607 3610 0
-3606 -3610 0
-3601 -3610 0
3608 3609 3610 0
-3608 -3609 0
3611 3612 3614 3615 -3616 -3617 0
3611 -3612 3614 3615 3616 -3618 0
3611 -3612 -3614 3615 -3616 3618 0
-3611 3612 3613 -3615 3616 -3618 3620 0
3612 -3613 3614 3615 3618 3620 0
-3612 3613 -3614 3615 -3617 -3618 0
3611 3612 -3614 -3615 -3616 3617 0
-3611 -3613 -3614 3615 -3616 -3620 0
-3611 3613 -3614 3615 3616 3618 3620 0
-3613 -3614 3615 3617 3620 0
3611 -3613 -3615 -3618 -3620 0
3613 3614 3615 3616 -3617 -3620 0
3615 3616 3617 3618 3621 0
3613 -3614 3615 -3618 -3620 0
3613 3614 -3615 3616 3617 -3620 0
-3611 -3613 3614 3616 3617 3618 3620 0
-3611 -3613 3614 3615 3616 -3617 3620 0
-3615 -3616 -3617 3618 3620 0
-3615 3616 -3617 3618 -3620 0
3611 -3612 -3613 -3616 3617 3618 0
-3612 -3613 3614 -3615 3617 -3618 0
-3611 -3612 3613 -3616 -3617 -3620 0
-3613 3614 3617 -3618 -3620 0
-3611 -3615 -3616 3617 -3620 0
3612 3613 -3615 3616 3617 3618 0
3611 3615 3616 3617 3621 0
-3612 3613 3614 -3616 3620 0
3613 3614 -3615 -3617 3620 0
-3611 3613 3614 3615 3617 3620 0
3612 3615 -3616 -3617 -3620 0
3611 3614 -3615 -3617 -3620 0
-3611 -3613 3614 -3616 -3617 3618 0
3612 -3615 -3616 3617 -3620 0
-3611 3612 -3613 -3614 -3620 0
-3611 3613 -3614 -3615 -3616 3618 0
-3612 -3613 3615 -3617 -3620 0
3612 3614 3616 3617 3618 3621 0
3611 -3613 -3614 -3616 3620 0
3611 -3612 3613 3616 3617 -3618 0
-3613 -3614 -3615 -3617 3620 0
-3611 -3612 -3613 -3614 3620 0
-3614 -3621 0
-3611 -3612 -3614 -3615 3616 3617 0
3612 3616 3618 -3620 0
-3611 3615 -3616 3617 3620 0
-3611 -3613 3614 -3615 -3618 0
3611 3616 -3620 0
-3611 3613 -3614 -3617 -3618 0
3611 3613 -3614 -3620 0
3612 3613 3615 3616 3618 3621 0
-3615 -3621 0
3612 3613 3614 3616 -3618 0
3611 3613 3614 -3619 0
3613 3614 3615 -3616 3617 0
-3613 -3621 0
3611 3615 3617 3618 3621 0
-3617 -3621 0
-3612 -3621 0
3619 3620 3621 0
-3619 -3620 0
3622 3623 3625 3626 -3627 -3628 0
3622 -3623 3625 3626 3627 -3629 0
3622 -3623 -3625 3626 -3627 3629 0
-3622 3623 3624 -3626 3627 -3629 3631 0
3623 -3624 3625 3626 3629 3631 0
-3623 3624 -3625 3626 -3628 -3629 0
3622 3623 -3625 -3626 -3627 3628 0
-3622 -3624 -3625 3626 -3627 -3631 0
-3622 3624 -3625 3626 3627 3629 3631 0
-3624 -3625 3626 3628 3631 0
3622 -3624 -3626 -3629 -3631 0
3624 3625 3626 3627 -3628 -3631 0
3626 3627 3628 3629 3632 0
3624 -3625 3626 -3629 -3631 0
3624 3625 -3626 3627 3628 -3631 0
-3622 -3624 3625 3627 3628 3629 3631 0
-3622 -3624 3625 3626 3627 -3628 3631 0
-3626 -3627 -3628 3629 3631 0
-3626 3627 -3628 3629 -3631 0
3622 -3623 -3624 -3627 3628 3629 0
-3623 -3624 3625 -3626 3628 -3629 0
-3622 -3623 3624 -3627 -3628 -3631 0
-3624 3625 3628 -3629 -3631 0
-3622 -3626 -3627 3628 -3631 0
3623 3624 -3626 3627 3628 3629 0
3622 3626 3627 3628 3632 0
-3623 3624 3625 -3627 3631 0
3624 3625 -3626 -3628 3631 0
-3622 3624 3625 3626 3628 3631 0
3623 3626 -3627 -3628 -3631 0
3622 3625 -3626 -3628 -3631 0
-3622 -3624 3625 -3627 -3628 3629 0
3623 -3626 -3627 3628 -3631 0
-3622 3623 -3624 -3625 -3631 0
-3622 3624 -3625 -3626 -3627 3629 0
-3623 -3624 3626 -3628 -3631 0
3623 3625 3627 3628 3629 3632 0
3622 -3624 -3625 -3627 3631 0
3622 -3623 3624 3627 3628 -3629 0
-3624 -3625 -3626 -3628 3631 0
-3622 -3623 -3624 -3625 3631 0
-3625 -3632 0
-3622 -3623 -3625 -3626 3627 3628 0
3623 3627 3629 -3631 0
-3622 3626 -3627 3628 3631 0
-3622 -3624 3625 -3626 -3629 0
3622 3627 -3631 0
-3622 3624 -3625 -3628 -3629 0
3622 3624 -3625 -3631 0
3623 3624 3626 3627 3629 3632 0
-3626 -3632 0
3623 3624 3625 3627 -3629 0
3622 3624 3625 -3630 0
3624 3625 3626 -3627 3628 0
-3624 -3632 0
3622 3626 3628 3629 3632 0
-3628 -3632 0
-3623 -3632 0
3630 3631 3632 0
-3630 -3631 0
3633 3634 3636 3637 -3638 -3639 0
3633 -3634 3636 3637 3638 -3640 0
3633 -3634 -3636 3637 -3638 3640 0
-3633 3634 3635 -3637 3638 -3640 3642 0
3634 -3635 3636 3637 3640 3642 0
-3634 3635 -3636 3637 -3639 -3640 0
3633 3634 -3636 -3637 -3638 3639 0
-3633 -3635 -3636 3637 -3638 -3642 0
-3633 3635 -3636 3637 3638 3640 3642 0
-3635 -3636 3637 3639 3642 0
3633 -3635 -3637 -3640 -3642 0
3635 3636 3637 3638 -3639 -3642 0
3637 3638 3639 3640 3643 0
3635 -3636 3637 -3640 -3642 0
3635 3636 -3637 3638 3639 -3642 0
-3633 -3635 3636 3638 3639 3640 3642 0
-3633 -3635 3636 3637 3638 -3639 3642 0
-3637 -3638 -3639 3640 3642 0
-3637 3638 -3639 3640 -3642 0
3633 -3634 -3635 -3638 3639 3640 0
-3634 -3635 3636 -3637 3639 -3640 0
-3633 -3634 3635 -3638 -3639 -3642 0
-3635 3636 3639 -3640 -3642 0
-3633 -3637 -3638 3639 -3642 0
3634 3635 -3637 3638 3639 3640 0
3633 3637 3638 3639 3643 0
-3634 3635 3636 -3638 3642 0
3635 3636 -3637 -3639 3642 0
-3633 3635 3636 3637 3639 3642 0
3634 3637 -3638 -3639 -3642 0
3633 3636 -3637 -3639 -3642 0
-3633 -3635 3636 -3638 -3639 3640 0
3634 -3637 -3638 3639 -3642 0
-3633 3634 -3635 -3636 -3642 0
-3633 3635 -3636 -3637 -3638 3640 0
-3634 -3635 3637 -3639 -3642 0
3634 3636 3638 3639 3640 3643 0
3633 -3635 -3636 -3638 3642 0
3633 -3634 3635 3638 3639 -3640 0
-3635 -3636 -3637 -3639 3642 0
-3633 -3634 -3635 -3636 3642 0
-3636 -3643 0
-3633 -3634 -3636 -3637 3638 3639 0
3634 3638 3640 -3642 0
-3633 3637 -3638 3639 3642 0
-3633 -3635 3636 -3637 -3640 0
3633 3638 -3642 0
-3633 3635 -3636 -3639 -3640 0
3633 3635 -3636 -3642 0
3634 3635 3637 3638 3640 3643 0
-3637 -3643 0
3634 3635 3636 3638 -3640 0
3633 3635 3636 -3641 0
3635 3636 3637 -3638 3639 0
-3635 -3643 0
3633 3637 3639 3640 3643 0
-3639 -3643 0
-3634 -3643 0
3641 3642 3643 0
-3641 -3642 0
3644 3645 3647 3648 -3649 -3650 0
3644 -3645 3647 3648 3649 -3651 0
3644 -3645 -3647 3648 -3649 3651 0
-3644 3645 3646 -3648 3649 -3651 3653 0
3645 -3646 3647 3648 3651 3653 0
-3645 3646 -3647 3648 -3650 -3651 0
3644 3645 -3647 -3648 -3649 3650 0
-3644 -3646 -3647 3648 -3649 -3653 0
-3644 3646 -3647 3648 3649 3651 3653 0
-3646 -3647 3648 3650 3653 0
3644 -3646 -3648 -3651 -3653 0
3646 3647 3648 3649 -3650 -3653 0
3648 3649 3650 3651 3654 0
3646 -3647 3648 -3651 -3653 0
3646 3647 -3648 3649 3650 -3653 0
-3644 -3646 3647 3649 3650 3651 3653 0
-3644 -3646 3647 3648 3649 -3650 3653 0
-3648 -3649 -3650 3651 3653 0
-3648 3649 -3650 3651 -3653 0
3644 -3645 -3646 -3649 3650 3651 0
-3645 -3646 3647 -3648 3650 -3651 0
-3644 -3645 3646 -3649 -3650 -3653 0
-3646 3647 3650 -3651 -3653 0
-3644 -3648 -3649 3650 -3653 0
3645 3646 -3648 3649 3650 3651 0
3644 3648 3649 3650 3654 0
-3645 3646 3647 -3649 3653 0
3646 3647 -3648 -3650 3653 0
-3644 3646 3647 3648 3650 3653 0
3645 3648 -3649 -3650 -3653 0
3644 3647 -3648 -3650 -3653 0
-3644 -3646 3647 -3649 -3650 3651 0
3645 -3648 -3649 3650 -3653 0
-3644 3645 -3646 -3647 -3653 0
-3644 3646 -3647 -3648 -3649 3651 0
-3645 -3646 3648 -3650 -3653 0
3645 3647 3649 3650 3651 3654 0
3644 -3646 -3647 -3649 3653 0
3644 -3645 3646 3649 3650 -3651 0
-3646 -3647 -3648 -3650 3653 0
-3644 -3645 -3646 -3647 3653 0
-3647 -3654 0
-3644 -3645 -3647 -3648 3649 3650 0
3645 3649 3651 -3653 0
-3644 3648 -3649 3650 3653 0
-3644 -3646 3647 -3648 -3651 0
3644 3649 -3653 0
-3644 3646 -3647 -3650 -3651 0
3644 3646 -3647 -3653 0
3645 3646 3648 3649 3651 3654 0
-3648 -3654 0
3645 3646 3647 3649 -3651 0
3644 3646 3647 -3652 0
3646 3647 3648 -3649 3650 0
-3646 -3654 0
3644 3648 3650 3651 3654 0
-3650 -3654 0
-3645 -3654 0
3652 3653 3654 0
-3652 -3653 0
3655 3656 3658 3659 -3660 -3661 0
3655 -3656 3658 3659 3660 -3662 0
3655 -3656 -3658 3659 -3660 3662 0
-3655 3656 3657 -3659 3660 -3662 3664 0
3656 -3657 3658 3659 3662 3664 0
-3656 3657 -3658 3659 -3661 -3662 0
3655 3656 -3658 -3659 -3660 3661 0
-3655 -3657 -3658 3659 -3660 -3664 0
-3655 3657 -3658 3659 3660 3662 3664 0
-3657 -3658 3659 3661 3664 0
3655 -3657 -3659 -3662 -3664 0
3657 3658 3659 3660 -3661 -3664 0
3659 3660 3661 3662 3665 0
3657 -3658 3659 -3662 -3664 0
3657 3658 -3659 3660 3661 -3664 0
-3655 -3657 3658 3660 3661 3662 3664 0
-3655 -3657 3658 3659 3660 -3661 3664 0
-3659 -3660 -3661 3662 3664 0
-3659 3660 -3661 3662 -3664 0
3655 -3656 -3657 -3660 3661 3662 0
-3656 -3657 3658 -3659 3661 -3662 0
-3655 -3656 3657 -3660 -3661 -3664 0
-3657 3658 3661 -3662 -3664 0
-3655 -3659 -3660 3661 -3664 0
3656 3657 -3659 3660 3661 3662 0
3655 3659 3660 3661 3665 0
-3656 3657 3658 -3660 3664 0
3657 3658 -3659 -3661 3664 0
-3655 3657 3658 3659 3661 3664 0
3656 3659 -3660 -3661 -3664 0
3655 3658 -3659 -3661 -3664 0
-3655 -3657 3658 -3660 -3661 3662 0
3656 -3659 -3660 3661 -3664 0
-3655 3656 -3657 -3658 -3664 0
-3655 3657 -3658 -3659 -3660 3662 0
-3656 -3657 3659 -3661 -3664 0
3656 3658 3660 3661 3662 3665 0
3655 -3657 -3658 -3660 3664 0
3655 -3656 3657 3660 3661 -3662 0
-3657 -3658 -3659 -3661 3664 0
-3655 -3656 -3657 -3658 3664 0
-3658 -3665 0
-3655 -3656 -3658 -3659 3660 3661 0
3656 3660 3662 -3664 0
-3655 3659 -3660 3661 3664 0
-3655 -3657 3658 -3659 -3662 0
3655 3660 -3664 0
-3655 3657 -3658 -3661 -3662 0
3655 3657 -3658 -3664 0
3656 3657 3659 3660 3662 3665 0
-3659 -3665 0
3656 3657 3658 3660 -3662 0
3655 3657 3658 -3663 0
3657 3658 3659 -3660 3661 0
-3657 -3665 0
3655 3659 3661 3662 3665 0
-3661 -3665 0
-3656 -3665 0
3663 3664 3665 0
-3663 -3664 0
3666 3667 3669 3670 -3671 -3672 0
3666 -3667 3669 3670 3671 -3673 0
3666 -3667 -3669 3670 -3671 3673 0
-3666 3667 3668 -3670 3671 -3673 3675 0
3667 -3668 3669 3670 3673 3675 0
-3667 3668 -3669 3670 -3672 -3673 0
3666 3667 -3669 -3670 -3671 3672 0
-3666 -3668 -3669 3670 -3671 -3675 0
-3666 3668 -3669 3670 3671 3673 3675 0
-3668 -3669 3670 3672 3675 0
3666 -3668 -3670 -3673 -3675 0
3668 3669 3670 3671 -3672 -3675 0
3670 3671 3672 3673 3676 0
3668 -3669 3670 -3673 -3675 0
3668 3669 -3670 3671 3672 -3675 0
-3666 -3668 3669 3671 3672 3673 3675 0
-3666 -3668 3669 3670 3671 -3672 3675 0
-3670 -3671 -3672 3673 3675 0
-3670 3671 -3672 3673 -3675 0
3666 -3667 -3668 -3671 3672 3673 0
-3667 -3668 3669 -3670 3672 -3673 0
-3666 -3667 3668 -3671 -3672 -3675 0
-3668 3669 3672 -3673 -3675 0
-3666 -3670 -3671 3672 -3675 0
3667 3668 -3670 3671 3672 3673 0
3666 3670 3671 3672 3676 0
-3667 3668 3669 -3671 3675 0
3668 3669 -3670 -3672 3675 0
-3666 3668 3669 3670 3672 3675 0
3667 3670 -3671 -3672 -3675 0
3666 3669 -3670 -3672 -3675 0
-3666 -3668 3669 -3671 -3672 3673 0
3667 -3670 -3671 3672 -3675 0
-3666 3667 -3668 -3669 -3675 0
-3666 3668 -3669 -3670 -3671 3673 0
-3667 -3668 3670 -3672 -3675 0
3667 3669 3671 3672 3673 3676 0
3666 -3668 -3669 -3671 3675 0
3666 -3667 3668 3671 3672 -3673 0
-3668 -3669 -3670 -3672 3675 0
-3666 -3667 -3668 -3669 3675 0
-3669 -3676 0
-3666 -3667 -3669 -3670 3671 3672 0
3667 3671 3673 -3675 0
-3666 3670 -3671 3672 3675 0
-3666 -3668 3669 -3670 -3673 0
3666 3671 -3675 0
-3666 3668 -3669 -3672 -3673 0
3666 3668 -3669 -3675 0
3667 3668 3670 3671 3673 3676 0
-3670 -3676 0
3667 3668 3669 3671 -3673 0
3666 3668 3669 -3674 0
3668 3669 3670 -3671 3672 0
-3668 -3676 0
3666 3670 3672 3673 3676 0
-3672 -3676 0
-3667 -3676 0
3674 3675 3676 0
-3674 -3675 0
3677 3678 3680 3681 -3682 -3683 0
3677 -3678 3680 3681 3682 -3684 0
3677 -3678 -3680 3681 -3682 3684 0
-3677 3678 3679 -3681 3682 -3684 3686 0
3678 -3679 3680 3681 3684 3686 0
-3678 3679 -3680 3681 -3683 -3684 0
3677 3678 -3680 -3681 -3682 3683 0
-3677 -3679 -3680 3681 -3682 -3686 0
-3677 3679 -3680 3681 3682 3684 3686 0
-3679 -3680 3681 3683 3686 0
3677 -3679 -3681 -3684 -3686 0
3679 3680 3681 3682 -3683 -3686 0
3681 3682 3683 3684 3687 0
3679 -3680 3681 -3684 -3686 0
3679 3680 -3681 3682 3683 -3686 0
-3677 -3679 3680 3682 3683 3684 3686 0
-3677 -3679 3680 3681 3682 -3683 3686 0
-3681 -3682 -3683 3684 3686 0
-3681 3682 -3683 3684 -3686 0
3677 -3678 -3679 -3682 3683 3684 0
-3678 -3679 3680 -3681 3683 -3684 0
-3677 -3678 3679 -3682 -3683 -3686 0
-3679 3680 3683 -3684 -3686 0
-3677 -3681 -3682 3683 -3686 0
3678 3679 -3681 3682 3683 3684 0
3677 3681 3682 3683 3687 0
-3678 3679 3680 -3682 3686 0
3679 3680 -3681 -3683 3686 0
-3677 3679 3680 3681 3683 3686 0
3678 3681 -3682 -3683 -3686 0
3677 3680 -3681 -3683 -3686 0
-3677 -3679 3680 -3682 -3683 3684 0
3678 -3681 -3682 3683 -3686 0
-3677 3678 -3679 -3680 -3686 0
-3677 3679 -3680 -3681 -3682 3684 0
-3678 -3679 3681 -3683 -3686 0
3678 3680 3682 3683 3684 3687 0
3677 -3679 -3680 -3682 3686 0
3677 -3678 3679 3682 3683 -3684 0
-3679 -3680 -3681 -3683 3686 0
-3677 -3678 -3679 -3680 3686 0
-3680 -3687 0
-3677 -3678 -3680 -3681 3682 3683 0
3678 3682 3684 -3686 0
-3677 3681 -3682 3683 3686 0
-3677 -3679 3680 -3681 -3684 0
3677 3682 -3686 0
-3677 3679 -3680 -3683 -3684 0
3677 3679 -3680 -3686 0
3678 3679 3681 3682 3684 3687 0
-3681 -3687 0
3678 3679 3680 3682 -3684 0
3677 3679 3680 -3685 0
3679 3680 3681 -3682 3683 0
-3679 -3687 0
3677 3681 3683 3684 3687 0
-3683 -3687 0
-3678 -3687 0
3685 3686 3687 0
-3685 -3686 0
3688 3689 3691 3692 -3693 -3694 0
3688 -3689 3691 3692 3693 -3695 0
3688 -3689 -3691 3692 -3693 3695 0
-3688 3689 3690 -3692 3693 -3695 3697 0
3689 -3690 3691 3692 3695 3697 0
-3689 3690 -3691 3692 -3694 -3695 0
3688 3689 -3691 -3692 -3693 3694 0
-3688 -3690 -3691 3692 -3693 -3697 0
-3688 3690 -3691 3692 3693 3695 3697 0
-3690 -3691 3692 3694 3697 0
3688 -3690 -3692 -3695 -3697 0
3690 3691 3692 3693 -3694 -3697 0
3692 3693 3694 3695 3698 0
3690 -3691 3692 -3695 -3697 0
3690 3691 -3692 3693 3694 -3697 0
-3688 -3690 3691 3693 3694 3695 3697 0
-3688 -3690 3691 3692 3693 -3694 3697 0
-3692 -3693 -3694 3695 3697 0
-3692 3693 -3694 3695 -3697 0
3688 -3689 -3690 -3693 3694 3695 0
-3689 -3690 3691 -3692 3694 -3695 0
-3688 -3689 3690 -3693 -3694 -3697 0
-3690 3691 3694 -3695 -3697 0
-3688 -3692 -3693 3694 -3697 0
3689 3690 -3692 3693 3694 3695 0
3688 3692 3693 3694 3698 0
-3689 3690 3691 -3693 3697 0
3690 3691 -3692 -3694 3697 0
-3688 3690 3691 3692 3694 3697 0
3689 3692 -3693 -3694 -3697 0
3688 3691 -3692 -3694 -3697 0
-3688 -3690 3691 -3693 -3694 3695 0
3689 -3692 -3693 3694 -3697 0
-3688 3689 -3690 -3691 -3697 0
-3688 3690 -3691 -3692 -3693 3695 0
-3689 -3690 3692 -3694 -3697 0
3689 3691 3693 3694 3695 3698 0
3688 -3690 -3691 -3693 3697 0
3688 -3689 3690 3693 3694 -3695 0
-3690 -3691 -3692 -3694 3697 0
-3688 -3689 -3690 -3691 3697 0
-3691 -3698 0
-3688 -3689 -3691 -3692 3693 3694 0
3689 3693 3695 -3697 0
-3688 3692 -3693 3694 3697 0
-3688 -3690 3691 -3692 -3695 0
3688 3693 -3697 0
-3688 3690 -3691 -3694 -3695 0
3688 3690 -3691 -3697 0
3689 3690 3692 3693 3695 3698 0
-3692 -3698 0
3689 3690 3691 3693 -3695 0
3688 3690 3691 -3696 0
3690 3691 3692 -3693 3694 0
-3690 -3698 0
3688 3692 3694 3695 3698 0
-3694 -3698 0
-3689 -3698 0
3696 3697 3698 0
-3696 -3697 0
3699 3700 3702 3703 -3704 -3705 0
3699 -3700 3702 3703 3704 -3706 0
3699 -3700 -3702 3703 -3704 3706 0
-3699 3700 3701 -3703 3704 -3706 3708 0
3700 -3701 3702 3703 3706 3708 0
-3700 3701 -3702 3703 -3705 -3706 0
3699 3700 -3702 -3703 -3704 3705 0
-3699 -3701 -3702 3703 -3704 -3708 0
-3699 3701 -3702 3703 3704 3706 3708 0
-3701 -3702 3703 3705 3708 0
3699 -3701 -3703 -3706 -3708 0
3701 3702 3703 3704 -3705 -3708 0
3703 3704 3705 3706 3709 0
3701 -3702 3703 -3706 -3708 0
3701 3702 -3703 3704 3705 -3708 0
-3699 -3701 3702 3704 3705 3706 3708 0
-3699 -3701 3702 3703 3704 -3705 3708 0
-3703 -3704 -3705 3706 3708 0
-3703 3704 -3705 3706 -3708 0
3699 -3700 -3701 -3704 3705 3706 0
-3700 -3701 3702 -3703 3705 -3706 0
-3699 -3700 3701 -3704 -3705 -3708 0
-3701 3702 3705 -3706 -3708 0
-3699 -3703 -3704 3705 -3708 0
3700 3701 -3703 3704 3705 3706 0
3699 3703 3704 3705 3709 0
-3700 3701 3702 -3704 3708 0
3701 3702 -3703 -3705 3708 0
-3699 3701 3702 3703 3705 3708 0
3700 3703 -3704 -3705 -3708 0
3699 3702 -3703 -3705 -3708 0
-3699 -3701 3702 -3704 -3705 3706 0
3700 -3703 -3704 3705 -3708 0
-3699 3700 -3701 -3702 -3708 0
-3699 3701 -3702 -3703 -3704 3706 0
-3700 -3701 3703 -3705 -3708 0
3700 3702 3704 3705 3706 3709 0
3699 -3701 -3702 -3704 3708 0
3699 -3700 3701 3704 3705 -3706 0
-3701 -3702 -3703 -3705 3708 0
-3699 -3700 -3701 -3702 3708 0
-3702 -3709 0
-3699 -3700 -3702 -3703 3704 3705 0
3700 3704 3706 -3708 0
-3699 3703 -3704 3705 3708 0
-3699 -3701 3702 -3703 -3706 0
3699 3704 -3708 0
-3699 3701 -3702 -3705 -3706 0
3699 3701 -3702 -3708 0
3700 3701 3703 3704 3706 3709 0
-3703 -3709 0
3700 3701 3702 3704 -3706 0
3699 3701 3702 -3707 0
3701 3702 3703 -3704 3705 0
-3701 -3709 0
3699 3703 3705 3706 3709 0
-3705 -3709 0
-3700 -3709 0
3707 3708 3709 0
-3707 -3708 0
3710 3711 3713 3714 -3715 -3716 0
3710 -3711 3713 3714 3715 -3717 0
3710 -3711 -3713 3714 -3715 3717 0
-3710 3711 3712 -3714 3715 -3717 3719 0
3711 -3712 3713 3714 3717 3719 0
-3711 3712 -3713 3714 -3716 -3717 0
3710 3711 -3713 -3714 -3715 3716 0
-3710 -3712 -3713 3714 -3715 -3719 0
-3710 3712 -3713 3714 3715 3717 3719 0
-3712 -3713 3714 3716 3719 0
3710 -3712 -3714 -3717 -3719 0
3712 3713 3714 3715 -3716 -3719 0
3714 3715 3716 3717 3720 0
3712 -3713 3714 -3717 -3719 0
3712 3713 -3714 3715 3716 -3719 0
-3710 -3712 3713 3715 3716 3717 3719 0
-3710 -3712 3713 3714 3715 -3716 3719 0
-3714 -3715 -3716 3717 3719 0
-3714 3715 -3716 3717 -3719 0
3710 -3711 -3712 -3715 3716 3717 0
-3711 -3712 3713 -3714 3716 -3717 0
-3710 -3711 3712 -3715 -3716 -3719 0
-3712 3713 3716 -3717 -3719 0
-3710 -3714 -3715 3716 -3719 0
3711 3712 -3714 3715 3716 3717 0
3710 3714 3715 3716 3720 0
-3711 3712 3713 -3715 3719 0
3712 3713 -3714 -3716 3719 0
-3710 3712 3713 3714 3716 3719 0
3711 3714 -3715 -3716 -3719 0
3710 3713 -3714 -3716 -3719 0
-3710 -3712 3713 -3715 -3716 3717 0
3711 -3714 -3715 3716 -3719 0
-3710 3711 -3712 -3713 -3719 0
-3710 3712 -3713 -3714 -3715 3717 0
-3711 -3712 3714 -3716 -3719 0
3711 3713 3715 3716 3717 3720 0
3710 -3712 -3713 -3715 3719 0
3710 -3711 3712 3715 3716 -3717 0
-3712 -3713 -3714 -3716 3719 0
-3710 -3711 -3712 -3713 3719 0
-3713 -3720 0
-3710 -3711 -3713 -3714 3715 3716 0
3711 3715 3717 -3719 0
-3710 3714 -3715 3716 3719 0
-3710 -3712 3713 -3714 -3717 0
3710 3715 -3719 0
-3710 3712 -3713 -3716 -3717 0
3710 3712 -3713 -3719 0
3711 3712 3714 3715 3717 3720 0
-3714 -3720 0
3711 3712 3713 3715 -3717 0
3710 3712 3713 -3718 0
3712 3713 3714 -3715 3716 0
-3712 -3720 0
3710 3714 3716 3717 3720 0
-3716 -3720 0
-3711 -3720 0
3718 3719 3720 0
-3718 -3719 0
3721 3722 3724 3725 -3726 -3727 0
3721 -3722 3724 3725 3726 -3728 0
3721 -3722 -3724 3725 -3726 3728 0
-3721 3722 3723 -3725 3726 -3728 3730 0
3722 -3723 3724 3725 3728 3730 0
-3722 3723 -3724 3725 -3727 -3728 0
3721 3722 -3724 -3725 -3726 3727 0
-3721 -3723 -3724 3725 -3726 -3730 0
-3721 3723 -3724 3725 3726 3728 3730 0
-3723 -3724 3725 3727 3730 0
3721 -3723 -3725 -3728 -3730 0
3723 3724 3725 3726 -3727 -3730 0
3725 3726 3727 3728 3731 0
3723 -3724 3725 -3728 -3730 0
3723 3724 -3725 3726 3727 -3730 0
-3721 -3723 3724 3726 3727 3728 3730 0
-3721 -3723 3724 3725 3726 -3727 3730 0
-3725 -3726 -3727 3728 3730 0
-3725 3726 -3727 3728 -3730 0
3721 -3722 -3723 -3726 3727 3728 0
-3722 -3723 3724 -3725 3727 -3728 0
-3721 -3722 3723 -3726 -3727 -3730 0
-3723 3724 3727 -3728 -3730 0
-3721 -3725 -3726 3727 -3730 0
3722 3723 -3725 3726 3727 3728 0
3721 3725 3726 3727 3731 0
-3722 3723 3724 -3726 3730 0
3723 3724 -3725 -3727 3730 0
-3721 3723 3724 3725 3727 3730 0
3722 3725 -3726 -3727 -3730 0
3721 3724 -3725 -3727 -3730 0
-3721 -3723 3724 -3726 -3727 3728 0
3722 -3725 -3726 3727 -3730 0
-3721 3722 -3723 -3724 -3730 0
-3721 3723 -3724 -3725 -3726 3728 0
-3722 -3723 3725 -3727 -3730 0
3722 3724 3726 3727 3728 3731 0
3721 -3723 -3724 -3726 3730 0
3721 -3722 3723 3726 3727 -3728 0
-3723 -3724 -3725 -3727 3730 0
-3721 -3722 -3723 -3724 3730 0
-3724 -3731 0
-3721 -3722 -3724 -3725 3726 3727 0
3722 3726 3728 -3730 0
-3721 3725 -3726 3727 3730 0
-3721 -3723 3724 -3725 -3728 0
3721 3726 -3730 0
-3721 3723 -3724 -3727 -3728 0
3721 3723 -3724 -3730 0
3722 3723 3725 3726 3728 3731 0
-3725 -3731 0
3722 3723 3724 3726 -3728 0
3721 3723 3724 -3729 0
3723 3724 3725 -3726 3727 0
-3723 -3731 0
3721 3725 3727 3728 3731 0
-3727 -3731 0
-3722 -3731 0
3729 3730 3731 0
-3729 -3730 0
3732 3733 3735 3736 -3737 -3738 0
3732 -3733 3735 3736 3737 -3739 0
3732 -3733 -3735 3736 -3737 3739 0
-3732 3733 3734 -3736 3737 -3739 3741 0
3733 -3734 3735 3736 3739 3741 0
-3733 3734 -3735 3736 -3738 -3739 0
3732 3733 -3735 -3736 -3737 3738 0
-3732 -3734 -3735 3736 -3737 -3741 0
-3732 3734 -3735 3736 3737 3739 3741 0
-3734 -3735 3736 3738 3741 0
3732 -3734 -3736 -3739 -3741 0
3734 3735 3736 3737 -3738 -3741 0
3736 3737 3738 3739 3742 0
3734 -3735 3736 -3739 -3741 0
3734 3735 -3736 3737 3738 -3741 0
-3732 -3734 3735 3737 3738 3739 3741 0
-3732 -3734 3735 3736 3737 -3738 3741 0
-3736 -3737 -3738 3739 3741 0
-3736 3737 -3738 3739 -3741 0
3732 -3733 -3734 -3737 3738 3739 0
-3733 -3734 3735 -3736 3738 -3739 0
-3732 -3733 3734 -3737 -3738 -3741 0
-3734 3735 3738 -3739 -3741 0
-3732 -3736 -3737 3738 -3741 0
3733 3734 -3736 3737 3738 3739 0
3732 3736 3737 3738 3742 0
-3733 3734 3735 -3737 3741 0
3734 3735 -3736 -3738 3741 0
-3732 3734 3735 3736 3738 3741 0
3733 3736 -3737 -3738 -3741 0
3732 3735 -3736 -3738 -3741 0
-3732 -3734 3735 -3737 -3738 3739 0
3733 -3736 -3737 3738 -3741 0
-3732 3733 -3734 -3735 -3741 0
-3732 3734 -3735 -3736 -3737 3739 0
-3733 -3734 3736 -3738 -3741 0
3733 3735 3737 3738 3739 3742 0
3732 -3734 -3735 -3737 3741 0
3732 -3733 3734 3737 3738 -3739 0
-3734 -3735 -3736 -3738 3741 0
-3732 -3733 -3734 -3735 3741 0
-3735 -3742 0
-3732 -3733 -3735 -3736 3737 3738 0
3733 3737 3739 -3741 0
-3732 3736 -3737 3738 3741 0
-3732 -3734 3735 -3736 -3739 0
3732 3737 -3741 0
-3732 3734 -3735 -3738 -3739 0
3732 3734 -3735 -3741 0
3733 3734 3736 3737 3739 3742 0
-3736 -3742 0
3733 3734 3735 3737 -3739 0
3732 3734 3735 -3740 0
3734 3735 3736 -3737 3738 0
-3734 -3742 0
3732 3736 3738 3739 3742 0
-3738 -3742 0
-3733 -3742 0
3740 3741 3742 0
-3740 -3741 0
3743 3744 3746 3747 -3748 -3749 0
3743 -3744 3746 3747 3748 -3750 0
3743 -3744 -3746 3747 -3748 3750 0
-3743 3744 3745 -3747 3748 -3750 3752 0
3744 -3745 3746 3747 3750 3752 0
-3744 3745 -3746 3747 -3749 -3750 0
3743 3744 -3746 -3747 -3748 3749 0
-3743 -3745 -3746 3747 -3748 -3752 0
-3743 3745 -3746 3747 3748 3750 3752 0
-3745 -3746 3747 3749 3752 0
3743 -3745 -3747 -3750 -3752 0
3745 3746 3747 3748 -3749 -3752 0
3747 3748 3749 3750 3753 0
3745 -3746 3747 -3750 -3752 0
3745 3746 -3747 3748 3749 -3752 0
-3743 -3745 3746 3748 3749 3750 3752 0
-3743 -3745 3746 3747 3748 -3749 3752 0
-3747 -3748 -3749 3750 3752 0
-3747 3748 -3749 3750 -3752 0
3743 -3744 -3745 -3748 3749 3750 0
-3744 -3745 3746 -3747 3749 -3750 0
-3743 -3744 3745 -3748 -3749 -3752 0
-3745 3746 3749 -3750 -3752 0
-3743 -3747 -3748 3749 -3752 0
3744 3745 -3747 3748 3749 3750 0
3743 3747 3748 3749 3753 0
-3744 3745 3746 -3748 3752 0
3745 3746 -3747 -3749 3752 0
-3743 3745 3746 3747 3749 3752 0
3744 3747 -3748 -3749 -3752 0
3743 3746 -3747 -3749 -3752 0
-3743 -3745 3746 -3748 -3749 3750 0
3744 -3747 -3748 3749 -3752 0
-3743 3744 -3745 -3746 -3752 0
-3743 3745 -3746 -3747 -3748 3750 0
-3744 -3745 3747 -3749 -3752 0
3744 3746 3748 3749 3750 3753 0
3743 -3745 -3746 -3748 3752 0
3743 -3744 3745 3748 3749 -3750 0
-3745 -3746 -3747 -3749 3752 0
-3743 -3744 -3745 -3746 3752 0
-3746 -3753 0
-3743 -3744 -3746 -3747 3748 3749 0
3744 3748 3750 -3752 0
-3743 3747 -3748 3749 3752 0
-3743 -3745 3746 -3747 -3750 0
3743 3748 -3752 0
-3743 3745 -3746 -3749 -3750 0
3743 3745 -3746 -3752 0
3744 3745 3747 3748 3750 3753 0
-3747 -3753 0
3744 3745 3746 3748 -3750 0
3743 3745 3746 -3751 0
3745 3746 3747 -3748 3749 0
-3745 -3753 0
3743 3747 3749 3750 3753 0
-3749 -3753 0
-3744 -3753 0
3751 3752 3753 0
-3751 -3752 0
3754 3755 3757 3758 -3759 -3760 0
3754 -3755 3757 3758 3759 -3761 0
3754 -3755 -3757 3758 -3759 3761 0
-3754 3755 3756 -3758 3759 -3761 3763 0
3755 -3756 3757 3758 3761 3763 0
-3755 3756 -3757 3758 -3760 -3761 0
3754 3755 -3757 -3758 -3759 3760 0
-3754 -3756 -3757 3758 -3759 -3763 0
-3754 3756 -3757 3758 3759 3761 3763 0
-3756 -3757 3758 3760 3763 0
3754 -3756 -3758 -3761 -3763 0
3756 3757 3758 3759 -3760 -3763 0
3758 3759 3760 3761 3764 0
3756 -3757 3758 -3761 -3763 0
3756 3757 -3758 3759 3760 -3763 0
-3754 -3756 3757 3759 3760 3761 3763 0
-3754 -3756 3757 3758 3759 -3760 3763 0
-3758 -3759 -3760 3761 3763 0
-3758 3759 -3760 3761 -3763 0
3754 -3755 -3756 -3759 3760 3761 0
-3755 -3756 3757 -3758 3760 -3761 0
-3754 -3755 3756 -3759 -3760 -3763 0
-3756 3757 3760 -3761 -3763 0
-3754 -3758 -3759 3760 -3763 0
3755 3756 -3758 3759 3760 3761 0
3754 3758 3759 3760 3764 0
-3755 3756 3757 -3759 3763 0
3756 3757 -3758 -3760 3763 0
-3754 3756 3757 3758 3760 3763 0
3755 3758 -3759 -3760 -3763 0
3754 3757 -3758 -3760 -3763 0
-3754 -3756 3757 -3759 -3760 3761 0
3755 -3758 -3759 3760 -3763 0
-3754 3755 -3756 -3757 -3763 0
-3754 3756 -3757 -3758 -3759 3761 0
-3755 -3756 3758 -3760 -3763 0
3755 3757 3759 3760 3761 3764 0
3754 -3756 -3757 -3759 3763 0
3754 -3755 3756 3759 3760 -3761 0
-3756 -3757 -3758 -3760 3763 0
-3754 -3755 -3756 -3757 3763 0
-3757 -3764 0
-3754 -3755 -3757 -3758 3759 3760 0
3755 3759 3761 -3763 0
-3754 3758 -3759 3760 3763 0
-3754 -3756 3757 -3758 -3761 0
3754 3759 -3763 0
-3754 3756 -3757 -3760 -3761 0
3754 3756 -3757 -3763 0
3755 3756 3758 3759 3761 3764 0
-3758 -3764 0
3755 3756 3757 3759 -3761 0
3754 3756 3757 -3762 0
3756 3757 3758 -3759 3760 0
-3756 -3764 0
3754 3758 3760 3761 3764 0
-3760 -3764 0
-3755 -3764 0
3762 3763 3764 0
-3762 -3763 0
3765 3766 3768 3769 -3770 -3771 0
3765 -3766 3768 3769 3770 -3772 0
3765 -3766 -3768 3769 -3770 3772 0
-3765 3766 3767 -3769 3770 -3772 3774 0
3766 -3767 3768 3769 3772 3774 0
-3766 3767 -3768 3769 -3771 -3772 0
3765 3766 -3768 -3769 -3770 3771 0
-3765 -3767 -3768 3769 -3770 -3774 0
-3765 3767 -3768 3769 3770 3772 3774 0
-3767 -3768 3769 3771 3774 0
3765 -3767 -3769 -3772 -3774 0
3767 3768 3769 3770 -3771 -3774 0
3769 3770 3771 3772 3775 0
3767 -3768 3769 -3772 -3774 0
3767 3768 -3769 3770 3771 -3774 0
-3765 -3767 3768 3770 3771 3772 3774 0
-3765 -3767 3768 3769 3770 -3771 3774 0
-3769 -3770 -3771 3772 3774 0
-3769 3770 -3771 3772 -3774 0
3765 -3766 -3767 -3770 3771 3772 0
-3766 -3767 3768 -3769 3771 -3772 0
-3765 -3766 3767 -3770 -3771 -3774 0
-3767 3768 3771 -3772 -3774 0
-3765 -3769 -3770 3771 -3774 0
3766 3767 -3769 3770 3771 3772 0
3765 3769 3770 3771 3775 0
-3766 3767 3768 -3770 3774 0
3767 3768 -3769 -3771 3774 0
-3765 3767 3768 3769 3771 3774 0
3766 3769 -3770 -3771 -3774 0
3765 3768 -3769 -3771 -3774 0
-3765 -3767 3768 -3770 -3771 3772 0
3766 -3769 -3770 3771 -3774 0
-3765 3766 -3767 -3768 -3774 0
-3765 3767 -3768 -3769 -3770 3772 0
-3766 -3767 3769 -3771 -3774 0
3766 3768 3770 3771 3772 3775 0
3765 -3767 -3768 -3770 3774 0
3765 -3766 3767 3770 3771 -3772 0
-3767 -3768 -3769 -3771 3774 0
-3765 -3766 -3767 -3768 3774 0
-3768 -3775 0
-3765 -3766 -3768 -3769 3770 3771 0
3766 3770 3772 -3774 0
-3765 3769 -3770 3771 3774 0
-3765 -3767 3768 -3769 -3772 0
3765 3770 -3774 0
-3765 3767 -3768 -3771 -3772 0
3765 3767 -3768 -3774 0
3766 3767 3769 3770 3772 3775 0
-3769 -3775 0
3766 3767 3768 3770 -3772 0
3765 3767 3768 -3773 0
3767 3768 3769 -3770 3771 0
-3767 -3775 0
3765 3769 3771 3772 3775 0
-3771 -3775 0
-3766 -3775 0
3773 3774 3775 0
-3773 -3774 0
3776 3777 3779 3780 -3781 -3782 0
3776 -3777 3779 3780 3781 -3783 0
3776 -3777 -3779 3780 -3781 3783 0
-3776 3777 3778 -3780 3781 -3783 3785 0
3777 -3778 3779 3780 3783 3785 0
-3777 3778 -3779 3780 -3782 -3783 0
3776 3777 -3779 -3780 -3781 3782 0
-3776 -3778 -3779 3780 -3781 -3785 0
-3776 3778 -3779 3780 3781 3783 3785 0
-3778 -3779 3780 3782 3785 0
3776 -3778 -3780 -3783 -3785 0
3778 3779 3780 3781 -3782 -3785 0
3780 3781 3782 3783 3786 0
3778 -3779 3780 -3783 -3785 0
3778 3779 -3780 3781 3782 -3785 0
-3776 -3778 3779 3781 3782 3783 3785 0
-3776 -3778 3779 3780 3781 -3782 3785 0
-3780 -3781 -3782 3783 3785 0
-3780 3781 -3782 3783 -3785 0
3776 -3777 -3778 -3781 3782 3783 0
-3777 -3778 3779 -3780 3782 -3783 0
-3776 -3777 3778 -3781 -3782 -3785 0
-3778 3779 3782 -3783 -3785 0
-3776 -3780 -3781 3782 -3785 0
3777 3778 -3780 3781 3782 3783 0
3776 3780 3781 3782 3786 0
-3777 3778 3779 -3781 3785 0
3778 3779 -3780 -3782 3785 0
-3776 3778 3779 3780 3782 3785 0
3777 3780 -3781 -3782 -3785 0
3776 3779 -3780 -3782 -3785 0
-3776 -3778 3779 -3781 -3782 3783 0
3777 -3780 -3781 3782 -3785 0
-3776 3777 -3778 -3779 -3785 0
-3776 3778 -3779 -3780 -3781 3783 0
-3777 -3778 3780 -3782 -3785 0
3777 3779 3781 3782 3783 3786 0
3776 -3778 -3779 -3781 3785 0
3776 -3777 3778 3781 3782 -3783 0
-3778 -3779 -3780 -3782 3785 0
-3776 -3777 -3778 -3779 3785 0
-3779 -3786 0
-3776 -3777 -3779 -3780 3781 3782 0
3777 3781 3783 -3785 0
-3776 3780 -3781 3782 3785 0
-3776 -3778 3779 -3780 -3783 0
3776 3781 -3785 0
-3776 3778 -3779 -3782 -3783 0
3776 3778 -3779 -3785 0
3777 3778 3780 3781 3783 3786 0
-3780 -3786 0
3777 3778 3779 3781 -3783 0
3776 3778 3779 -3784 0
3778 3779 3780 -3781 3782 0
-3778 -3786 0
3776 3780 3782 3783 3786 0
-3782 -3786 0
-3777 -3786 0
3784 3785 3786 0
-3784 -3785 0
3787 3788 3790 3791 -3792 -3793 0
3787 -3788 3790 3791 3792 -3794 0
3787 -3788 -3790 3791 -3792 3794 0
-3787 3788 3789 -3791 3792 -3794 3796 0
3788 -3789 3790 3791 3794 3796 0
-3788 3789 -3790 3791 -3793 -3794 0
3787 3788 -3790 -3791 -3792 3793 0
-3787 -3789 -3790 3791 -3792 -3796 0
-3787 3789 -3790 3791 3792 3794 3796 0
-3789 -3790 3791 3793 3796 0
3787 -3789 -3791 -3794 -3796 0
3789 3790 3791 3792 -3793 -3796 0
3791 3792 3793 3794 3797 0
3789 -3790 3791 -3794 -3796 0
3789 3790 -3791 3792 3793 -3796 0
-3787 -3789 3790 3792 3793 3794 3796 0
-3787 -3789 3790 3791 3792 -3793 3796 0
-3791 -3792 -3793 3794 3796 0
-3791 3792 -3793 3794 -3796 0
3787 -3788 -3789 -3792 3793 3794 0
-3788 -3789 3790 -3791 3793 -3794 0
-3787 -3788 3789 -3792 -3793 -3796 0
-3789 3790 3793 -3794 -3796 0
-3787 -3791 -3792 3793 -3796 0
3788 3789 -3791 3792 3793 3794 0
3787 3791 3792 3793 3797 0
-3788 3789 3790 -3792 3796 0
3789 3790 -3791 -3793 3796 0
-3787 3789 3790 3791 3793 3796 0
3788 3791 -3792 -3793 -3796 0
3787 3790 -3791 -3793 -3796 0
-3787 -3789 3790 -3792 -3793 3794 0
3788 -3791 -3792 3793 -3796 0
-3787 3788 -3789 -3790 -3796 0
-3787 3789 -3790 -3791 -3792 3794 0
-3788 -3789 3791 -3793 -3796 0
3788 3790 3792 3793 3794 3797 0
3787 -3789 -3790 -3792 3796 0
3787 -3788 3789 3792 3793 -3794 0
-3789 -3790 -3791 -3793 3796 0
-3787 -3788 -3789 -3790 3796 0
-3790 -3797 0
-3787 -3788 -3790 -3791 3792 3793 0
3788 3792 3794 -3796 0
-3787 3791 -3792 3793 3796 0
-3787 -3789 3790 -3791 -3794 0
3787 3792 -3796 0
-3787 3789 -3790 -3793 -3794 0
3787 3789 -3790 -3796 0
3788 3789 3791 3792 3794 3797 0
-3791 -3797 0
3788 3789 3790 3792 -3794 0
3787 3789 3790 -3795 0
3789 3790 3791 -3792 3793 0
-3789 -3797 0
3787 3791 3793 3794 3797 0
-3793 -3797 0
-3788 -3797 0
3795 3796 3797 0
-3795 -3796 0
3798 3799 3801 3802 -3803 -3804 0
3798 -3799 3801 3802 3803 -3805 0
3798 -3799 -3801 3802 -3803 3805 0
-3798 3799 3800 -3802 3803 -3805 3807 0
3799 -3800 3801 3802 3805 3807 0
-3799 3800 -3801 3802 -3804 -3805 0
3798 3799 -3801 -3802 -3803 3804 0
-3798 -3800 -3801 3802 -3803 -3807 0
-3798 3800 -3801 3802 3803 3805 3807 0
-3800 -3801 3802 3804 3807 0
3798 -3800 -3802 -3805 -3807 0
3800 3801 3802 3803 -3804 -3807 0
3802 3803 3804 3805 3808 0
3800 -3801 3802 -3805 -3807 0
3800 3801 -3802 3803 3804 -3807 0
-3798 -3800 3801 3803 3804 3805 3807 0
-3798 -3800 3801 3802 3803 -3804 3807 0
-3802 -3803 -3804 3805 3807 0
-3802 3803 -3804 3805 -3807 0
3798 -3799 -3800 -3803 3804 3805 0
-3799 -3800 3801 -3802 3804 -3805 0
-3798 -3799 3800 -3803 -3804 -3807 0
-3800 3801 3804 -3805 -3807 0
-3798 -3802 -3803 3804 -3807 0
3799 3800 -3802 3803 3804 3805 0
3798 3802 3803 3804 3808 0
-3799 3800 3801 -3803 3807 0
3800 3801 -3802 -3804 3807 0
-3798 3800 3801 3802 3804 3807 0
3799 3802 -3803 -3804 -3807 0
3798 3801 -3802 -3804 -3807 0
-3798 -3800 3801 -3803 -3804 3805 0
3799 -3802 -3803 3804 -3807 0
-3798 3799 -3800 -3801 -3807 0
-3798 3800 -3801 -3802 -3803 3805 0
-3799 -3800 3802 -3804 -3807 0
3799 3801 3803 3804 3805 3808 0
3798 -3800 -3801 -3803 3807 0
3798 -3799 3800 3803 3804 -3805 0
-3800 -3801 -3802 -3804 3807 0
-3798 -3799 -3800 -3801 3807 0
-3801 -3808 0
-3798 -3799 -3801 -3802 3803 3804 0
3799 3803 3805 -3807 0
-3798 3802 -3803 3804 3807 0
-3798 -3800 3801 -3802 -3805 0
3798 3803 -3807 0
-3798 3800 -3801 -3804 -3805 0
3798 3800 -3801 -3807 0
3799 3800 3802 3803 3805 3808 0
-3802 -3808 0
3799 3800 3801 3803 -3805 0
3798 3800 3801 -3806 0
3800 3801 3802 -3803 3804 0
-3800 -3808 0
3798 3802 3804 3805 3808 0
-3804 -3808 0
-3799 -3808 0
3806 3807 3808 0
-3806 -3807 0
3809 3810 3812 3813 -3814 -3815 0
3809 -3810 3812 3813 3814 -3816 0
3809 -3810 -3812 3813 -3814 3816 0
-3809 3810 3811 -3813 3814 -3816 3818 0
3810 -3811 3812 3813 3816 3818 0
-3810 3811 -3812 3813 -3815 -3816 0
3809 3810 -3812 -3813 -3814 3815 0
-3809 -3811 -3812 3813 -3814 -3818 0
-3809 3811 -3812 3813 3814 3816 3818 0
-3811 -3812 3813 3815 3818 0
3809 -3811 -3813 -3816 -3818 0
3811 3812 3813 3814 -3815 -3818 0
3813 3814 3815 3816 3819 0
3811 -3812 3813 -3816 -3818 0
3811 3812 -3813 3814 3815 -3818 0
-3809 -3811 3812 3814 3815 3816 3818 0
-3809 -3811 3812 3813 3814 -3815 3818 0
-3813 -3814 -3815 3816 3818 0
-3813 3814 -3815 3816 -3818 0
3809 -3810 -3811 -3814 3815 3816 0
-3810 -3811 3812 -3813 3815 -3816 0
-3809 -3810 3811 -3814 -3815 -3818 0
-3811 3812 3815 -3816 -3818 0
-3809 -3813 -3814 3815 -3818 0
3810 3811 -3813 3814 3815 3816 0
3809 3813 3814 3815 3819 0
-3810 3811 3812 -3814 3818 0
3811 3812 -3813 -3815 3818 0
-3809 3811 3812 3813 3815 3818 0
3810 3813 -3814 -3815 -3818 0
3809 3812 -3813 -3815 -3818 0
-3809 -3811 3812 -3814 -3815 3816 0
3810 -3813 -3814 3815 -3818 0
-3809 3810 -3811 -3812 -3818 0
-3809 3811 -3812 -3813 -3814 3816 0
-3810 -3811 3813 -3815 -3818 0
3810 3812 3814 3815 3816 3819 0
3809 -3811 -3812 -3814 3818 0
3809 -3810 3811 3814 3815 -3816 0
-3811 -3812 -3813 -3815 3818 0
-3809 -3810 -3811 -3812 3818 0
-3812 -3819 0
-3809 -3810 -3812 -3813 3814 3815 0
3810 3814 3816 -3818 0
-3809 3813 -3814 3815 3818 0
-3809 -3811 3812 -3813 -3816 0
3809 3814 -3818 0
-3809 3811 -3812 -3815 -3816 0
3809 3811 -3812 -3818 0
3810 3811 3813 3814 3816 3819 0
-3813 -3819 0
3810 3811 3812 3814 -3816 0
3809 3811 3812 -3817 0
3811 3812 3813 -3814 3815 0
-3811 -3819 0
3809 3813 3815 3816 3819 0
-3815 -3819 0
-3810 -3819 0
3817 3818 3819 0
-3817 -3818 0
3820 3821 3823 3824 -3825 -3826 0
3820 -3821 3823 3824 3825 -3827 0
3820 -3821 -3823 3824 -3825 3827 0
-3820 3821 3822 -3824 3825 -3827 3829 0
3821 -3822 3823 3824 3827 3829 0
-3821 3822 -3823 3824 -3826 -3827 0
3820 3821 -3823 -3824 -3825 3826 0
-3820 -3822 -3823 3824 -3825 -3829 0
-3820 3822 -3823 3824 3825 3827 3829 0
-3822 -3823 3824 3826 3829 0
3820 -3822 -3824 -3827 -3829 0
3822 3823 3824 3825 -3826 -3829 0
3824 3825 3826 3827 3830 0
3822 -3823 3824 -3827 -3829 0
3822 3823 -3824 3825 3826 -3829 0
-3820 -3822 3823 3825 3826 3827 3829 0
-3820 -3822 3823 3824 3825 -3826 3829 0
-3824 -3825 -3826 3827 3829 0
-3824 3825 -3826 3827 -3829 0
3820 -3821 -3822 -3825 3826 3827 0
-3821 -3822 3823 -3824 3826 -3827 0
-3820 -3821 3822 -3825 -3826 -3829 0
-3822 3823 3826 -3827 -3829 0
-3820 -3824 -3825 3826 -3829 0
3821 3822 -3824 3825 3826 3827 0
3820 3824 3825 3826 3830 0
-3821 3822 3823 -3825 3829 0
3822 3823 -3824 -3826 3829 0
-3820 3822 3823 3824 3826 3829 0
3821 3824 -3825 -3826 -3829 0
3820 3823 -3824 -3826 -3829 0
-3820 -3822 3823 -3825 -3826 3827 0
3821 -3824 -3825 3826 -3829 0
-3820 3821 -3822 -3823 -3829 0
-3820 3822 -3823 -3824 -3825 3827 0
-3821 -3822 3824 -3826 -3829 0
3821 3823 3825 3826 3827 3830 0
3820 -3822 -3823 -3825 3829 0
3820 -3821 3822 3825 3826 -3827 0
-3822 -3823 -3824 -3826 3829 0
-3820 -3821 -3822 -3823 3829 0
-3823 -3830 0
-3820 -3821 -3823 -3824 3825 3826 0
3821 3825 3827 -3829 0
-3820 3824 -3825 3826 3829 0
-3820 -3822 3823 -3824 -3827 0
3820 3825 -3829 0
-3820 3822 -3823 -3826 -3827 0
3820 3822 -3823 -3829 0
3821 3822 3824 3825 3827 3830 0
-3824 -3830 0
3821 3822 3823 3825 -3827 0
3820 3822 3823 -3828 0
3822 3823 3824 -3825 3826 0
-3822 -3830 0
3820 3824 3826 3827 3830 0
-3826 -3830 0
-3821 -3830 0
3828 3829 3830 0
-3828 -3829 0
3831 3832 3834 3835 -3836 -3837 0
3831 -3832 3834 3835 3836 -3838 0
3831 -3832 -3834 3835 -3836 3838 0
-3831 3832 3833 -3835 3836 -3838 3840 0
3832 -3833 3834 3835 3838 3840 0
-3832 3833 -3834 3835 -3837 -3838 0
3831 3832 -3834 -3835 -3836 3837 0
-3831 -3833 -3834 3835 -3836 -3840 0
-3831 3833 -3834 3835 3836 3838 3840 0
-3833 -3834 3835 3837 3840 0
3831 -3833 -3835 -3838 -3840 0
3833 3834 3835 3836 -3837 -3840 0
3835 3836 3837 3838 3841 0
3833 -3834 3835 -3838 -3840 0
3833 3834 -3835 3836 3837 -3840 0
-3831 -3833 3834 3836 3837 3838 3840 0
-3831 -3833 3834 3835 3836 -3837 3840 0
-3835 -3836 -3837 3838 3840 0
-3835 3836 -3837 3838 -3840 0
3831 -3832 -3833 -3836 3837 3838 0
-3832 -3833 3834 -3835 3837 -3838 0
-3831 -3832 3833 -3836 -3837 -3840 0
-3833 3834 3837 -3838 -3840 0
-3831 -3835 -3836 3837 -3840 0
3832 3833 -3835 3836 3837 3838 0
3831 3835 3836 3837 3841 0
-3832 3833 3834 -3836 3840 0
3833 3834 -3835 -3837 3840 0
-3831 3833 3834 3835 3837 3840 0
3832 3835 -3836 -3837 -3840 0
3831 3834 -3835 -3837 -3840 0
-3831 -3833 3834 -3836 -3837 3838 0
3832 -3835 -3836 3837 -3840 0
-3831 3832 -3833 -3834 -3840 0
-3831 3833 -3834 -3835 -3836 3838 0
-3832 -3833 3835 -3837 -3840 0
3832 3834 3836 3837 3838 3841 0
3831 -3833 -3834 -3836 3840 0
3831 -3832 3833 3836 3837 -3838 0
-3833 -3834 -3835 -3837 3840 0
-3831 -3832 -3833 -3834 3840 0
-3834 -3841 0
-3831 -3832 -3834 -3835 3836 3837 0
3832 3836 3838 -3840 0
-3831 3835 -3836 3837 3840 0
-3831 -3833 3834 -3835 -3838 0
3831 3836 -3840 0
-3831 3833 -3834 -3837 -3838 0
3831 3833 -3834 -3840 0
3832 3833 3835 3836 3838 3841 0
-3835 -3841 0
3832 3833 3834 3836 -3838 0
3831 3833 3834 -3839 0
3833 3834 3835 -3836 3837 0
-3833 -3841 0
3831 3835 3837 3838 3841 0
-3837 -3841 0
-3832 -3841 0
3839 3840 3841 0
-3839 -3840 0
3842 3843 3845 3846 -3847 -3848 0
3842 -3843 3845 3846 3847 -3849 0
3842 -3843 -3845 3846 -3847 3849 0
-3842 3843 3844 -3846 3847 -3849 3851 0
3843 -3844 3845 3846 3849 3851 0
-3843 3844 -3845 3846 -3848 -3849 0
3842 3843 -3845 -3846 -3847 3848 0
-3842 -3844 -3845 3846 -3847 -3851 0
-3842 3844 -3845 3846 3847 3849 3851 0
-3844 -3845 3846 3848 3851 0
3842 -3844 -3846 -3849 -3851 0
3844 3845 3846 3847 -3848 -3851 0
3846 3847 3848 3849 3852 0
3844 -3845 3846 -3849 -3851 0
3844 3845 -3846 3847 3848 -3851 0
-3842 -3844 3845 3847 3848 3849 3851 0
-3842 -3844 3845 3846 3847 -3848 3851 0
-3846 -3847 -3848 3849 3851 0
-3846 3847 -3848 3849 -3851 0
3842 -3843 -3844 -3847 3848 3849 0
-3843 -3844 3845 -3846 3848 -3849 0
-3842 -3843 3844 -3847 -3848 -3851 0
-3844 3845 3848 -3849 -3851 0
-3842 -3846 -3847 3848 -3851 0
3843 3844 -3846 3847 3848 3849 0
3842 3846 3847 3848 3852 0
-3843 3844 3845 -3847 3851 0
3844 3845 -3846 -3848 3851 0
-3842 3844 3845 3846 3848 3851 0
3843 3846 -3847 -3848 -3851 0
3842 3845 -3846 -3848 -3851 0
-3842 -3844 3845 -3847 -3848 3849 0
3843 -3846 -3847 3848 -3851 0
-3842 3843 -3844 -3845 -3851 0
-3842 3844 -3845 -3846 -3847 3849 0
-3843 -3844 3846 -3848 -3851 0
3843 3845 3847 3848 3849 3852 0
3842 -3844 -3845 -3847 3851 0
3842 -3843 3844 3847 3848 -3849 0
-3844 -3845 -3846 -3848 3851 0
-3842 -3843 -3844 -3845 3851 0
-3845 -3852 0
-3842 -3843 -3845 -3846 3847 3848 0
3843 3847 3849 -3851 0
-3842 3846 -3847 3848 3851 0
-3842 -3844 3845 -3846 -3849 0
3842 3847 -3851 0
-3842 3844 -3845 -3848 -3849 0
3842 3844 -3845 -3851 0
3843 3844 3846 3847 3849 3852 0
-3846 -3852 0
3843 3844 3845 3847 -3849 0
3842 3844 3845 -3850 0
3844 3845 3846 -3847 3848 0
-3844 -3852 0
3842 3846 3848 3849 3852 0
-3848 -3852 0
-3843 -3852 0
3850 3851 3852 0
-3850 -3851 0
3853 3854 3856 3857 -3858 -3859 0
3853 -3854 3856 3857 3858 -3860 0
3853 -3854 -3856 3857 -3858 3860 0
-3853 3854 3855 -3857 3858 -3860 3862 0
3854 -3855 3856 3857 3860 3862 0
-3854 3855 -3856 3857 -3859 -3860 0
3853 3854 -3856 -3857 -3858 3859 0
-3853 -3855 -3856 3857 -3858 -3862 0
-3853 3855 -3856 3857 3858 3860 3862 0
-3855 -3856 3857 3859 3862 0
3853 -3855 -3857 -3860 -3862 0
3855 3856 3857 3858 -3859 -3862 0
3857 3858 3859 3860 3863 0
3855 -3856 3857 -3860 -3862 0
3855 3856 -3857 3858 3859 -3862 0
-3853 -3855 3856 3858 3859 3860 3862 0
-3853 -3855 3856 3857 3858 -3859 3862 0
-3857 -3858 -3859 3860 3862 0
-3857 3858 -3859 3860 -3862 0
3853 -3854 -3855 -3858 3859 3860 0
-3854 -3855 3856 -3857 3859 -3860 0
-3853 -3854 3855 -3858 -3859 -3862 0
-3855 3856 3859 -3860 -3862 0
-3853 -3857 -3858 3859 -3862 0
3854 3855 -3857 3858 3859 3860 0
3853 3857 3858 3859 3863 0
-3854 3855 3856 -3858 3862 0
3855 3856 -3857 -3859 3862 0
-3853 3855 3856 3857 3859 3862 0
3854 3857 -3858 -3859 -3862 0
3853 3856 -3857 -3859 -3862 0
-3853 -3855 3856 -3858 -3859 3860 0
3854 -3857 -3858 3859 -3862 0
-3853 3854 -3855 -3856 -3862 0
-3853 3855 -3856 -3857 -3858 3860 0
-3854 -3855 3857 -3859 -3862 0
3854 3856 3858 3859 3860 3863 0
3853 -3855 -3856 -3858 3862 0
3853 -3854 3855 3858 3859 -3860 0
-3855 -3856 -3857 -3859 3862 0
-3853 -3854 -3855 -3856 3862 0
-3856 -3863 0
-3853 -3854 -3856 -3857 3858 3859 0
3854 3858 3860 -3862 0
-3853 3857 -3858 3859 3862 0
-3853 -3855 3856 -3857 -3860 0
3853 3858 -3862 0
-3853 3855 -3856 -3859 -3860 0
3853 3855 -3856 -3862 0
3854 3855 3857 3858 3860 3863 0
-3857 -3863 0
3854 3855 3856 3858 -3860 0
3853 3855 3856 -3861 0
3855 3856 3857 -3858 3859 0
-3855 -3863 0
3853 3857 3859 3860 3863 0
-3859 -3863 0
-3854 -3863 0
3861 3862 3863 0
-3861 -3862 0
3864 3865 3867 3868 -3869 -3870 0
3864 -3865 3867 3868 3869 -3871 0
3864 -3865 -3867 3868 -3869 3871 0
-3864 3865 3866 -3868 3869 -3871 3873 0
3865 -3866 3867 3868 3871 3873 0
-3865 3866 -3867 3868 -3870 -3871 0
3864 3865 -3867 -3868 -3869 3870 0
-3864 -3866 -3867 3868 -3869 -3873 0
-3864 3866 -3867 3868 3869 3871 3873 0
-3866 -3867 3868 3870 3873 0
3864 -3866 -3868 -3871 -3873 0
3866 3867 3868 3869 -3870 -3873 0
3868 3869 3870 3871 3874 0
3866 -3867 3868 -3871 -3873 0
3866 3867 -3868 3869 3870 -3873 0
-3864 -3866 3867 3869 3870 3871 3873 0
-3864 -3866 3867 3868 3869 -3870 3873 0
-3868 -3869 -3870 3871 3873 0
-3868 3869 -3870 3871 -3873 0
3864 -3865 -3866 -3869 3870 3871 0
-3865 -3866 3867 -3868 3870 -3871 0
-3864 -3865 3866 -3869 -3870 -3873 0
-3866 3867 3870 -3871 -3873 0
-3864 -3868 -3869 3870 -3873 0
3865 3866 -3868 3869 3870 3871 0
3864 3868 3869 3870 3874 0
-3865 3866 3867 -3869 3873 0
3866 3867 -3868 -3870 3873 0
-3864 3866 3867 3868 3870 3873 0
3865 3868 -3869 -3870 -3873 0
3864 3867 -3868 -3870 -3873 0
-3864 -3866 3867 -3869 -3870 3871 0
3865 -3868 -3869 3870 -3873 0
-3864 3865 -3866 -3867 -3873 0
-3864 3866 -3867 -3868 -3869 3871 0
-3865 -3866 3868 -3870 -3873 0
3865 3867 3869 3870 3871 3874 0
3864 -3866 -3867 -3869 3873 0
3864 -3865 3866 3869 3870 -3871 0
-3866 -3867 -3868 -3870 3873 0
-3864 -3865 -3866 -3867 3873 0
-3867 -3874 0
-3864 -3865 -3867 -3868 3869 3870 0
3865 3869 3871 -3873 0
-3864 3868 -3869 3870 3873 0
-3864 -3866 3867 -3868 -3871 0
3864 3869 -3873 0
-3864 3866 -3867 -3870 -3871 0
3864 3866 -3867 -3873 0
3865 3866 3868 3869 3871 3874 0
-3868 -3874 0
3865 3866 3867 3869 -3871 0
3864 3866 3867 -3872 0
3866 3867 3868 -3869 3870 0
-3866 -3874 0
3864 3868 3870 3871 3874 0
-3870 -3874 0
-3865 -3874 0
3872 3873 3874 0
-3872 -3873 0
-4003 3875 0
4003 -3875 0
-4004 3876 0
4004 -3876 0
-4005 3877 0
4005 -3877 0
-4006 3878 0
4006 -3878 0
-4007 3879 0
4007 -3879 0
-4008 3880 0
4008 -3880 0
-4009 3881 0
4009 -3881 0
-4010 3882 0
4010 -3882 0
-4011 3883 0
4011 -3883 0
-4012 3884 0
4012 -3884 0
-4013 3885 0
4013 -3885 0
-4014 3886 0
4014 -3886 0
-4015 3887 0
4015 -3887 0
-4016 3888 0
4016 -3888 0
-4017 3889 0
4017 -3889 0
-4018 3890 0
4018 -3890 0
-4019 3891 0
4019 -3891 0
-4020 3892 0
4020 -3892 0
-4021 3893 0
4021 -3893 0
-4022 3894 0
4022 -3894 0
-4023 3895 0
4023 -3895 0
-4024 3896 0
4024 -3896 0
-4025 3897 0
4025 -3897 0
-4026 3898 0
4026 -3898 0
-4027 3899 0
4027 -3899 0
-4028 3900 0
4028 -3900 0
-4029 3901 0
4029 -3901 0
-4030 3902 0
4030 -3902 0
-4031 3903 0
4031 -3903 0
-4032 3904 0
4032 -3904 0
-4033 3905 0
4033 -3905 0
-4034 3906 0
4034 -3906 0
-4035 3907 0
4035 -3907 0
-4036 3908 0
4036 -3908 0
-4037 3909 0
4037 -3909 0
-4038 3910 0
4038 -3910 0
-4039 3911 0
4039 -3911 0
-4040 3912 0
4040 -3912 0
-4041 3913 0
4041 -3913 0
-4042 3914 0
4042 -3914 0
-4043 3915 0
4043 -3915 0
-4044 3916 0
4044 -3916 0
-4045 3917 0
4045 -3917 0
-4046 3918 0
4046 -3918 0
-4047 3919 0
4047 -3919 0
-4048 3920 0
4048 -3920 0
-4049 3921 0
4049 -3921 0
-4050 3922 0
4050 -3922 0
-4051 3923 0
4051 -3923 0
-4052 3924 0
4052 -3924 0
-4053 3925 0
4053 -3925 0
-4054 3926 0
4054 -3926 0
-4055 3927 0
4055 -3927 0
-4056 3928 0
4056 -3928 0
-4057 3929 0
4057 -3929 0
-4058 3930 0
4058 -3930 0
-4059 3931 0
4059 -3931 0
-4060 3932 0
4060 -3932 0
-4061 3933 0
4061 -3933 0
-4062 3934 0
4062 -3934 0
-4063 3935 0
4063 -3935 0
-4064 3936 0
4064 -3936 0
-4065 3937 0
4065 -3937 0
-4066 3938 0
4066 -3938 0
-4067 3939 0
4067 -3939 0
-4068 3940 0
4068 -3940 0
-4069 3941 0
4069 -3941 0
-4070 3942 0
4070 -3942 0
-4071 3943 0
4071 -3943 0
-4072 3944 0
4072 -3944 0
-4073 3945 0
4073 -3945 0
-4074 3946 0
4074 -3946 0
-4075 3947 0
4075 -3947 0
-4076 3948 0
4076 -3948 0
-4077 3949 0
4077 -3949 0
-4078 3950 0
4078 -3950 0
-4079 3951 0
4079 -3951 0
-4080 3952 0
4080 -3952 0
-4081 3953 0
4081 -3953 0
-4082 3954 0
4082 -3954 0
-4083 3955 0
4083 -3955 0
-4084 3956 0
4084 -3956 0
-4085 3957 0
4085 -3957 0
-4086 3958 0
4086 -3958 0
-4087 3959 0
4087 -3959 0
-4088 3960 0
4088 -3960 0
-4089 3961 0
4089 -3961 0
-4090 3962 0
4090 -3962 0
-4091 3963 0
4091 -3963 0
-4092 3964 0
4092 -3964 0
-4093 3965 0
4093 -3965 0
-4094 3966 0
4094 -3966 0
-4095 3967 0
4095 -3967 0
-4096 3968 0
4096 -3968 0
-4097 3969 0
4097 -3969 0
-4098 3970 0
4098 -3970 0
-4099 3971 0
4099 -3971 0
-4100 3972 0
4100 -3972 0
-4101 3973 0
4101 -3973 0
-4102 3974 0
4102 -3974 0
-4103 3975 0
4103 -3975 0
-4104 3976 0
4104 -3976 0
-4105 3977 0
4105 -3977 0
-4106 3978 0
4106 -3978 0
-4107 3979 0
4107 -3979 0
-4108 3980 0
4108 -3980 0
-4109 3981 0
4109 -3981 0
-4110 3982 0
4110 -3982 0
-4111 3983 0
4111 -3983 0
-4112 3984 0
4112 -3984 0
-4113 3985 0
4113 -3985 0
-4114 3986 0
4114 -3986 0
-4115 3987 0
4115 -3987 0
-4116 3988 0
4116 -3988 0
-4117 3989 0
4117 -3989 0
-4118 3990 0
4118 -3990 0
-4119 3991 0
4119 -3991 0
-4120 3992 0
4120 -3992 0
-4121 3993 0
4121 -3993 0
-4122 3994 0
4122 -3994 0
-4123 3995 0
4123 -3995 0
-4124 3996 0
4124 -3996 0
-4125 3997 0
4125 -3997 0
-4126 3998 0
4126 -3998 0
-4127 3999 0
4127 -3999 0
-4128 4000 0
4128 -4000 0
-4129 4001 0
4129 -4001 0
-4130 4002 0
4130 -4002 0
3011 -3267 0
-3011 3267 0
3012 -3268 0
-3012 3268 0
3013 -3269 0
-3013 3269 0
3014 -3270 0
-3014 3270 0
3015 -3271 0
-3015 3271 0
3016 -3272 0
-3016 3272 0
3017 -3273 0
-3017 3273 0
3018 -3274 0
-3018 3274 0
3019 -3275 0
-3019 3275 0
3020 -3276 0
-3020 3276 0
3021 -3277 0
-3021 3277 0
3022 -3278 0
-3022 3278 0
3023 -3279 0
-3023 3279 0
3024 -3280 0
-3024 3280 0
3025 -3281 0
-3025 3281 0
3026 -3282 0
-3026 3282 0
3027 -3283 0
-3027 3283 0
3028 -3284 0
-3028 3284 0
3029 -3285 0
-3029 3285 0
3030 -3286 0
-3030 3286 0
3031 -3287 0
-3031 3287 0
3032 -3288 0
-3032 3288 0
3033 -3289 0
-3033 3289 0
3034 -3290 0
-3034 3290 0
3035 -3291 0
-3035 3291 0
3036 -3292 0
-3036 3292 0
3037 -3293 0
-3037 3293 0
3038 -3294 0
-3038 3294 0
3039 -3295 0
-3039 3295 0
3040 -3296 0
-3040 3296 0
3041 -3297 0
-3041 3297 0
3042 -3298 0
-3042 3298 0
3043 -3299 0
-3043 3299 0
3044 -3300 0
-3044 3300 0
3045 -3301 0
-3045 3301 0
3046 -3302 0
-3046 3302 0
3047 -3303 0
-3047 3303 0
3048 -3304 0
-3048 3304 0
3049 -3305 0
-3049 3305 0
3050 -3306 0
-3050 3306 0
3051 -3307 0
-3051 3307 0
3052 -3308 0
-3052 3308 0
3053 -3309 0
-3053 3309 0
3054 -3310 0
-3054 3310 0
3055 -3311 0
-3055 3311 0
3056 -3312 0
-3056 3312 0
3057 -3313 0
-3057 3313 0
3058 -3314 0
-3058 3314 0
3059 -3315 0
-3059 3315 0
3060 -3316 0
-3060 3316 0
3061 -3317 0
-3061 3317 0
3062 -3318 0
-3062 3318 0
3063 -3319 0
-3063 3319 0
3064 -3320 0
-3064 3320 0
3065 -3321 0
-3065 3321 0
3066 -3322 0
-3066 3322 0
3067 -3323 0
-3067 3323 0
3068 -3324 0
-3068 3324 0
3069 -3325 0
-3069 3325 0
3070 -3326 0
-3070 3326 0
3071 -3327 0
-3071 3327 0
3072 -3328 0
-3072 3328 0
3073 -3329 0
-3073 3329 0
3074 -3330 0
-3074 3330 0
3075 -3331 0
-3075 3331 0
3076 -3332 0
-3076 3332 0
3077 -3333 0
-3077 3333 0
3078 -3334 0
-3078 3334 0
3079 -3335 0
-3079 3335 0
3080 -3336 0
-3080 3336 0
3081 -3337 0
-3081 3337 0
3082 -3338 0
-3082 3338 0
3083 -3339 0
-3083 3339 0
3084 -3340 0
-3084 3340 0
3085 -3341 0
-3085 3341 0
3086 -3342 0
-3086 3342 0
3087 -3343 0
-3087 3343 0
3088 -3344 0
-3088 3344 0
3089 -3345 0
-3089 3345 0
3090 -3346 0
-3090 3346 0
3091 -3347 0
-3091 3347 0
3092 -3348 0
-3092 3348 0
3093 -3349 0
-3093 3349 0
3094 -3350 0
-3094 3350 0
3095 -3351 0
-3095 3351 0
3096 -3352 0
-3096 3352 0
3097 -3353 0
-3097 3353 0
3098 -3354 0
-3098 3354 0
3099 -3355 0
-3099 3355 0
3100 -3356 0
-3100 3356 0
3101 -3357 0
-3101 3357 0
3102 -3358 0
-3102 3358 0
3103 -3359 0
-3103 3359 0
3104 -3360 0
-3104 3360 0
3105 -3361 0
-3105 3361 0
3106 -3362 0
-3106 3362 0
3107 -3363 0
-3107 3363 0
3108 -3364 0
-3108 3364 0
3109 -3365 0
-3109 3365 0
3110 -3366 0
-3110 3366 0
3111 -3367 0
-3111 3367 0
3112 -3368 0
-3112 3368 0
3113 -3369 0
-3113 3369 0
3114 -3370 0
-3114 3370 0
3115 -3371 0
-3115 3371 0
3116 -3372 0
-3116 3372 0
3117 -3373 0
-3117 3373 0
3118 -3374 0
-3118 3374 0
3119 -3375 0
-3119 3375 0
3120 -3376 0
-3120 3376 0
3121 -3377 0
-3121 3377 0
3122 -3378 0
-3122 3378 0
3123 -3379 0
-3123 3379 0
3124 -3380 0
-3124 3380 0
3125 -3381 0
-3125 3381 0
3126 -3382 0
-3126 3382 0
3127 -3383 0
-3127 3383 0
3128 -3384 0
-3128 3384 0
3129 -3385 0
-3129 3385 0
3130 -3386 0
-3130 3386 0
3131 -3387 0
-3131 3387 0
3132 -3388 0
-3132 3388 0
3133 -3389 0
-3133 3389 0
3134 -3390 0
-3134 3390 0
3135 -3391 0
-3135 3391 0
3136 -3392 0
-3136 3392 0
3137 -3393 0
-3137 3393 0
3138 -3394 0
-3138 3394 0
4003 -3139 0
-4003 3139 0
4004 -3140 0
-4004 3140 0
4005 -3141 0
-4005 3141 0
4006 -3142 0
-4006 3142 0
4007 -3143 0
-4007 3143 0
4008 -3144 0
-4008 3144 0
4009 -3145 0
-4009 3145 0
4010 -3146 0
-4010 3146 0
4011 -3147 0
-4011 3147 0
4012 -3148 0
-4012 3148 0
4013 -3149 0
-4013 3149 0
4014 -3150 0
-4014 3150 0
4015 -3151 0
-4015 3151 0
4016 -3152 0
-4016 3152 0
4017 -3153 0
-4017 3153 0
4018 -3154 0
-4018 3154 0
4019 -3155 0
-4019 3155 0
4020 -3156 0
-4020 3156 0
4021 -3157 0
-4021 3157 0
4022 -3158 0
-4022 3158 0
4023 -3159 0
-4023 3159 0
4024 -3160 0
-4024 3160 0
4025 -3161 0
-4025 3161 0
4026 -3162 0
-4026 3162 0
4027 -3163 0
-4027 3163 0
4028 -3164 0
-4028 3164 0
4029 -3165 0
-4029 3165 0
4030 -3166 0
-4030 3166 0
4031 -3167 0
-4031 3167 0
4032 -3168 0
-4032 3168 0
4033 -3169 0
-4033 3169 0
4034 -3170 0
-4034 3170 0
4035 -3171 0
-4035 3171 0
4036 -3172 0
-4036 3172 0
4037 -3173 0
-4037 3173 0
4038 -3174 0
-4038 3174 0
4039 -3175 0
-4039 3175 0
4040 -3176 0
-4040 3176 0
4041 -3177 0
-4041 3177 0
4042 -3178 0
-4042 3178 0
4043 -3179 0
-4043 3179 0
4044 -3180 0
-4044 3180 0
4045 -3181 0
-4045 3181 0
4046 -3182 0
-4046 3182 0
4047 -3183 0
-4047 3183 0
4048 -3184 0
-4048 3184 0
4049 -3185 0
-4049 3185 0
4050 -3186 0
-4050 3186 0
4051 -3187 0
-4051 3187 0
4052 -3188 0
-4052 3188 0
4053 -3189 0
-4053 3189 0
4054 -3190 0
-4054 3190 0
4055 -3191 0
-4055 3191 0
4056 -3192 0
-4056 3192 0
4057 -3193 0
-4057 3193 0
4058 -3194 0
-4058 3194 0
4059 -3195 0
-4059 3195 0
4060 -3196 0
-4060 3196 0
4061 -3197 0
-4061 3197 0
4062 -3198 0
-4062 3198 0
4063 -3199 0
-4063 3199 0
4064 -3200 0
-4064 3200 0
4065 -3201 0
-4065 3201 0
4066 -3202 0
-4066 3202 0
4067 -3203 0
-4067 3203 0
4068 -3204 0
-4068 3204 0
4069 -3205 0
-4069 3205 0
4070 -3206 0
-4070 3206 0
4071 -3207 0
-4071 3207 0
4072 -3208 0
-4072 3208 0
4073 -3209 0
-4073 3209 0
4074 -3210 0
-4074 3210 0
4075 -3211 0
-4075 3211 0
4076 -3212 0
-4076 3212 0
4077 -3213 0
-4077 3213 0
4078 -3214 0
-4078 3214 0
4079 -3215 0
-4079 3215 0
4080 -3216 0
-4080 3216 0
4081 -3217 0
-4081 3217 0
4082 -3218 0
-4082 3218 0
4083 -3219 0
-4083 3219 0
4084 -3220 0
-4084 3220 0
4085 -3221 0
-4085 3221 0
4086 -3222 0
-4086 3222 0
4087 -3223 0
-4087 3223 0
4088 -3224 0
-4088 3224 0
4089 -3225 0
-4089 3225 0
4090 -3226 0
-4090 3226 0
4091 -3227 0
-4091 3227 0
4092 -3228 0
-4092 3228 0
4093 -3229 0
-4093 3229 0
4094 -3230 0
-4094 3230 0
4095 -3231 0
-4095 3231 0
4096 -3232 0
-4096 3232 0
4097 -3233 0
-4097 3233 0
4098 -3234 0
-4098 3234 0
4099 -3235 0
-4099 3235 0
4100 -3236 0
-4100 3236 0
4101 -3237 0
-4101 3237 0
4102 -3238 0
-4102 3238 0
4103 -3239 0
-4103 3239 0
4104 -3240 0
-4104 3240 0
4105 -3241 0
-4105 3241 0
4106 -3242 0
-4106 3242 0
4107 -3243 0
-4107 3243 0
4108 -3244 0
-4108 3244 0
4109 -3245 0
-4109 3245 0
4110 -3246 0
-4110 3246 0
4111 -3247 0
-4111 3247 0
4112 -3248 0
-4112 3248 0
4113 -3249 0
-4113 3249 0
4114 -3250 0
-4114 3250 0
4115 -3251 0
-4115 3251 0
4116 -3252 0
-4116 3252 0
4117 -3253 0
-4117 3253 0
4118 -3254 0
-4118 3254 0
4119 -3255 0
-4119 3255 0
4120 -3256 0
-4120 3256 0
4121 -3257 0
-4121 3257 0
4122 -3258 0
-4122 3258 0
4123 -3259 0
-4123 3259 0
4124 -3260 0
-4124 3260 0
4125 -3261 0
-4125 3261 0
4126 -3262 0
-4126 3262 0
4127 -3263 0
-4127 3263 0
4128 -3264 0
-4128 3264 0
4129 -3265 0
-4129 3265 0
4130 -3266 0
-4130 3266 0
-3519 3523 0
3519 -3523 0
-3520 3524 0
3520 -3524 0
-3521 3525 0
3521 -3525 0
-3522 3526 0
3522 -3526 0
-3515 3534 0
3515 -3534 0
-3516 3535 0
3516 -3535 0
-3517 3536 0
3517 -3536 0
-3518 3537 0
3518 -3537 0
-3511 3545 0
3511 -3545 0
-3512 3546 0
3512 -3546 0
-3513 3547 0
3513 -3547 0
-3514 3548 0
3514 -3548 0
-3507 3556 0
3507 -3556 0
-3508 3557 0
3508 -3557 0
-3509 3558 0
3509 -3558 0
-3510 3559 0
3510 -3559 0
-3503 3567 0
3503 -3567 0
-3504 3568 0
3504 -3568 0
-3505 3569 0
3505 -3569 0
-3506 3570 0
3506 -3570 0
-3499 3578 0
3499 -3578 0
-3500 3579 0
3500 -3579 0
-3501 3580 0
3501 -3580 0
-3502 3581 0
3502 -3581 0
-3495 3589 0
3495 -3589 0
-3496 3590 0
3496 -3590 0
-3497 3591 0
3497 -3591 0
-3498 3592 0
3498 -3592 0
-3491 3600 0
3491 -3600 0
-3492 3601 0
3492 -3601 0
-3493 3602 0
3493 -3602 0
-3494 3603 0
3494 -3603 0
-3487 3611 0
3487 -3611 0
-3488 3612 0
3488 -3612 0
-3489 3613 0
3489 -3613 0
-3490 3614 0
3490 -3614 0
-3483 3622 0
3483 -3622 0
-3484 3623 0
3484 -3623 0
-3485 3624 0
3485 -3624 0
-3486 3625 0
3486 -3625 0
-3479 3633 0
3479 -3633 0
-3480 3634 0
3480 -3634 0
-3481 3635 0
3481 -3635 0
-3482 3636 0
3482 -3636 0
-3475 3644 0
3475 -3644 0
-3476 3645 0
3476 -3645 0
-3477 3646 0
3477 -3646 0
-3478 3647 0
3478 -3647 0
-3471 3655 0
3471 -3655 0
-3472 3656 0
3472 -3656 0
-3473 3657 0
3473 -3657 0
-3474 3658 0
3474 -3658 0
-3467 3666 0
3467 -3666 0
-3468 3667 0
3468 -3667 0
-3469 3668 0
3469 -3668 0
-3470 3669 0
3470 -3669 0
-3463 3677 0
3463 -3677 0
-3464 3678 0
3464 -3678 0
-3465 3679 0
3465 -3679 0
-3466 3680 0
3466 -3680 0
-3459 3688 0
3459 -3688 0
-3460 3689 0
3460 -3689 0
-3461 3690 0
3461 -3690 0
-3462 3691 0
3462 -3691 0
-3455 3699 0
3455 -3699 0
-3456 3700 0
3456 -3700 0
-3457 3701 0
3457 -3701 0
-3458 3702 0
3458 -3702 0
-3451 3710 0
3451 -3710 0
-3452 3711 0
3452 -3711 0
-3453 3712 0
3453 -3712 0
-3454 3713 0
3454 -3713 0
-3447 3721 0
3447 -3721 0
-3448 3722 0
3448 -3722 0
-3449 3723 0
3449 -3723 0
-3450 3724 0
3450 -3724 0
-3443 3732 0
3443 -3732 0
-3444 3733 0
3444 -3733 0
-3445 3734 0
3445 -3734 0
-3446 3735 0
3446 -3735 0
-3439 3743 0
3439 -3743 0
-3440 3744 0
3440 -3744 0
-3441 3745 0
3441 -3745 0
-3442 3746 0
3442 -3746 0
-3435 3754 0
3435 -3754 0
-3436 3755 0
3436 -3755 0
-3437 3756 0
3437 -3756 0
-3438 3757 0
3438 -3757 0
-3431 3765 0
3431 -3765 0
-3432 3766 0
3432 -3766 0
-3433 3767 0
3433 -3767 0
-3434 3768 0
3434 -3768 0
-3427 3776 0
3427 -3776 0
-3428 3777 0
3428 -3777 0
-3429 3778 0
3429 -3778 0
-3430 3779 0
3430 -3779 0
-3423 3787 0
3423 -3787 0
-3424 3788 0
3424 -3788 0
-3425 3789 0
3425 -3789 0
-3426 3790 0
3426 -3790 0
-3419 3798 0
3419 -3798 0
-3420 3799 0
3420 -3799 0
-3421 3800 0
3421 -3800 0
-3422 3801 0
3422 -3801 0
-3415 3809 0
3415 -3809 0
-3416 3810 0
3416 -3810 0
-3417 3811 0
3417 -3811 0
-3418 3812 0
3418 -3812 0
-3411 3820 0
3411 -3820 0
-3412 3821 0
3412 -3821 0
-3413 3822 0
3413 -3822 0
-3414 3823 0
3414 -3823 0
-3407 3831 0
3407 -3831 0
-3408 3832 0
3408 -3832 0
-3409 3833 0
3409 -3833 0
-3410 3834 0
3410 -3834 0
-3403 3842 0
3403 -3842 0
-3404 3843 0
3404 -3843 0
-3405 3844 0
3405 -3844 0
-3406 3845 0
3406 -3845 0
-3399 3853 0
3399 -3853 0
-3400 3854 0
3400 -3854 0
-3401 3855 0
3401 -3855 0
-3402 3856 0
3402 -3856 0
-3395 3864 0
3395 -3864 0
-3396 3865 0
3396 -3865 0
-3397 3866 0
3397 -3866 0
-3398 3867 0
3398 -3867 0
-3868 3875 0
3868 -3875 0
-3869 3876 0
3869 -3876 0
-3870 3877 0
3870 -3877 0
-3871 3878 0
3871 -3878 0
-3857 3879 0
3857 -3879 0
-3858 3880 0
3858 -3880 0
-3859 3881 0
3859 -3881 0
-3860 3882 0
3860 -3882 0
-3846 3883 0
3846 -3883 0
-3847 3884 0
3847 -3884 0
-3848 3885 0
3848 -3885 0
-3849 3886 0
3849 -3886 0
-3835 3887 0
3835 -3887 0
-3836 3888 0
3836 -3888 0
-3837 3889 0
3837 -3889 0
-3838 3890 0
3838 -3890 0
-3824 3891 0
3824 -3891 0
-3825 3892 0
3825 -3892 0
-3826 3893 0
3826 -3893 0
-3827 3894 0
3827 -3894 0
-3813 3895 0
3813 -3895 0
-3814 3896 0
3814 -3896 0
-3815 3897 0
3815 -3897 0
-3816 3898 0
3816 -3898 0
-3802 3899 0
3802 -3899 0
-3803 3900 0
3803 -3900 0
-3804 3901 0
3804 -3901 0
-3805 3902 0
3805 -3902 0
-3791 3903 0
3791 -3903 0
-3792 3904 0
3792 -3904 0
-3793 3905 0
3793 -3905 0
-3794 3906 0
3794 -3906 0
-3780 3907 0
3780 -3907 0
-3781 3908 0
3781 -3908 0
-3782 3909 0
3782 -3909 0
-3783 3910 0
3783 -3910 0
-3769 3911 0
3769 -3911 0
-3770 3912 0
3770 -3912 0
-3771 3913 0
3771 -3913 0
-3772 3914 0
3772 -3914 0
-3758 3915 0
3758 -3915 0
-3759 3916 0
3759 -3916 0
-3760 3917 0
3760 -3917 0
-3761 3918 0
3761 -3918 0
-3747 3919 0
3747 -3919 0
-3748 3920 0
3748 -3920 0
-3749 3921 0
3749 -3921 0
-3750 3922 0
3750 -3922 0
-3736 3923 0
3736 -3923 0
-3737 3924 0
3737 -3924 0
-3738 3925 0
3738 -3925 0
-3739 3926 0
3739 -3926 0
-3725 3927 0
3725 -3927 0
-3726 3928 0
3726 -3928 0
-3727 3929 0
3727 -3929 0
-3728 3930 0
3728 -3930 0
-3714 3931 0
3714 -3931 0
-3715 3932 0
3715 -3932 0
-3716 3933 0
3716 -3933 0
-3717 3934 0
3717 -3934 0
-3703 3935 0
3703 -3935 0
-3704 3936 0
3704 -3936 0
-3705 3937 0
3705 -3937 0
-3706 3938 0
3706 -3938 0
-3692 3939 0
3692 -3939 0
-3693 3940 0
3693 -3940 0
-3694 3941 0
3694 -3941 0
-3695 3942 0
3695 -3942 0
-3681 3943 0
3681 -3943 0
-3682 3944 0
3682 -3944 0
-3683 3945 0
3683 -3945 0
-3684 3946 0
3684 -3946 0
-3670 3947 0
3670 -3947 0
-3671 3948 0
3671 -3948 0
-3672 3949 0
3672 -3949 0
-3673 3950 0
3673 -3950 0
-3659 3951 0
3659 -3951 0
-3660 3952 0
3660 -3952 0
-3661 3953 0
3661 -3953 0
-3662 3954 0
3662 -3954 0
-3648 3955 0
3648 -3955 0
-3649 3956 0
3649 -3956 0
-3650 3957 0
3650 -3957 0
-3651 3958 0
3651 -3958 0
-3637 3959 0
3637 -3959 0
-3638 3960 0
3638 -3960 0
-3639 3961 0
3639 -3961 0
-3640 3962 0
3640 -3962 0
-3626 3963 0
3626 -3963 0
-3627 3964 0
3627 -3964 0
-3628 3965 0
3628 -3965 0
-3629 3966 0
3629 -3966 0
-3615 3967 0
3615 -3967 0
-3616 3968 0
3616 -3968 0
-3617 3969 0
3617 -3969 0
-3618 3970 0
3618 -3970 0
-3604 3971 0
3604 -3971 0
-3605 3972 0
3605 -3972 0
-3606 3973 0
3606 -3973 0
-3607 3974 0
3607 -3974 0
-3593 3975 0
3593 -3975 0
-3594 3976 0
3594 -3976 0
-3595 3977 0
3595 -3977 0
-3596 3978 0
3596 -3978 0
-3582 3979 0
3582 -3979 0
-3583 3980 0
3583 -3980 0
-3584 3981 0
3584 -3981 0
-3585 3982 0
3585 -3982 0
-3571 3983 0
3571 -3983 0
-3572 3984 0
3572 -3984 0
-3573 3985 0
3573 -3985 0
-3574 3986 0
3574 -3986 0
-3560 3987 0
3560 -3987 0
-3561 3988 0
3561 -3988 0
-3562 3989 0
3562 -3989 0
-3563 3990 0
3563 -3990 0
-3549 3991 0
3549 -3991 0
-3550 3992 0
3550 -3992 0
-3551 3993 0
3551 -3993 0
-3552 3994 0
3552 -3994 0
-3538 3995 0
3538 -3995 0
-3539 3996 0
3539 -3996 0
-3540 3997 0
3540 -3997 0
-3541 3998 0
3541 -3998 0
-3527 3999 0
3527 -3999 0
-3528 4000 0
3528 -4000 0
-3529 4001 0
3529 -4001 0
-3530 4002 0
3530 -4002 0
4159 4172 -4387 0
4159 -4172 4387 0
-4159 4172 4387 0
-4159 -4172 -4387 0
4387 4226 -4259 0
4387 -4226 4259 0
-4387 4226 4259 0
-4387 -4226 -4259 0
4132 4136 -4388 0
4132 -4136 4388 0
-4132 4136 4388 0
-4132 -4136 -4388 0
4388 4178 -4389 0
4388 -4178 4389 0
-4388 4178 4389 0
-4388 -4178 -4389 0
4389 4232 -4390 0
4389 -4232 4390 0
-4389 4232 4390 0
-4389 -4232 -4390 0
4390 4247 -4391 0
4390 -4247 4391 0
-4390 4247 4391 0
-4390 -4247 -4391 0
4391 4253 -4260 0
4391 -4253 4260 0
-4391 4253 4260 0
-4391 -4253 -4260 0
4137 4148 -4392 0
4137 -4148 4392 0
-4137 4148 4392 0
-4137 -4148 -4392 0
4392 4190 -4261 0
4392 -4190 4261 0
-4392 4190 4261 0
-4392 -4190 -4261 0
4157 4168 -4393 0
4157 -4168 4393 0
-4157 4168 4393 0
-4157 -4168 -4393 0
4393 4179 -4394 0
4393 -4179 4394 0
-4393 4179 4394 0
-4393 -4179 -4394 0
4394 4192 -4395 0
4394 -4192 4395 0
-4394 4192 4395 0
-4394 -4192 -4395 0
4395 4206 -4396 0
4395 -4206 4396 0
-4395 4206 4396 0
-4395 -4206 -4396 0
4396 4210 -4397 0
4396 -4210 4397 0
-4396 4210 4397 0
-4396 -4210 -4397 0
4397 4246 -4262 0
4397 -4246 4262 0
-4397 4246 4262 0
-4397 -4246 -4262 0
4163 4176 -4398 0
4163 -4176 4398 0
-4163 4176 4398 0
-4163 -4176 -4398 0
4398 4230 -4263 0
4398 -4230 4263 0
-4398 4230 4263 0
-4398 -4230 -4263 0
4136 4140 -4399 0
4136 -4140 4399 0
-4136 4140 4399 0
-4136 -4140 -4399 0
4399 4182 -4400 0
4399 -4182 4400 0
-4399 4182 4400 0
-4399 -4182 -4400 0
4400 4236 -4401 0
4400 -4236 4401 0
-4400 4236 4401 0
-4400 -4236 -4401 0
4401 4251 -4402 0
4401 -4251 4402 0
-4401 4251 4402 0
-4401 -4251 -4402 0
4402 4257 -4264 0
4402 -4257 4264 0
-4402 4257 4264 0
-4402 -4257 -4264 0
4141 4152 -4403 0
4141 -4152 4403 0
-4141 4152 4403 0
-4141 -4152 -4403 0
4403 4194 -4265 0
4403 -4194 4265 0
-4403 4194 4265 0
-4403 -4194 -4265 0
4161 4172 -4404 0
4161 -4172 4404 0
-4161 4172 4404 0
-4161 -4172 -4404 0
4404 4183 -4405 0
4404 -4183 4405 0
-4404 4183 4405 0
-4404 -4183 -4405 0
4405 4196 -4406 0
4405 -4196 4406 0
-4405 4196 4406 0
-4405 -4196 -4406 0
4406 4210 -4407 0
4406 -4210 4407 0
-4406 4210 4407 0
-4406 -4210 -4407 0
4407 4214 -4408 0
4407 -4214 4408 0
-4407 4214 4408 0
-4407 -4214 -4408 0
4408 4250 -4266 0
4408 -4250 4266 0
-4408 4250 4266 0
-4408 -4250 -4266 0
4167 4180 -4409 0
4167 -4180 4409 0
-4167 4180 4409 0
-4167 -4180 -4409 0
4409 4234 -4267 0
4409 -4234 4267 0
-4409 4234 4267 0
-4409 -4234 -4267 0
4133 4140 -4410 0
4133 -4140 4410 0
-4133 4140 4410 0
-4133 -4140 -4410 0
4410 4144 -4411 0
4410 -4144 4411 0
-4410 4144 4411 0
-4410 -4144 -4411 0
4411 4186 -4412 0
4411 -4186 4412 0
-4411 4186 4412 0
-4411 -4186 -4412 0
4412 4240 -4413 0
4412 -4240 4413 0
-4412 4240 4413 0
-4412 -4240 -4413 0
4413 4255 -4268 0
4413 -4255 4268 0
-4413 4255 4268 0
-4413 -4255 -4268 0
4145 4156 -4414 0
4145 -4156 4414 0
-4145 4156 4414 0
-4145 -4156 -4414 0
4414 4198 -4269 0
4414 -4198 4269 0
-4414 4198 4269 0
-4414 -4198 -4269 0
4165 4176 -4415 0
4165 -4176 4415 0
-4165 4176 4415 0
-4165 -4176 -4415 0
4415 4187 -4416 0
4415 -4187 4416 0
-4415 4187 4416 0
-4415 -4187 -4416 0
4416 4200 -4417 0
4416 -4200 4417 0
-4416 4200 4417 0
-4416 -4200 -4417 0
4417 4214 -4418 0
4417 -4214 4418 0
-4417 4214 4418 0
-4417 -4214 -4418 0
4418 4218 -4419 0
4418 -4218 4419 0
-4418 4218 4419 0
-4418 -4218 -4419 0
4419 4254 -4270 0
4419 -4254 4270 0
-4419 4254 4270 0
-4419 -4254 -4270 0
4171 4184 -4420 0
4171 -4184 4420 0
-4171 4184 4420 0
-4171 -4184 -4420 0
4420 4238 -4271 0
4420 -4238 4271 0
-4420 4238 4271 0
-4420 -4238 -4271 0
4131 4144 -4421 0
4131 -4144 4421 0
-4131 4144 4421 0
-4131 -4144 -4421 0
4421 4198 -4422 0
4421 -4198 4422 0
-4421 4198 4422 0
-4421 -4198 -4422 0
4422 4244 -4272 0
4422 -4244 4272 0
-4422 4244 4272 0
-4422 -4244 -4272 0
4149 4160 -4423 0
4149 -4160 4423 0
-4149 4160 4423 0
-4149 -4160 -4423 0
4423 4202 -4273 0
4423 -4202 4273 0
-4423 4202 4273 0
-4423 -4202 -4273 0
4169 4180 -4424 0
4169 -4180 4424 0
-4169 4180 4424 0
-4169 -4180 -4424 0
4424 4191 -4425 0
4424 -4191 4425 0
-4424 4191 4425 0
-4424 -4191 -4425 0
4425 4204 -4426 0
4425 -4204 4426 0
-4425 4204 4426 0
-4425 -4204 -4426 0
4426 4218 -4427 0
4426 -4218 4427 0
-4426 4218 4427 0
-4426 -4218 -4427 0
4427 4222 -4428 0
4427 -4222 4428 0
-4427 4222 4428 0
-4427 -4222 -4428 0
4428 4258 -4274 0
4428 -4258 4274 0
-4428 4258 4274 0
-4428 -4258 -4274 0
4175 4188 -4429 0
4175 -4188 4429 0
-4175 4188 4429 0
-4175 -4188 -4429 0
4429 4242 -4275 0
4429 -4242 4275 0
-4429 4242 4275 0
-4429 -4242 -4275 0
4135 4148 -4430 0
4135 -4148 4430 0
-4135 4148 4430 0
-4135 -4148 -4430 0
4430 4202 -4431 0
4430 -4202 4431 0
-4430 4202 4431 0
-4430 -4202 -4431 0
4431 4248 -4276 0
4431 -4248 4276 0
-4431 4248 4276 0
-4431 -4248 -4276 0
4153 4164 -4432 0
4153 -4164 4432 0
-4153 4164 4432 0
-4153 -4164 -4432 0
4432 4206 -4277 0
4432 -4206 4277 0
-4432 4206 4277 0
-4432 -4206 -4277 0
4134 4173 -4433 0
4134 -4173 4433 0
-4134 4173 4433 0
-4134 -4173 -4433 0
4433 4184 -4434 0
4433 -4184 4434 0
-4433 4184 4434 0
-4433 -4184 -4434 0
4434 4195 -4435 0
4434 -4195 4435 0
-4434 4195 4435 0
-4434 -4195 -4435 0
4435 4208 -4436 0
4435 -4208 4436 0
-4435 4208 4436 0
-4435 -4208 -4436 0
4436 4222 -4437 0
4436 -4222 4437 0
-4436 4222 4437 0
-4436 -4222 -4437 0
4437 4226 -4278 0
4437 -4226 4278 0
-4437 4226 4278 0
-4437 -4226 -4278 0
4179 4192 -4438 0
4179 -4192 4438 0
-4179 4192 4438 0
-4179 -4192 -4438 0
4438 4246 -4279 0
4438 -4246 4279 0
-4438 4246 4279 0
-4438 -4246 -4279 0
4139 4152 -4439 0
4139 -4152 4439 0
-4139 4152 4439 0
-4139 -4152 -4439 0
4439 4206 -4440 0
4439 -4206 4440 0
-4439 4206 4440 0
-4439 -4206 -4440 0
4440 4252 -4280 0
4440 -4252 4280 0
-4440 4252 4280 0
-4440 -4252 -4280 0
4157 4168 -4441 0
4157 -4168 4441 0
-4157 4168 4441 0
-4157 -4168 -4441 0
4441 4210 -4281 0
4441 -4210 4281 0
-4441 4210 4281 0
-4441 -4210 -4281 0
4138 4177 -4442 0
4138 -4177 4442 0
-4138 4177 4442 0
-4138 -4177 -4442 0
4442 4188 -4443 0
4442 -4188 4443 0
-4442 4188 4443 0
-4442 -4188 -4443 0
4443 4199 -4444 0
4443 -4199 4444 0
-4443 4199 4444 0
-4443 -4199 -4444 0
4444 4212 -4445 0
4444 -4212 4445 0
-4444 4212 4445 0
-4444 -4212 -4445 0
4445 4226 -4446 0
4445 -4226 4446 0
-4445 4226 4446 0
-4445 -4226 -4446 0
4446 4230 -4282 0
4446 -4230 4282 0
-4446 4230 4282 0
-4446 -4230 -4282 0
4183 4196 -4447 0
4183 -4196 4447 0
-4183 4196 4447 0
-4183 -4196 -4447 0
4447 4250 -4283 0
4447 -4250 4283 0
-4447 4250 4283 0
-4447 -4250 -4283 0
4143 4156 -4448 0
4143 -4156 4448 0
-4143 4156 4448 0
-4143 -4156 -4448 0
4448 4210 -4449 0
4448 -4210 4449 0
-4448 4210 4449 0
-4448 -4210 -4449 0
4449 4256 -4284 0
4449 -4256 4284 0
-4449 4256 4284 0
-4449 -4256 -4284 0
4161 4172 -4450 0
4161 -4172 4450 0
-4161 4172 4450 0
-4161 -4172 -4450 0
4450 4214 -4285 0
4450 -4214 4285 0
-4450 4214 4285 0
-4450 -4214 -4285 0
4142 4181 -4451 0
4142 -4181 4451 0
-4142 4181 4451 0
-4142 -4181 -4451 0
4451 4192 -4452 0
4451 -4192 4452 0
-4451 4192 4452 0
-4451 -4192 -4452 0
4452 4203 -4453 0
4452 -4203 4453 0
-4452 4203 4453 0
-4452 -4203 -4453 0
4453 4216 -4454 0
4453 -4216 4454 0
-4453 4216 4454 0
-4453 -4216 -4454 0
4454 4230 -4455 0
4454 -4230 4455 0
-4454 4230 4455 0
-4454 -4230 -4455 0
4455 4234 -4286 0
4455 -4234 4286 0
-4455 4234 4286 0
-4455 -4234 -4286 0
4187 4200 -4456 0
4187 -4200 4456 0
-4187 4200 4456 0
-4187 -4200 -4456 0
4456 4254 -4287 0
4456 -4254 4287 0
-4456 4254 4287 0
-4456 -4254 -4287 0
4132 4147 -4457 0
4132 -4147 4457 0
-4132 4147 4457 0
-4132 -4147 -4457 0
4457 4160 -4458 0
4457 -4160 4458 0
-4457 4160 4458 0
-4457 -4160 -4458 0
4458 4214 -4288 0
4458 -4214 4288 0
-4458 4214 4288 0
-4458 -4214 -4288 0
4165 4176 -4459 0
4165 -4176 4459 0
-4165 4176 4459 0
-4165 -4176 -4459 0
4459 4218 -4289 0
4459 -4218 4289 0
-4459 4218 4289 0
-4459 -4218 -4289 0
4146 4185 -4460 0
4146 -4185 4460 0
-4146 4185 4460 0
-4146 -4185 -4460 0
4460 4196 -4461 0
4460 -4196 4461 0
-4460 4196 4461 0
-4460 -4196 -4461 0
4461 4207 -4462 0
4461 -4207 4462 0
-4461 4207 4462 0
-4461 -4207 -4462 0
4462 4220 -4463 0
4462 -4220 4463 0
-4462 4220 4463 0
-4462 -4220 -4463 0
4463 4234 -4464 0
4463 -4234 4464 0
-4463 4234 4464 0
-4463 -4234 -4464 0
4464 4238 -4290 0
4464 -4238 4290 0
-4464 4238 4290 0
-4464 -4238 -4290 0
4191 4204 -4465 0
4191 -4204 4465 0
-4191 4204 4465 0
-4191 -4204 -4465 0
4465 4258 -4291 0
4465 -4258 4291 0
-4465 4258 4291 0
-4465 -4258 -4291 0
4136 4151 -4466 0
4136 -4151 4466 0
-4136 4151 4466 0
-4136 -4151 -4466 0
4466 4164 -4467 0
4466 -4164 4467 0
-4466 4164 4467 0
-4466 -4164 -4467 0
4467 4218 -4292 0
4467 -4218 4292 0
-4467 4218 4292 0
-4467 -4218 -4292 0
4169 4180 -4468 0
4169 -4180 4468 0
-4169 4180 4468 0
-4169 -4180 -4468 0
4468 4222 -4293 0
4468 -4222 4293 0
-4468 4222 4293 0
-4468 -4222 -4293 0
4150 4189 -4469 0
4150 -4189 4469 0
-4150 4189 4469 0
-4150 -4189 -4469 0
4469 4200 -4470 0
4469 -4200 4470 0
-4469 4200 4470 0
-4469 -4200 -4470 0
4470 4211 -4471 0
4470 -4211 4471 0
-4470 4211 4471 0
-4470 -4211 -4471 0
4471 4224 -4472 0
4471 -4224 4472 0
-4471 4224 4472 0
-4471 -4224 -4472 0
4472 4238 -4473 0
4472 -4238 4473 0
-4472 4238 4473 0
-4472 -4238 -4473 0
4473 4242 -4294 0
4473 -4242 4294 0
-4473 4242 4294 0
-4473 -4242 -4294 0
4134 4195 -4474 0
4134 -4195 4474 0
-4134 4195 4474 0
-4134 -4195 -4474 0
4474 4208 -4295 0
4474 -4208 4295 0
-4474 4208 4295 0
-4474 -4208 -4295 0
4140 4155 -4475 0
4140 -4155 4475 0
-4140 4155 4475 0
-4140 -4155 -4475 0
4475 4168 -4476 0
4475 -4168 4476 0
-4475 4168 4476 0
-4475 -4168 -4476 0
4476 4222 -4296 0
4476 -4222 4296 0
-4476 4222 4296 0
-4476 -4222 -4296 0
4173 4184 -4477 0
4173 -4184 4477 0
-4173 4184 4477 0
-4173 -4184 -4477 0
4477 4226 -4297 0
4477 -4226 4297 0
-4477 4226 4297 0
-4477 -4226 -4297 0
4154 4193 -4478 0
4154 -4193 4478 0
-4154 4193 4478 0
-4154 -4193 -4478 0
4478 4204 -4479 0
4478 -4204 4479 0
-4478 4204 4479 0
-4478 -4204 -4479 0
4479 4215 -4480 0
4479 -4215 4480 0
-4479 4215 4480 0
-4479 -4215 -4480 0
4480 4228 -4481 0
4480 -4228 4481 0
-4480 4228 4481 0
-4480 -4228 -4481 0
4481 4242 -4482 0
4481 -4242 4482 0
-4481 4242 4482 0
-4481 -4242 -4482 0
4482 4246 -4298 0
4482 -4246 4298 0
-4482 4246 4298 0
-4482 -4246 -4298 0
4138 4199 -4483 0
4138 -4199 4483 0
-4138 4199 4483 0
-4138 -4199 -4483 0
4483 4212 -4299 0
4483 -4212 4299 0
-4483 4212 4299 0
-4483 -4212 -4299 0
4144 4159 -4484 0
4144 -4159 4484 0
-4144 4159 4484 0
-4144 -4159 -4484 0
4484 4165 -4485 0
4484 -4165 4485 0
-4484 4165 4485 0
-4484 -4165 -4485 0
4485 4172 -4486 0
4485 -4172 4486 0
-4485 4172 4486 0
-4485 -4172 -4486 0
4486 4176 -4487 0
4486 -4176 4487 0
-4486 4176 4487 0
-4486 -4176 -4487 0
4487 4218 -4488 0
4487 -4218 4488 0
-4487 4218 4488 0
-4487 -4218 -4488 0
4488 4226 -4300 0
4488 -4226 4300 0
-4488 4226 4300 0
-4488 -4226 -4300 0
4177 4188 -4489 0
4177 -4188 4489 0
-4177 4188 4489 0
-4177 -4188 -4489 0
4489 4230 -4301 0
4489 -4230 4301 0
-4489 4230 4301 0
-4489 -4230 -4301 0
4158 4197 -4490 0
4158 -4197 4490 0
-4158 4197 4490 0
-4158 -4197 -4490 0
4490 4208 -4491 0
4490 -4208 4491 0
-4490 4208 4491 0
-4490 -4208 -4491 0
4491 4219 -4492 0
4491 -4219 4492 0
-4491 4219 4492 0
-4491 -4219 -4492 0
4492 4232 -4493 0
4492 -4232 4493 0
-4492 4232 4493 0
-4492 -4232 -4493 0
4493 4246 -4494 0
4493 -4246 4494 0
-4493 4246 4494 0
-4493 -4246 -4494 0
4494 4250 -4302 0
4494 -4250 4302 0
-4494 4250 4302 0
-4494 -4250 -4302 0
4142 4203 -4495 0
4142 -4203 4495 0
-4142 4203 4495 0
-4142 -4203 -4495 0
4495 4216 -4303 0
4495 -4216 4303 0
-4495 4216 4303 0
-4495 -4216 -4303 0
4148 4163 -4496 0
4148 -4163 4496 0
-4148 4163 4496 0
-4148 -4163 -4496 0
4496 4169 -4497 0
4496 -4169 4497 0
-4496 4169 4497 0
-4496 -4169 -4497 0
4497 4176 -4498 0
4497 -4176 4498 0
-4497 4176 4498 0
-4497 -4176 -4498 0
4498 4180 -4499 0
4498 -4180 4499 0
-4498 4180 4499 0
-4498 -4180 -4499 0
4499 4222 -4500 0
4499 -4222 4500 0
-4499 4222 4500 0
-4499 -4222 -4500 0
4500 4230 -4304 0
4500 -4230 4304 0
-4500 4230 4304 0
-4500 -4230 -4304 0
4181 4192 -4501 0
4181 -4192 4501 0
-4181 4192 4501 0
-4181 -4192 -4501 0
4501 4234 -4305 0
4501 -4234 4305 0
-4501 4234 4305 0
-4501 -4234 -4305 0
4162 4201 -4502 0
4162 -4201 4502 0
-4162 4201 4502 0
-4162 -4201 -4502 0
4502 4212 -4503 0
4502 -4212 4503 0
-4502 4212 4503 0
-4502 -4212 -4503 0
4503 4223 -4504 0
4503 -4223 4504 0
-4503 4223 4504 0
-4503 -4223 -4504 0
4504 4236 -4505 0
4504 -4236 4505 0
-4504 4236 4505 0
-4504 -4236 -4505 0
4505 4250 -4506 0
4505 -4250 4506 0
-4505 4250 4506 0
-4505 -4250 -4506 0
4506 4254 -4306 0
4506 -4254 4306 0
-4506 4254 4306 0
-4506 -4254 -4306 0
4146 4207 -4507 0
4146 -4207 4507 0
-4146 4207 4507 0
-4146 -4207 -4507 0
4507 4220 -4307 0
4507 -4220 4307 0
-4507 4220 4307 0
-4507 -4220 -4307 0
4152 4167 -4508 0
4152 -4167 4508 0
-4152 4167 4508 0
-4152 -4167 -4508 0
4508 4173 -4509 0
4508 -4173 4509 0
-4508 4173 4509 0
-4508 -4173 -4509 0
4509 4180 -4510 0
4509 -4180 4510 0
-4509 4180 4510 0
-4509 -4180 -4510 0
4510 4184 -4511 0
4510 -4184 4511 0
-4510 4184 4511 0
-4510 -4184 -4511 0
4511 4226 -4512 0
4511 -4226 4512 0
-4511 4226 4512 0
-4511 -4226 -4512 0
4512 4234 -4308 0
4512 -4234 4308 0
-4512 4234 4308 0
-4512 -4234 -4308 0
4185 4196 -4513 0
4185 -4196 4513 0
-4185 4196 4513 0
-4185 -4196 -4513 0
4513 4238 -4309 0
4513 -4238 4309 0
-4513 4238 4309 0
-4513 -4238 -4309 0
4166 4205 -4514 0
4166 -4205 4514 0
-4166 4205 4514 0
-4166 -4205 -4514 0
4514 4216 -4515 0
4514 -4216 4515 0
-4514 4216 4515 0
-4514 -4216 -4515 0
4515 4227 -4516 0
4515 -4227 4516 0
-4515 4227 4516 0
-4515 -4227 -4516 0
4516 4240 -4517 0
4516 -4240 4517 0
-4516 4240 4517 0
-4516 -4240 -4517 0
4517 4254 -4518 0
4517 -4254 4518 0
-4517 4254 4518 0
-4517 -4254 -4518 0
4518 4258 -4310 0
4518 -4258 4310 0
-4518 4258 4310 0
-4518 -4258 -4310 0
4150 4211 -4519 0
4150 -4211 4519 0
-4150 4211 4519 0
-4150 -4211 -4519 0
4519 4224 -4311 0
4519 -4224 4311 0
-4519 4224 4311 0
-4519 -4224 -4311 0
4156 4171 -4520 0
4156 -4171 4520 0
-4156 4171 4520 0
-4156 -4171 -4520 0
4520 4177 -4521 0
4520 -4177 4521 0
-4520 4177 4521 0
-4520 -4177 -4521 0
4521 4184 -4522 0
4521 -4184 4522 0
-4521 4184 4522 0
-4521 -4184 -4522 0
4522 4188 -4523 0
4522 -4188 4523 0
-4522 4188 4523 0
-4522 -4188 -4523 0
4523 4230 -4524 0
4523 -4230 4524 0
-4523 4230 4524 0
-4523 -4230 -4524 0
4524 4238 -4312 0
4524 -4238 4312 0
-4524 4238 4312 0
-4524 -4238 -4312 0
4189 4200 -4525 0
4189 -4200 4525 0
-4189 4200 4525 0
-4189 -4200 -4525 0
4525 4242 -4313 0
4525 -4242 4313 0
-4525 4242 4313 0
-4525 -4242 -4313 0
4134 4170 -4526 0
4134 -4170 4526 0
-4134 4170 4526 0
-4134 -4170 -4526 0
4526 4209 -4527 0
4526 -4209 4527 0
-4526 4209 4527 0
-4526 -4209 -4527 0
4527 4220 -4528 0
4527 -4220 4528 0
-4527 4220 4528 0
-4527 -4220 -4528 0
4528 4231 -4529 0
4528 -4231 4529 0
-4528 4231 4529 0
-4528 -4231 -4529 0
4529 4244 -4530 0
4529 -4244 4530 0
-4529 4244 4530 0
-4529 -4244 -4530 0
4530 4258 -4314 0
4530 -4258 4314 0
-4530 4258 4314 0
-4530 -4258 -4314 0
4154 4215 -4531 0
4154 -4215 4531 0
-4154 4215 4531 0
-4154 -4215 -4531 0
4531 4228 -4315 0
4531 -4228 4315 0
-4531 4228 4315 0
-4531 -4228 -4315 0
4160 4175 -4532 0
4160 -4175 4532 0
-4160 4175 4532 0
-4160 -4175 -4532 0
4532 4181 -4533 0
4532 -4181 4533 0
-4532 4181 4533 0
-4532 -4181 -4533 0
4533 4188 -4534 0
4533 -4188 4534 0
-4533 4188 4534 0
-4533 -4188 -4534 0
4534 4192 -4535 0
4534 -4192 4535 0
-4534 4192 4535 0
-4534 -4192 -4535 0
4535 4234 -4536 0
4535 -4234 4536 0
-4535 4234 4536 0
-4535 -4234 -4536 0
4536 4242 -4316 0
4536 -4242 4316 0
-4536 4242 4316 0
-4536 -4242 -4316 0
4193 4204 -4537 0
4193 -4204 4537 0
-4193 4204 4537 0
-4193 -4204 -4537 0
4537 4246 -4317 0
4537 -4246 4317 0
-4537 4246 4317 0
-4537 -4246 -4317 0
4134 4138 -4538 0
4134 -4138 4538 0
-4134 4138 4538 0
-4134 -4138 -4538 0
4538 4174 -4539 0
4538 -4174 4539 0
-4538 4174 4539 0
-4538 -4174 -4539 0
4539 4213 -4540 0
4539 -4213 4540 0
-4539 4213 4540 0
-4539 -4213 -4540 0
4540 4224 -4541 0
4540 -4224 4541 0
-4540 4224 4541 0
-4540 -4224 -4541 0
4541 4235 -4542 0
4541 -4235 4542 0
-4541 4235 4542 0
-4541 -4235 -4542 0
4542 4248 -4318 0
4542 -4248 4318 0
-4542 4248 4318 0
-4542 -4248 -4318 0
4158 4219 -4543 0
4158 -4219 4543 0
-4158 4219 4543 0
-4158 -4219 -4543 0
4543 4232 -4319 0
4543 -4232 4319 0
-4543 4232 4319 0
-4543 -4232 -4319 0
4164 4179 -4544 0
4164 -4179 4544 0
-4164 4179 4544 0
-4164 -4179 -4544 0
4544 4185 -4545 0
4544 -4185 4545 0
-4544 4185 4545 0
-4544 -4185 -4545 0
4545 4192 -4546 0
4545 -4192 4546 0
-4545 4192 4546 0
-4545 -4192 -4546 0
4546 4196 -4547 0
4546 -4196 4547 0
-4546 4196 4547 0
-4546 -4196 -4547 0
4547 4238 -4548 0
4547 -4238 4548 0
-4547 4238 4548 0
-4547 -4238 -4548 0
4548 4246 -4320 0
4548 -4246 4320 0
-4548 4246 4320 0
-4548 -4246 -4320 0
4197 4208 -4549 0
4197 -4208 4549 0
-4197 4208 4549 0
-4197 -4208 -4549 0
4549 4250 -4321 0
4549 -4250 4321 0
-4549 4250 4321 0
-4549 -4250 -4321 0
4138 4142 -4550 0
4138 -4142 4550 0
-4138 4142 4550 0
-4138 -4142 -4550 0
4550 4178 -4551 0
4550 -4178 4551 0
-4550 4178 4551 0
-4550 -4178 -4551 0
4551 4217 -4552 0
4551 -4217 4552 0
-4551 4217 4552 0
-4551 -4217 -4552 0
4552 4228 -4553 0
4552 -4228 4553 0
-4552 4228 4553 0
-4552 -4228 -4553 0
4553 4239 -4554 0
4553 -4239 4554 0
-4553 4239 4554 0
-4553 -4239 -4554 0
4554 4252 -4322 0
4554 -4252 4322 0
-4554 4252 4322 0
-4554 -4252 -4322 0
4162 4223 -4555 0
4162 -4223 4555 0
-4162 4223 4555 0
-4162 -4223 -4555 0
4555 4236 -4323 0
4555 -4236 4323 0
-4555 4236 4323 0
-4555 -4236 -4323 0
4168 4183 -4556 0
4168 -4183 4556 0
-4168 4183 4556 0
-4168 -4183 -4556 0
4556 4189 -4557 0
4556 -4189 4557 0
-4556 4189 4557 0
-4556 -4189 -4557 0
4557 4196 -4558 0
4557 -4196 4558 0
-4557 4196 4558 0
-4557 -4196 -4558 0
4558 4200 -4559 0
4558 -4200 4559 0
-4558 4200 4559 0
-4558 -4200 -4559 0
4559 4242 -4560 0
4559 -4242 4560 0
-4559 4242 4560 0
-4559 -4242 -4560 0
4560 4250 -4324 0
4560 -4250 4324 0
-4560 4250 4324 0
-4560 -4250 -4324 0
4201 4212 -4561 0
4201 -4212 4561 0
-4201 4212 4561 0
-4201 -4212 -4561 0
4561 4254 -4325 0
4561 -4254 4325 0
-4561 4254 4325 0
-4561 -4254 -4325 0
4142 4146 -4562 0
4142 -4146 4562 0
-4142 4146 4562 0
-4142 -4146 -4562 0
4562 4182 -4563 0
4562 -4182 4563 0
-4562 4182 4563 0
-4562 -4182 -4563 0
4563 4221 -4564 0
4563 -4221 4564 0
-4563 4221 4564 0
-4563 -4221 -4564 0
4564 4232 -4565 0
4564 -4232 4565 0
-4564 4232 4565 0
-4564 -4232 -4565 0
4565 4243 -4566 0
4565 -4243 4566 0
-4565 4243 4566 0
-4565 -4243 -4566 0
4566 4256 -4326 0
4566 -4256 4326 0
-4566 4256 4326 0
-4566 -4256 -4326 0
4166 4227 -4567 0
4166 -4227 4567 0
-4166 4227 4567 0
-4166 -4227 -4567 0
4567 4240 -4327 0
4567 -4240 4327 0
-4567 4240 4327 0
-4567 -4240 -4327 0
4172 4187 -4568 0
4172 -4187 4568 0
-4172 4187 4568 0
-4172 -4187 -4568 0
4568 4193 -4569 0
4568 -4193 4569 0
-4568 4193 4569 0
-4568 -4193 -4569 0
4569 4200 -4570 0
4569 -4200 4570 0
-4569 4200 4570 0
-4569 -4200 -4570 0
4570 4204 -4571 0
4570 -4204 4571 0
-4570 4204 4571 0
-4570 -4204 -4571 0
4571 4246 -4572 0
4571 -4246 4572 0
-4571 4246 4572 0
-4571 -4246 -4572 0
4572 4254 -4328 0
4572 -4254 4328 0
-4572 4254 4328 0
-4572 -4254 -4328 0
4205 4216 -4573 0
4205 -4216 4573 0
-4205 4216 4573 0
-4205 -4216 -4573 0
4573 4258 -4329 0
4573 -4258 4329 0
-4573 4258 4329 0
-4573 -4258 -4329 0
4132 4146 -4574 0
4132 -4146 4574 0
-4132 4146 4574 0
-4132 -4146 -4574 0
4574 4150 -4575 0
4574 -4150 4575 0
-4574 4150 4575 0
-4574 -4150 -4575 0
4575 4225 -4576 0
4575 -4225 4576 0
-4575 4225 4576 0
-4575 -4225 -4576 0
4576 4236 -4577 0
4576 -4236 4577 0
-4576 4236 4577 0
-4576 -4236 -4577 0
4577 4247 -4330 0
4577 -4247 4330 0
-4577 4247 4330 0
-4577 -4247 -4330 0
4170 4231 -4578 0
4170 -4231 4578 0
-4170 4231 4578 0
-4170 -4231 -4578 0
4578 4244 -4331 0
4578 -4244 4331 0
-4578 4244 4331 0
-4578 -4244 -4331 0
4176 4191 -4579 0
4176 -4191 4579 0
-4176 4191 4579 0
-4176 -4191 -4579 0
4579 4197 -4580 0
4579 -4197 4580 0
-4579 4197 4580 0
-4579 -4197 -4580 0
4580 4204 -4581 0
4580 -4204 4581 0
-4580 4204 4581 0
-4580 -4204 -4581 0
4581 4208 -4582 0
4581 -4208 4582 0
-4581 4208 4582 0
-4581 -4208 -4582 0
4582 4250 -4583 0
4582 -4250 4583 0
-4582 4250 4583 0
-4582 -4250 -4583 0
4583 4258 -4332 0
4583 -4258 4332 0
-4583 4258 4332 0
-4583 -4258 -4332 0
4134 4209 -4584 0
4134 -4209 4584 0
-4134 4209 4584 0
-4134 -4209 -4584 0
4584 4220 -4333 0
4584 -4220 4333 0
-4584 4220 4333 0
-4584 -4220 -4333 0
4136 4150 -4585 0
4136 -4150 4585 0
-4136 4150 4585 0
-4136 -4150 -4585 0
4585 4154 -4586 0
4585 -4154 4586 0
-4585 4154 4586 0
-4585 -4154 -4586 0
4586 4229 -4587 0
4586 -4229 4587 0
-4586 4229 4587 0
-4586 -4229 -4587 0
4587 4240 -4588 0
4587 -4240 4588 0
-4587 4240 4588 0
-4587 -4240 -4588 0
4588 4251 -4334 0
4588 -4251 4334 0
-4588 4251 4334 0
-4588 -4251 -4334 0
4174 4235 -4589 0
4174 -4235 4589 0
-4174 4235 4589 0
-4174 -4235 -4589 0
4589 4248 -4335 0
4589 -4248 4335 0
-4589 4248 4335 0
-4589 -4248 -4335 0
4134 4180 -4590 0
4134 -4180 4590 0
-4134 4180 4590 0
-4134 -4180 -4590 0
4590 4195 -4591 0
4590 -4195 4591 0
-4590 4195 4591 0
-4590 -4195 -4591 0
4591 4201 -4592 0
4591 -4201 4592 0
-4591 4201 4592 0
-4591 -4201 -4592 0
4592 4208 -4593 0
4592 -4208 4593 0
-4592 4208 4593 0
-4592 -4208 -4593 0
4593 4212 -4594 0
4593 -4212 4594 0
-4593 4212 4594 0
-4593 -4212 -4594 0
4594 4254 -4336 0
4594 -4254 4336 0
-4594 4254 4336 0
-4594 -4254 -4336 0
4138 4213 -4595 0
4138 -4213 4595 0
-4138 4213 4595 0
-4138 -4213 -4595 0
4595 4224 -4337 0
4595 -4224 4337 0
-4595 4224 4337 0
-4595 -4224 -4337 0
4140 4154 -4596 0
4140 -4154 4596 0
-4140 4154 4596 0
-4140 -4154 -4596 0
4596 4158 -4597 0
4596 -4158 4597 0
-4596 4158 4597 0
-4596 -4158 -4597 0
4597 4233 -4598 0
4597 -4233 4598 0
-4597 4233 4598 0
-4597 -4233 -4598 0
4598 4244 -4599 0
4598 -4244 4599 0
-4598 4244 4599 0
-4598 -4244 -4599 0
4599 4255 -4338 0
4599 -4255 4338 0
-4599 4255 4338 0
-4599 -4255 -4338 0
4178 4239 -4600 0
4178 -4239 4600 0
-4178 4239 4600 0
-4178 -4239 -4600 0
4600 4252 -4339 0
4600 -4252 4339 0
-4600 4252 4339 0
-4600 -4252 -4339 0
4138 4184 -4601 0
4138 -4184 4601 0
-4138 4184 4601 0
-4138 -4184 -4601 0
4601 4199 -4602 0
4601 -4199 4602 0
-4601 4199 4602 0
-4601 -4199 -4602 0
4602 4205 -4603 0
4602 -4205 4603 0
-4602 4205 4603 0
-4602 -4205 -4603 0
4603 4212 -4604 0
4603 -4212 4604 0
-4603 4212 4604 0
-4603 -4212 -4604 0
4604 4216 -4605 0
4604 -4216 4605 0
-4604 4216 4605 0
-4604 -4216 -4605 0
4605 4258 -4340 0
4605 -4258 4340 0
-4605 4258 4340 0
-4605 -4258 -4340 0
4142 4217 -4606 0
4142 -4217 4606 0
-4142 4217 4606 0
-4142 -4217 -4606 0
4606 4228 -4341 0
4606 -4228 4341 0
-4606 4228 4341 0
-4606 -4228 -4341 0
4131 4144 -4607 0
4131 -4144 4607 0
-4131 4144 4607 0
-4131 -4144 -4607 0
4607 4158 -4608 0
4607 -4158 4608 0
-4607 4158 4608 0
-4607 -4158 -4608 0
4608 4162 -4609 0
4608 -4162 4609 0
-4608 4162 4609 0
-4608 -4162 -4609 0
4609 4198 -4610 0
4609 -4198 4610 0
-4609 4198 4610 0
-4609 -4198 -4610 0
4610 4237 -4611 0
4610 -4237 4611 0
-4610 4237 4611 0
-4610 -4237 -4611 0
4611 4248 -4342 0
4611 -4248 4342 0
-4611 4248 4342 0
-4611 -4248 -4342 0
4182 4243 -4612 0
4182 -4243 4612 0
-4182 4243 4612 0
-4182 -4243 -4612 0
4612 4256 -4343 0
4612 -4256 4343 0
-4612 4256 4343 0
-4612 -4256 -4343 0
4134 4142 -4613 0
4134 -4142 4613 0
-4134 4142 4613 0
-4134 -4142 -4613 0
4613 4188 -4614 0
4613 -4188 4614 0
-4613 4188 4614 0
-4613 -4188 -4614 0
4614 4203 -4615 0
4614 -4203 4615 0
-4614 4203 4615 0
-4614 -4203 -4615 0
4615 4209 -4616 0
4615 -4209 4616 0
-4615 4209 4616 0
-4615 -4209 -4616 0
4616 4216 -4617 0
4616 -4216 4617 0
-4616 4216 4617 0
-4616 -4216 -4617 0
4617 4220 -4344 0
4617 -4220 4344 0
-4617 4220 4344 0
-4617 -4220 -4344 0
4146 4221 -4618 0
4146 -4221 4618 0
-4146 4221 4618 0
-4146 -4221 -4618 0
4618 4232 -4345 0
4618 -4232 4345 0
-4618 4232 4345 0
-4618 -4232 -4345 0
4135 4148 -4619 0
4135 -4148 4619 0
-4135 4148 4619 0
-4135 -4148 -4619 0
4619 4162 -4620 0
4619 -4162 4620 0
-4619 4162 4620 0
-4619 -4162 -4620 0
4620 4166 -4621 0
4620 -4166 4621 0
-4620 4166 4621 0
-4620 -4166 -4621 0
4621 4202 -4622 0
4621 -4202 4622 0
-4621 4202 4622 0
-4621 -4202 -4622 0
4622 4241 -4623 0
4622 -4241 4623 0
-4622 4241 4623 0
-4622 -4241 -4623 0
4623 4252 -4346 0
4623 -4252 4346 0
-4623 4252 4346 0
-4623 -4252 -4346 0
4132 4247 -4347 0
4132 -4247 4347 0
-4132 4247 4347 0
-4132 -4247 -4347 0
4138 4146 -4624 0
4138 -4146 4624 0
-4138 4146 4624 0
-4138 -4146 -4624 0
4624 4192 -4625 0
4624 -4192 4625 0
-4624 4192 4625 0
-4624 -4192 -4625 0
4625 4207 -4626 0
4625 -4207 4626 0
-4625 4207 4626 0
-4625 -4207 -4626 0
4626 4213 -4627 0
4626 -4213 4627 0
-4626 4213 4627 0
-4626 -4213 -4627 0
4627 4220 -4628 0
4627 -4220 4628 0
-4627 4220 4628 0
-4627 -4220 -4628 0
4628 4224 -4348 0
4628 -4224 4348 0
-4628 4224 4348 0
-4628 -4224 -4348 0
4150 4225 -4629 0
4150 -4225 4629 0
-4150 4225 4629 0
-4150 -4225 -4629 0
4629 4236 -4349 0
4629 -4236 4349 0
-4629 4236 4349 0
-4629 -4236 -4349 0
4139 4152 -4630 0
4139 -4152 4630 0
-4139 4152 4630 0
-4139 -4152 -4630 0
4630 4166 -4631 0
4630 -4166 4631 0
-4630 4166 4631 0
-4630 -4166 -4631 0
4631 4170 -4632 0
4631 -4170 4632 0
-4631 4170 4632 0
-4631 -4170 -4632 0
4632 4206 -4633 0
4632 -4206 4633 0
-4632 4206 4633 0
-4632 -4206 -4633 0
4633 4245 -4634 0
4633 -4245 4634 0
-4633 4245 4634 0
-4633 -4245 -4634 0
4634 4256 -4350 0
4634 -4256 4350 0
-4634 4256 4350 0
-4634 -4256 -4350 0
4136 4251 -4351 0
4136 -4251 4351 0
-4136 4251 4351 0
-4136 -4251 -4351 0
4142 4150 -4635 0
4142 -4150 4635 0
-4142 4150 4635 0
-4142 -4150 -4635 0
4635 4196 -4636 0
4635 -4196 4636 0
-4635 4196 4636 0
-4635 -4196 -4636 0
4636 4211 -4637 0
4636 -4211 4637 0
-4636 4211 4637 0
-4636 -4211 -4637 0
4637 4217 -4638 0
4637 -4217 4638 0
-4637 4217 4638 0
-4637 -4217 -4638 0
4638 4224 -4639 0
4638 -4224 4639 0
-4638 4224 4639 0
-4638 -4224 -4639 0
4639 4228 -4352 0
4639 -4228 4352 0
-4639 4228 4352 0
-4639 -4228 -4352 0
4154 4229 -4640 0
4154 -4229 4640 0
-4154 4229 4640 0
-4154 -4229 -4640 0
4640 4240 -4353 0
4640 -4240 4353 0
-4640 4240 4353 0
-4640 -4240 -4353 0
4132 4143 -4641 0
4132 -4143 4641 0
-4132 4143 4641 0
-4132 -4143 -4641 0
4641 4156 -4642 0
4641 -4156 4642 0
-4641 4156 4642 0
-4641 -4156 -4642 0
4642 4170 -4643 0
4642 -4170 4643 0
-4642 4170 4643 0
-4642 -4170 -4643 0
4643 4174 -4644 0
4643 -4174 4644 0
-4643 4174 4644 0
-4643 -4174 -4644 0
4644 4210 -4645 0
4644 -4210 4645 0
-4644 4210 4645 0
-4644 -4210 -4645 0
4645 4249 -4354 0
4645 -4249 4354 0
-4645 4249 4354 0
-4645 -4249 -4354 0
4140 4255 -4355 0
4140 -4255 4355 0
-4140 4255 4355 0
-4140 -4255 -4355 0
4146 4154 -4646 0
4146 -4154 4646 0
-4146 4154 4646 0
-4146 -4154 -4646 0
4646 4200 -4647 0
4646 -4200 4647 0
-4646 4200 4647 0
-4646 -4200 -4647 0
4647 4215 -4648 0
4647 -4215 4648 0
-4647 4215 4648 0
-4647 -4215 -4648 0
4648 4221 -4649 0
4648 -4221 4649 0
-4648 4221 4649 0
-4648 -4221 -4649 0
4649 4228 -4650 0
4649 -4228 4650 0
-4649 4228 4650 0
-4649 -4228 -4650 0
4650 4232 -4356 0
4650 -4232 4356 0
-4650 4232 4356 0
-4650 -4232 -4356 0
4158 4233 -4651 0
4158 -4233 4651 0
-4158 4233 4651 0
-4158 -4233 -4651 0
4651 4244 -4357 0
4651 -4244 4357 0
-4651 4244 4357 0
-4651 -4244 -4357 0
4136 4147 -4652 0
4136 -4147 4652 0
-4136 4147 4652 0
-4136 -4147 -4652 0
4652 4160 -4653 0
4652 -4160 4653 0
-4652 4160 4653 0
-4652 -4160 -4653 0
4653 4174 -4654 0
4653 -4174 4654 0
-4653 4174 4654 0
-4653 -4174 -4654 0
4654 4178 -4655 0
4654 -4178 4655 0
-4654 4178 4655 0
-4654 -4178 -4655 0
4655 4214 -4656 0
4655 -4214 4656 0
-4655 4214 4656 0
-4655 -4214 -4656 0
4656 4253 -4358 0
4656 -4253 4358 0
-4656 4253 4358 0
-4656 -4253 -4358 0
4131 4144 -4657 0
4131 -4144 4657 0
-4131 4144 4657 0
-4131 -4144 -4657 0
4657 4198 -4359 0
4657 -4198 4359 0
-4657 4198 4359 0
-4657 -4198 -4359 0
4150 4158 -4658 0
4150 -4158 4658 0
-4150 4158 4658 0
-4150 -4158 -4658 0
4658 4204 -4659 0
4658 -4204 4659 0
-4658 4204 4659 0
-4658 -4204 -4659 0
4659 4219 -4660 0
4659 -4219 4660 0
-4659 4219 4660 0
-4659 -4219 -4660 0
4660 4225 -4661 0
4660 -4225 4661 0
-4660 4225 4661 0
-4660 -4225 -4661 0
4661 4232 -4662 0
4661 -4232 4662 0
-4661 4232 4662 0
-4661 -4232 -4662 0
4662 4236 -4360 0
4662 -4236 4360 0
-4662 4236 4360 0
-4662 -4236 -4360 0
4162 4237 -4663 0
4162 -4237 4663 0
-4162 4237 4663 0
-4162 -4237 -4663 0
4663 4248 -4361 0
4663 -4248 4361 0
-4663 4248 4361 0
-4663 -4248 -4361 0
4140 4151 -4664 0
4140 -4151 4664 0
-4140 4151 4664 0
-4140 -4151 -4664 0
4664 4164 -4665 0
4664 -4164 4665 0
-4664 4164 4665 0
-4664 -4164 -4665 0
4665 4178 -4666 0
4665 -4178 4666 0
-4665 4178 4666 0
-4665 -4178 -4666 0
4666 4182 -4667 0
4666 -4182 4667 0
-4666 4182 4667 0
-4666 -4182 -4667 0
4667 4218 -4668 0
4667 -4218 4668 0
-4667 4218 4668 0
-4667 -4218 -4668 0
4668 4257 -4362 0
4668 -4257 4362 0
-4668 4257 4362 0
-4668 -4257 -4362 0
4135 4148 -4669 0
4135 -4148 4669 0
-4135 4148 4669 0
-4135 -4148 -4669 0
4669 4202 -4363 0
4669 -4202 4363 0
-4669 4202 4363 0
-4669 -4202 -4363 0
4154 4162 -4670 0
4154 -4162 4670 0
-4154 4162 4670 0
-4154 -4162 -4670 0
4670 4208 -4671 0
4670 -4208 4671 0
-4670 4208 4671 0
-4670 -4208 -4671 0
4671 4223 -4672 0
4671 -4223 4672 0
-4671 4223 4672 0
-4671 -4223 -4672 0
4672 4229 -4673 0
4672 -4229 4673 0
-4672 4229 4673 0
-4672 -4229 -4673 0
4673 4236 -4674 0
4673 -4236 4674 0
-4673 4236 4674 0
-4673 -4236 -4674 0
4674 4240 -4364 0
4674 -4240 4364 0
-4674 4240 4364 0
-4674 -4240 -4364 0
4166 4241 -4675 0
4166 -4241 4675 0
-4166 4241 4675 0
-4166 -4241 -4675 0
4675 4252 -4365 0
4675 -4252 4365 0
-4675 4252 4365 0
-4675 -4252 -4365 0
4133 4144 -4676 0
4133 -4144 4676 0
-4133 4144 4676 0
-4133 -4144 -4676 0
4676 4155 -4677 0
4676 -4155 4677 0
-4676 4155 4677 0
-4676 -4155 -4677 0
4677 4168 -4678 0
4677 -4168 4678 0
-4677 4168 4678 0
-4677 -4168 -4678 0
4678 4182 -4679 0
4678 -4182 4679 0
-4678 4182 4679 0
-4678 -4182 -4679 0
4679 4186 -4680 0
4679 -4186 4680 0
-4679 4186 4680 0
-4679 -4186 -4680 0
4680 4222 -4366 0
4680 -4222 4366 0
-4680 4222 4366 0
-4680 -4222 -4366 0
4139 4152 -4681 0
4139 -4152 4681 0
-4139 4152 4681 0
-4139 -4152 -4681 0
4681 4206 -4367 0
4681 -4206 4367 0
-4681 4206 4367 0
-4681 -4206 -4367 0
4158 4166 -4682 0
4158 -4166 4682 0
-4158 4166 4682 0
-4158 -4166 -4682 0
4682 4212 -4683 0
4682 -4212 4683 0
-4682 4212 4683 0
-4682 -4212 -4683 0
4683 4227 -4684 0
4683 -4227 4684 0
-4683 4227 4684 0
-4683 -4227 -4684 0
4684 4233 -4685 0
4684 -4233 4685 0
-4684 4233 4685 0
-4684 -4233 -4685 0
4685 4240 -4686 0
4685 -4240 4686 0
-4685 4240 4686 0
-4685 -4240 -4686 0
4686 4244 -4368 0
4686 -4244 4368 0
-4686 4244 4368 0
-4686 -4244 -4368 0
4170 4245 -4687 0
4170 -4245 4687 0
-4170 4245 4687 0
-4170 -4245 -4687 0
4687 4256 -4369 0
4687 -4256 4369 0
-4687 4256 4369 0
-4687 -4256 -4369 0
4137 4148 -4688 0
4137 -4148 4688 0
-4137 4148 4688 0
-4137 -4148 -4688 0
4688 4159 -4689 0
4688 -4159 4689 0
-4688 4159 4689 0
-4688 -4159 -4689 0
4689 4172 -4690 0
4689 -4172 4690 0
-4689 4172 4690 0
-4689 -4172 -4690 0
4690 4186 -4691 0
4690 -4186 4691 0
-4690 4186 4691 0
-4690 -4186 -4691 0
4691 4190 -4692 0
4691 -4190 4692 0
-4691 4190 4692 0
-4691 -4190 -4692 0
4692 4226 -4370 0
4692 -4226 4370 0
-4692 4226 4370 0
-4692 -4226 -4370 0
4143 4156 -4693 0
4143 -4156 4693 0
-4143 4156 4693 0
-4143 -4156 -4693 0
4693 4210 -4371 0
4693 -4210 4371 0
-4693 4210 4371 0
-4693 -4210 -4371 0
4162 4170 -4694 0
4162 -4170 4694 0
-4162 4170 4694 0
-4162 -4170 -4694 0
4694 4216 -4695 0
4694 -4216 4695 0
-4694 4216 4695 0
-4694 -4216 -4695 0
4695 4231 -4696 0
4695 -4231 4696 0
-4695 4231 4696 0
-4695 -4231 -4696 0
4696 4237 -4697 0
4696 -4237 4697 0
-4696 4237 4697 0
-4696 -4237 -4697 0
4697 4244 -4698 0
4697 -4244 4698 0
-4697 4244 4698 0
-4697 -4244 -4698 0
4698 4248 -4372 0
4698 -4248 4372 0
-4698 4248 4372 0
-4698 -4248 -4372 0
4132 4174 -4699 0
4132 -4174 4699 0
-4132 4174 4699 0
-4132 -4174 -4699 0
4699 4249 -4373 0
4699 -4249 4373 0
-4699 4249 4373 0
-4699 -4249 -4373 0
4141 4152 -4700 0
4141 -4152 4700 0
-4141 4152 4700 0
-4141 -4152 -4700 0
4700 4163 -4701 0
4700 -4163 4701 0
-4700 4163 4701 0
-4700 -4163 -4701 0
4701 4176 -4702 0
4701 -4176 4702 0
-4701 4176 4702 0
-4701 -4176 -4702 0
4702 4190 -4703 0
4702 -4190 4703 0
-4702 4190 4703 0
-4702 -4190 -4703 0
4703 4194 -4704 0
4703 -4194 4704 0
-4703 4194 4704 0
-4703 -4194 -4704 0
4704 4230 -4374 0
4704 -4230 4374 0
-4704 4230 4374 0
-4704 -4230 -4374 0
4147 4160 -4705 0
4147 -4160 4705 0
-4147 4160 4705 0
-4147 -4160 -4705 0
4705 4214 -4375 0
4705 -4214 4375 0
-4705 4214 4375 0
-4705 -4214 -4375 0
4166 4174 -4706 0
4166 -4174 4706 0
-4166 4174 4706 0
-4166 -4174 -4706 0
4706 4220 -4707 0
4706 -4220 4707 0
-4706 4220 4707 0
-4706 -4220 -4707 0
4707 4235 -4708 0
4707 -4235 4708 0
-4707 4235 4708 0
-4707 -4235 -4708 0
4708 4241 -4709 0
4708 -4241 4709 0
-4708 4241 4709 0
-4708 -4241 -4709 0
4709 4248 -4710 0
4709 -4248 4710 0
-4709 4248 4710 0
-4709 -4248 -4710 0
4710 4252 -4376 0
4710 -4252 4376 0
-4710 4252 4376 0
-4710 -4252 -4376 0
4136 4178 -4711 0
4136 -4178 4711 0
-4136 4178 4711 0
-4136 -4178 -4711 0
4711 4253 -4377 0
4711 -4253 4377 0
-4711 4253 4377 0
-4711 -4253 -4377 0
4145 4156 -4712 0
4145 -4156 4712 0
-4145 4156 4712 0
-4145 -4156 -4712 0
4712 4167 -4713 0
4712 -4167 4713 0
-4712 4167 4713 0
-4712 -4167 -4713 0
4713 4180 -4714 0
4713 -4180 4714 0
-4713 4180 4714 0
-4713 -4180 -4714 0
4714 4194 -4715 0
4714 -4194 4715 0
-4714 4194 4715 0
-4714 -4194 -4715 0
4715 4198 -4716 0
4715 -4198 4716 0
-4715 4198 4716 0
-4715 -4198 -4716 0
4716 4234 -4378 0
4716 -4234 4378 0
-4716 4234 4378 0
-4716 -4234 -4378 0
4151 4164 -4717 0
4151 -4164 4717 0
-4151 4164 4717 0
-4151 -4164 -4717 0
4717 4218 -4379 0
4717 -4218 4379 0
-4717 4218 4379 0
-4717 -4218 -4379 0
4170 4178 -4718 0
4170 -4178 4718 0
-4170 4178 4718 0
-4170 -4178 -4718 0
4718 4224 -4719 0
4718 -4224 4719 0
-4718 4224 4719 0
-4718 -4224 -4719 0
4719 4239 -4720 0
4719 -4239 4720 0
-4719 4239 4720 0
-4719 -4239 -4720 0
4720 4245 -4721 0
4720 -4245 4721 0
-4720 4245 4721 0
-4720 -4245 -4721 0
4721 4252 -4722 0
4721 -4252 4722 0
-4721 4252 4722 0
-4721 -4252 -4722 0
4722 4256 -4380 0
4722 -4256 4380 0
-4722 4256 4380 0
-4722 -4256 -4380 0
4140 4182 -4723 0
4140 -4182 4723 0
-4140 4182 4723 0
-4140 -4182 -4723 0
4723 4257 -4381 0
4723 -4257 4381 0
-4723 4257 4381 0
-4723 -4257 -4381 0
4149 4160 -4724 0
4149 -4160 4724 0
-4149 4160 4724 0
-4149 -4160 -4724 0
4724 4171 -4725 0
4724 -4171 4725 0
-4724 4171 4725 0
-4724 -4171 -4725 0
4725 4184 -4726 0
4725 -4184 4726 0
-4725 4184 4726 0
-4725 -4184 -4726 0
4726 4198 -4727 0
4726 -4198 4727 0
-4726 4198 4727 0
-4726 -4198 -4727 0
4727 4202 -4728 0
4727 -4202 4728 0
-4727 4202 4728 0
-4727 -4202 -4728 0
4728 4238 -4382 0
4728 -4238 4382 0
-4728 4238 4382 0
-4728 -4238 -4382 0
4155 4168 -4729 0
4155 -4168 4729 0
-4155 4168 4729 0
-4155 -4168 -4729 0
4729 4222 -4383 0
4729 -4222 4383 0
-4729 4222 4383 0
-4729 -4222 -4383 0
4132 4174 -4730 0
4132 -4174 4730 0
-4132 4174 4730 0
-4132 -4174 -4730 0
4730 4182 -4731 0
4730 -4182 4731 0
-4730 4182 4731 0
-4730 -4182 -4731 0
4731 4228 -4732 0
4731 -4228 4732 0
-4731 4228 4732 0
-4731 -4228 -4732 0
4732 4243 -4733 0
4732 -4243 4733 0
-4732 4243 4733 0
-4732 -4243 -4733 0
4733 4249 -4734 0
4733 -4249 4734 0
-4733 4249 4734 0
-4733 -4249 -4734 0
4734 4256 -4384 0
4734 -4256 4384 0
-4734 4256 4384 0
-4734 -4256 -4384 0
4133 4144 -4735 0
4133 -4144 4735 0
-4133 4144 4735 0
-4133 -4144 -4735 0
4735 4186 -4385 0
4735 -4186 4385 0
-4735 4186 4385 0
-4735 -4186 -4385 0
4153 4164 -4736 0
4153 -4164 4736 0
-4153 4164 4736 0
-4153 -4164 -4736 0
4736 4175 -4737 0
4736 -4175 4737 0
-4736 4175 4737 0
-4736 -4175 -4737 0
4737 4188 -4738 0
4737 -4188 4738 0
-4737 4188 4738 0
-4737 -4188 -4738 0
4738 4202 -4739 0
4738 -4202 4739 0
-4738 4202 4739 0
-4738 -4202 -4739 0
4739 4206 -4740 0
4739 -4206 4740 0
-4739 4206 4740 0
-4739 -4206 -4740 0
4740 4242 -4386 0
4740 -4242 4386 0
-4740 4242 4386 0
-4740 -4242 -4386 0
4869 -4741 0
-4869 4741 0
4870 -4742 0
-4870 4742 0
4871 -4743 0
-4871 4743 0
4872 -4744 0
-4872 4744 0
4873 -4745 0
-4873 4745 0
4874 -4746 0
-4874 4746 0
4875 -4747 0
-4875 4747 0
4876 -4748 0
-4876 4748 0
4877 -4749 0
-4877 4749 0
4878 -4750 0
-4878 4750 0
4879 -4751 0
-4879 4751 0
4880 -4752 0
-4880 4752 0
4881 -4753 0
-4881 4753 0
4882 -4754 0
-4882 4754 0
4883 -4755 0
-4883 4755 0
4884 -4756 0
-4884 4756 0
4885 -4757 0
-4885 4757 0
4886 -4758 0
-4886 4758 0
4887 -4759 0
-4887 4759 0
4888 -4760 0
-4888 4760 0
4889 -4761 0
-4889 4761 0
4890 -4762 0
-4890 4762 0
4891 -4763 0
-4891 4763 0
4892 -4764 0
-4892 4764 0
4893 -4765 0
-4893 4765 0
4894 -4766 0
-4894 4766 0
4895 -4767 0
-4895 4767 0
4896 -4768 0
-4896 4768 0
4897 -4769 0
-4897 4769 0
4898 -4770 0
-4898 4770 0
4899 -4771 0
-4899 4771 0
4900 -4772 0
-4900 4772 0
4901 -4773 0
-4901 4773 0
4902 -4774 0
-4902 4774 0
4903 -4775 0
-4903 4775 0
4904 -4776 0
-4904 4776 0
4905 -4777 0
-4905 4777 0
4906 -4778 0
-4906 4778 0
4907 -4779 0
-4907 4779 0
4908 -4780 0
-4908 4780 0
4909 -4781 0
-4909 4781 0
4910 -4782 0
-4910 4782 0
4911 -4783 0
-4911 4783 0
4912 -4784 0
-4912 4784 0
4913 -4785 0
-4913 4785 0
4914 -4786 0
-4914 4786 0
4915 -4787 0
-4915 4787 0
4916 -4788 0
-4916 4788 0
4917 -4789 0
-4917 4789 0
4918 -4790 0
-4918 4790 0
4919 -4791 0
-4919 4791 0
4920 -4792 0
-4920 4792 0
4921 -4793 0
-4921 4793 0
4922 -4794 0
-4922 4794 0
4923 -4795 0
-4923 4795 0
4924 -4796 0
-4924 4796 0
4925 -4797 0
-4925 4797 0
4926 -4798 0
-4926 4798 0
4927 -4799 0
-4927 4799 0
4928 -4800 0
-4928 4800 0
4929 -4801 0
-4929 4801 0
4930 -4802 0
-4930 4802 0
4931 -4803 0
-4931 4803 0
4932 -4804 0
-4932 4804 0
4933 -4805 0
-4933 4805 0
4934 -4806 0
-4934 4806 0
4935 -4807 0
-4935 4807 0
4936 -4808 0
-4936 4808 0
4937 -4809 0
-4937 4809 0
4938 -4810 0
-4938 4810 0
4939 -4811 0
-4939 4811 0
4940 -4812 0
-4940 4812 0
4941 -4813 0
-4941 4813 0
4942 -4814 0
-4942 4814 0
4943 -4815 0
-4943 4815 0
4944 -4816 0
-4944 4816 0
4945 -4817 0
-4945 4817 0
4946 -4818 0
-4946 4818 0
4947 -4819 0
-4947 4819 0
4948 -4820 0
-4948 4820 0
4949 -4821 0
-4949 4821 0
4950 -4822 0
-4950 4822 0
4951 -4823 0
-4951 4823 0
4952 -4824 0
-4952 4824 0
4953 -4825 0
-4953 4825 0
4954 -4826 0
-4954 4826 0
4955 -4827 0
-4955 4827 0
4956 -4828 0
-4956 4828 0
4957 -4829 0
-4957 4829 0
4958 -4830 0
-4958 4830 0
4959 -4831 0
-4959 4831 0
4960 -4832 0
-4960 4832 0
4961 -4833 0
-4961 4833 0
4962 -4834 0
-4962 4834 0
4963 -4835 0
-4963 4835 0
4964 -4836 0
-4964 4836 0
4965 -4837 0
-4965 4837 0
4966 -4838 0
-4966 4838 0
4967 -4839 0
-4967 4839 0
4968 -4840 0
-4968 4840 0
4969 -4841 0
-4969 4841 0
4970 -4842 0
-4970 4842 0
4971 -4843 0
-4971 4843 0
4972 -4844 0
-4972 4844 0
4973 -4845 0
-4973 4845 0
4974 -4846 0
-4974 4846 0
4975 -4847 0
-4975 4847 0
4976 -4848 0
-4976 4848 0
4977 -4849 0
-4977 4849 0
4978 -4850 0
-4978 4850 0
4979 -4851 0
-4979 4851 0
4980 -4852 0
-4980 4852 0
4981 -4853 0
-4981 4853 0
4982 -4854 0
-4982 4854 0
4983 -4855 0
-4983 4855 0
4984 -4856 0
-4984 4856 0
4985 -4857 0
-4985 4857 0
4986 -4858 0
-4986 4858 0
4987 -4859 0
-4987 4859 0
4988 -4860 0
-4988 4860 0
4989 -4861 0
-4989 4861 0
4990 -4862 0
-4990 4862 0
4991 -4863 0
-4991 4863 0
4992 -4864 0
-4992 4864 0
4993 -4865 0
-4993 4865 0
4994 -4866 0
-4994 4866 0
4995 -4867 0
-4995 4867 0
4996 -4868 0
-4996 4868 0
-5381 5253 0
5381 -5253 0
-5382 5254 0
5382 -5254 0
-5383 5255 0
5383 -5255 0
-5384 5256 0
5384 -5256 0
-5385 5257 0
5385 -5257 0
-5386 5258 0
5386 -5258 0
-5387 5259 0
5387 -5259 0
-5388 5260 0
5388 -5260 0
-5389 5261 0
5389 -5261 0
-5390 5262 0
5390 -5262 0
-5391 5263 0
5391 -5263 0
-5392 5264 0
5392 -5264 0
-5393 5265 0
5393 -5265 0
-5394 5266 0
5394 -5266 0
-5395 5267 0
5395 -5267 0
-5396 5268 0
5396 -5268 0
-5397 5269 0
5397 -5269 0
-5398 5270 0
5398 -5270 0
-5399 5271 0
5399 -5271 0
-5400 5272 0
5400 -5272 0
-5401 5273 0
5401 -5273 0
-5402 5274 0
5402 -5274 0
-5403 5275 0
5403 -5275 0
-5404 5276 0
5404 -5276 0
-5405 5277 0
5405 -5277 0
-5406 5278 0
5406 -5278 0
-5407 5279 0
5407 -5279 0
-5408 5280 0
5408 -5280 0
-5409 5281 0
5409 -5281 0
-5410 5282 0
5410 -5282 0
-5411 5283 0
5411 -5283 0
-5412 5284 0
5412 -5284 0
-5413 5285 0
5413 -5285 0
-5414 5286 0
5414 -5286 0
-5415 5287 0
5415 -5287 0
-5416 5288 0
5416 -5288 0
-5417 5289 0
5417 -5289 0
-5418 5290 0
5418 -5290 0
-5419 5291 0
5419 -5291 0
-5420 5292 0
5420 -5292 0
-5421 5293 0
5421 -5293 0
-5422 5294 0
5422 -5294 0
-5423 5295 0
5423 -5295 0
-5424 5296 0
5424 -5296 0
-5425 5297 0
5425 -5297 0
-5426 5298 0
5426 -5298 0
-5427 5299 0
5427 -5299 0
-5428 5300 0
5428 -5300 0
-5429 5301 0
5429 -5301 0
-5430 5302 0
5430 -5302 0
-5431 5303 0
5431 -5303 0
-5432 5304 0
5432 -5304 0
-5433 5305 0
5433 -5305 0
-5434 5306 0
5434 -5306 0
-5435 5307 0
5435 -5307 0
-5436 5308 0
5436 -5308 0
-5437 5309 0
5437 -5309 0
-5438 5310 0
5438 -5310 0
-5439 5311 0
5439 -5311 0
-5440 5312 0
5440 -5312 0
-5441 5313 0
5441 -5313 0
-5442 5314 0
5442 -5314 0
-5443 5315 0
5443 -5315 0
-5444 5316 0
5444 -5316 0
-5445 5317 0
5445 -5317 0
-5446 5318 0
5446 -5318 0
-5447 5319 0
5447 -5319 0
-5448 5320 0
5448 -5320 0
-5449 5321 0
5449 -5321 0
-5450 5322 0
5450 -5322 0
-5451 5323 0
5451 -5323 0
-5452 5324 0
5452 -5324 0
-5453 5325 0
5453 -5325 0
-5454 5326 0
5454 -5326 0
-5455 5327 0
5455 -5327 0
-5456 5328 0
5456 -5328 0
-5457 5329 0
5457 -5329 0
-5458 5330 0
5458 -5330 0
-5459 5331 0
5459 -5331 0
-5460 5332 0
5460 -5332 0
-5461 5333 0
5461 -5333 0
-5462 5334 0
5462 -5334 0
-5463 5335 0
5463 -5335 0
-5464 5336 0
5464 -5336 0
-5465 5337 0
5465 -5337 0
-5466 5338 0
5466 -5338 0
-5467 5339 0
5467 -5339 0
-5468 5340 0
5468 -5340 0
-5469 5341 0
5469 -5341 0
-5470 5342 0
5470 -5342 0
-5471 5343 0
5471 -5343 0
-5472 5344 0
5472 -5344 0
-5473 5345 0
5473 -5345 0
-5474 5346 0
5474 -5346 0
-5475 5347 0
5475 -5347 0
-5476 5348 0
5476 -5348 0
-5477 5349 0
5477 -5349 0
-5478 5350 0
5478 -5350 0
-5479 5351 0
5479 -5351 0
-5480 5352 0
5480 -5352 0
-5481 5353 0
5481 -5353 0
-5482 5354 0
5482 -5354 0
-5483 5355 0
5483 -5355 0
-5484 5356 0
5484 -5356 0
-5485 5357 0
5485 -5357 0
-5486 5358 0
5486 -5358 0
-5487 5359 0
5487 -5359 0
-5488 5360 0
5488 -5360 0
-5489 5361 0
5489 -5361 0
-5490 5362 0
5490 -5362 0
-5491 5363 0
5491 -5363 0
-5492 5364 0
5492 -5364 0
-5493 5365 0
5493 -5365 0
-5494 5366 0
5494 -5366 0
-5495 5367 0
5495 -5367 0
-5496 5368 0
5496 -5368 0
-5497 5369 0
5497 -5369 0
-5498 5370 0
5498 -5370 0
-5499 5371 0
5499 -5371 0
-5500 5372 0
5500 -5372 0
-5501 5373 0
5501 -5373 0
-5502 5374 0
5502 -5374 0
-5503 5375 0
5503 -5375 0
-5504 5376 0
5504 -5376 0
-5505 5377 0
5505 -5377 0
-5506 5378 0
5506 -5378 0
-5507 5379 0
5507 -5379 0
-5508 5380 0
5508 -5380 0
5510 5513 5514 5516 -5518 0
-5510 5511 -5513 -5516 5518 0
5510 -5511 -5513 -5514 5515 -5518 0
5510 5511 5514 5515 5516 -5517 0
-5509 -5511 -5512 -5513 -5514 -5515 5516 0
5509 -5511 -5512 5514 5515 5516 0
5512 -5513 5514 -5515 5518 0
5510 5511 -5514 -5515 5516 5518 0
5510 -5511 -5512 -5514 5515 -5516 0
-5510 5511 -5513 5514 -5515 5518 0
5511 5512 -5513 -5514 -5515 -5518 0
-5509 -5510 -5513 -5514 -5515 -5516 0
-5510 -5511 5514 -5516 -5518 0
5509 5510 5511 -5516 -5518 0
-5510 -5511 -5512 5513 5516 5518 0
5510 -5511 -5513 5514 -5515 5518 0
5509 -5510 -5512 -5513 -5514 -5515 5516 0
5513 5514 5515 -5517 0
-5513 -5514 5515 -5516 5518 0
5509 5511 -5512 5513 5514 5516 0
5510 -5511 5515 5516 -5518 0
5511 -5513 5514 5515 -5516 -5518 0
-5509 -5510 -5512 5514 5515 5516 0
5510 5511 5512 -5515 5516 0
5509 -5512 -5513 5515 -5518 0
5510 -5511 -5512 5514 -5515 -5516 0
5509 5510 5511 -5513 5514 5515 0
-5509 -5510 5512 -5516 5518 0
5512 5513 -5514 -5515 5518 0
-5509 -5510 5512 5516 -5518 0
5509 5510 5512 -5517 0
5509 -5510 -5511 -5516 -5518 0
5511 5513 5514 -5515 -5518 0
5509 -5511 -5515 5516 -5518 0
-5509 -5511 5513 -5514 5515 -5516 0
-5509 -5513 -5514 5516 -5518 0
-5512 5513 -5514 -5515 -5518 0
5510 -5511 5513 -5514 -5515 -5516 0
-5509 -5510 -5512 5513 5515 5516 0
5510 5512 -5513 5514 -5515 -5516 0
5509 -5510 -5511 -5512 5513 5514 0
-5509 5511 -5512 -5513 -5514 -5516 0
5509 -5510 -5512 -5513 5515 -5516 0
5512 5515 5516 -5518 0
-5512 -5513 5514 -5515 -5518 0
-5509 5510 5511 -5512 5513 5515 0
5509 5510 5511 5513 5514 5519 0
-5512 -5513 -5516 -5518 0
5509 5510 5513 5515 5516 5519 0
-5509 5510 -5512 5513 5514 5516 0
-5509 5510 -5511 5512 -5516 0
-5512 -5519 0
5512 -5513 -5514 5515 5518 0
5511 5513 -5514 5515 5517 0
-5509 5510 5511 5512 5516 0
5512 5513 5514 5515 5519 0
-5516 -5519 0
5509 5511 5512 -5517 0
-5511 -5519 0
-5510 -5519 0
-5517 -5518 0
5517 5518 5519 0
-5510 5511 -5514 -5515 -5516 0
5521 5524 5525 5527 -5529 0
-5521 5522 -5524 -5527 5529 0
5521 -5522 -5524 -5525 5526 -5529 0
5521 5522 5525 5526 5527 -5528 0
-5520 -5522 -5523 -5524 -5525 -5526 5527 0
5520 -5522 -5523 5525 5526 5527 0
5523 -5524 5525 -5526 5529 0
5521 5522 -5525 -5526 5527 5529 0
5521 -5522 -5523 -5525 5526 -5527 0
-5521 5522 -5524 5525 -5526 5529 0
5522 5523 -5524 -5525 -5526 -5529 0
-5520 -5521 -5524 -5525 -5526 -5527 0
-5521 -5522 5525 -5527 -5529 0
5520 5521 5522 -5527 -5529 0
-5521 -5522 -5523 5524 5527 5529 0
5521 -5522 -5524 5525 -5526 5529 0
5520 -5521 -5523 -5524 -5525 -5526 5527 0
5524 5525 5526 -5528 0
-5524 -5525 5526 -5527 5529 0
5520 5522 -5523 5524 5525 5527 0
5521 -5522 5526 5527 -5529 0
5522 -5524 5525 5526 -5527 -5529 0
-5520 -5521 -5523 5525 5526 5527 0
5521 5522 5523 -5526 5527 0
5520 -5523 -5524 5526 -5529 0
5521 -5522 -5523 5525 -5526 -5527 0
5520 5521 5522 -5524 5525 5526 0
-5520 -5521 5523 -5527 5529 0
5523 5524 -5525 -5526 5529 0
-5520 -5521 5523 5527 -5529 0
5520 5521 5523 -5528 0
5520 -5521 -5522 -5527 -5529 0
5522 5524 5525 -5526 -5529 0
5520 -5522 -5526 5527 -5529 0
-5520 -5522 5524 -5525 5526 -5527 0
-5520 -5524 -5525 5527 -5529 0
-5523 5524 -5525 -5526 -5529 0
5521 -5522 5524 -5525 -5526 -5527 0
-5520 -5521 -5523 5524 5526 5527 0
5521 5523 -5524 5525 -5526 -5527 0
5520 -5521 -5522 -5523 5524 5525 0
-5520 5522 -5523 -5524 -5525 -5527 0
5520 -5521 -5523 -5524 5526 -5527 0
5523 5526 5527 -5529 0
-5523 -5524 5525 -5526 -5529 0
-5520 5521 5522 -5523 5524 5526 0
5520 5521 5522 5524 5525 5530 0
-5523 -5524 -5527 -5529 0
5520 5521 5524 5526 5527 5530 0
-5520 5521 -5523 5524 5525 5527 0
-5520 5521 -5522 5523 -5527 0
-5523 -5530 0
5523 -5524 -5525 5526 5529 0
5522 5524 -5525 5526 5528 0
-5520 5521 5522 5523 5527 0
5523 5524 5525 5526 5530 0
-5527 -5530 0
5520 5522 5523 -5528 0
-5522 -5530 0
-5521 -5530 0
-5528 -5529 0
5528 5529 5530 0
-5521 5522 -5525 -5526 -5527 0
5532 5535 5536 5538 -5540 0
-5532 5533 -5535 -5538 5540 0
5532 -5533 -5535 -5536 5537 -5540 0
5532 5533 5536 5537 5538 -5539 0
-5531 -5533 -5534 -5535 -5536 -5537 5538 0
5531 -5533 -5534 5536 5537 5538 0
5534 -5535 5536 -5537 5540 0
5532 5533 -5536 -5537 5538 5540 0
5532 -5533 -5534 -5536 5537 -5538 0
-5532 5533 -5535 5536 -5537 5540 0
5533 5534 -5535 -5536 -5537 -5540 0
-5531 -5532 -5535 -5536 -5537 -5538 0
-5532 -5533 5536 -5538 -5540 0
5531 5532 5533 -5538 -5540 0
-5532 -5533 -5534 5535 5538 5540 0
5532 -5533 -5535 5536 -5537 5540 0
5531 -5532 -5534 -5535 -5536 -5537 5538 0
5535 5536 5537 -5539 0
-5535 -5536 5537 -5538 5540 0
5531 5533 -5534 5535 5536 5538 0
5532 -5533 5537 5538 -5540 0
5533 -5535 5536 5537 -5538 -5540 0
-5531 -5532 -5534 5536 5537 5538 0
5532 5533 5534 -5537 5538 0
5531 -5534 -5535 5537 -5540 0
5532 -5533 -5534 5536 -5537 -5538 0
5531 5532 5533 -5535 5536 5537 0
-5531 -5532 5534 -5538 5540 0
5534 5535 -5536 -5537 5540 0
-5531 -5532 5534 5538 -5540 0
5531 5532 5534 -5539 0
5531 -5532 -5533 -5538 -5540 0
5533 5535 5536 -5537 -5540 0
5531 -5533 -5537 5538 -5540 0
-5531 -5533 5535 -5536 5537 -5538 0
-5531 -5535 -5536 5538 -5540 0
-5534 5535 -5536 -5537 -5540 0
5532 -5533 5535 -5536 -5537 -5538 0
-5531 -5532 -5534 5535 5537 5538 0
5532 5534 -5535 5536 -5537 -5538 0
5531 -5532 -5533 -5534 5535 5536 0
-5531 5533 -5534 -5535 -5536 -5538 0
5531 -5532 -5534 -5535 5537 -5538 0
5534 5537 5538 -5540 0
-5534 -5535 5536 -5537 -5540 0
-5531 5532 5533 -5534 5535 5537 0
5531 5532 5533 5535 5536 5541 0
-5534 -5535 -5538 -5540 0
5531 5532 5535 5537 5538 5541 0
-5531 5532 -5534 5535 5536 5538 0
-5531 5532 -5533 5534 -5538 0
-5534 -5541 0
5534 -5535 -5536 5537 5540 0
5533 5535 -5536 5537 5539 0
-5531 5532 5533 5534 5538 0
5534 5535 5536 5537 5541 0
-5538 -5541 0
5531 5533 5534 -5539 0
-5533 -5541 0
-5532 -5541 0
-5539 -5540 0
5539 5540 5541 0
-5532 5533 -5536 -5537 -5538 0
5543 5546 5547 5549 -5551 0
-5543 5544 -5546 -5549 5551 0
5543 -5544 -5546 -5547 5548 -5551 0
5543 5544 5547 5548 5549 -5550 0
-5542 -5544 -5545 -5546 -5547 -5548 5549 0
5542 -5544 -5545 5547 5548 5549 0
5545 -5546 5547 -5548 5551 0
5543 5544 -5547 -5548 5549 5551 0
5543 -5544 -5545 -5547 5548 -5549 0
-5543 5544 -5546 5547 -5548 5551 0
5544 5545 -5546 -5547 -5548 -5551 0
-5542 -5543 -5546 -5547 -5548 -5549 0
-5543 -5544 5547 -5549 -5551 0
5542 5543 5544 -5549 -5551 0
-5543 -5544 -5545 5546 5549 5551 0
5543 -5544 -5546 5547 -5548 5551 0
5542 -5543 -5545 -5546 -5547 -5548 5549 0
5546 5547 5548 -5550 0
-5546 -5547 5548 -5549 5551 0
5542 5544 -5545 5546 5547 5549 0
5543 -5544 5548 5549 -5551 0
5544 -5546 5547 5548 -5549 -5551 0
-5542 -5543 -5545 5547 5548 5549 0
5543 5544 5545 -5548 5549 0
5542 -5545 -5546 5548 -5551 0
5543 -5544 -5545 5547 -5548 -5549 0
5542 5543 5544 -5546 5547 5548 0
-5542 -5543 5545 -5549 5551 0
5545 5546 -5547 -5548 5551 0
-5542 -5543 5545 5549 -5551 0
5542 5543 5545 -5550 0
5542 -5543 -5544 -5549 -5551 0
5544 5546 5547 -5548 -5551 0
5542 -5544 -5548 5549 -5551 0
-5542 -5544 5546 -5547 5548 -5549 0
-5542 -5546 -5547 5549 -5551 0
-5545 5546 -5547 -5548 -5551 0
5543 -5544 5546 -5547 -5548 -5549 0
-5542 -5543 -5545 5546 5548 5549 0
5543 5545 -5546 5547 -5548 -5549 0
5542 -5543 -5544 -5545 5546 5547 0
-5542 5544 -5545 -5546 -5547 -5549 0
5542 -5543 -5545 -5546 5548 -5549 0
5545 5548 5549 -5551 0
-5545 -5546 5547 -5548 -5551 0
-5542 5543 5544 -5545 5546 5548 0
5542 5543 5544 5546 5547 5552 0
-5545 -5546 -5549 -5551 0
5542 5543 5546 5548 5549 5552 0
-5542 5543 -5545 5546 5547 5549 0
-5542 5543 -5544 5545 -5549 0
-5545 -5552 0
5545 -5546 -5547 5548 5551 0
5544 5546 -5547 5548 5550 0
-5542 5543 5544 5545 5549 0
5545 5546 5547 5548 5552 0
-5549 -5552 0
5542 5544 5545 -5550 0
-5544 -5552 0
-5543 -5552 0
-5550 -5551 0
5550 5551 5552 0
-5543 5544 -5547 -5548 -5549 0
5554 5557 5558 5560 -5562 0
-5554 5555 -5557 -5560 5562 0
5554 -5555 -5557 -5558 5559 -5562 0
5554 5555 5558 5559 5560 -5561 0
-5553 -5555 -5556 -5557 -5558 -5559 5560 0
5553 -5555 -5556 5558 5559 5560 0
5556 -5557 5558 -5559 5562 0
5554 5555 -5558 -5559 5560 5562 0
5554 -5555 -5556 -5558 5559 -5560 0
-5554 5555 -5557 5558 -5559 5562 0
5555 5556 -5557 -5558 -5559 -5562 0
-5553 -5554 -5557 -5558 -5559 -5560 0
-5554 -5555 5558 -5560 -5562 0
5553 5554 5555 -5560 -5562 0
-5554 -5555 -5556 5557 5560 5562 0
5554 -5555 -5557 5558 -5559 5562 0
5553 -5554 -5556 -5557 -5558 -5559 5560 0
5557 5558 5559 -5561 0
-5557 -5558 5559 -5560 5562 0
5553 5555 -5556 5557 5558 5560 0
5554 -5555 5559 5560 -5562 0
5555 -5557 5558 5559 -5560 -5562 0
-5553 -5554 -5556 5558 5559 5560 0
5554 5555 5556 -5559 5560 0
5553 -5556 -5557 5559 -5562 0
5554 -5555 -5556 5558 -5559 -5560 0
5553 5554 5555 -5557 5558 5559 0
-5553 -5554 5556 -5560 5562 0
5556 5557 -5558 -5559 5562 0
-5553 -5554 5556 5560 -5562 0
5553 5554 5556 -5561 0
5553 -5554 -5555 -5560 -5562 0
5555 5557 5558 -5559 -5562 0
5553 -5555 -5559 5560 -5562 0
-5553 -5555 5557 -5558 5559 -5560 0
-5553 -5557 -5558 5560 -5562 0
-5556 5557 -5558 -5559 -5562 0
5554 -5555 5557 -5558 -5559 -5560 0
-5553 -5554 -5556 5557 5559 5560 0
5554 5556 -5557 5558 -5559 -5560 0
5553 -5554 -5555 -5556 5557 5558 0
-5553 5555 -5556 -5557 -5558 -5560 0
5553 -5554 -5556 -5557 5559 -5560 0
5556 5559 5560 -5562 0
-5556 -5557 5558 -5559 -5562 0
-5553 5554 5555 -5556 5557 5559 0
5553 5554 5555 5557 5558 5563 0
-5556 -5557 -5560 -5562 0
5553 5554 5557 5559 5560 5563 0
-5553 5554 -5556 5557 5558 5560 0
-5553 5554 -5555 5556 -5560 0
-5556 -5563 0
5556 -5557 -5558 5559 5562 0
5555 5557 -5558 5559 5561 0
-5553 5554 5555 5556 5560 0
5556 5557 5558 5559 5563 0
-5560 -5563 0
5553 5555 5556 -5561 0
-5555 -5563 0
-5554 -5563 0
-5561 -5562 0
5561 5562 5563 0
-5554 5555 -5558 -5559 -5560 0
5565 5568 5569 5571 -5573 0
-5565 5566 -5568 -5571 5573 0
5565 -5566 -5568 -5569 5570 -5573 0
5565 5566 5569 5570 5571 -5572 0
-5564 -5566 -5567 -5568 -5569 -5570 5571 0
5564 -5566 -5567 5569 5570 5571 0
5567 -5568 5569 -5570 5573 0
5565 5566 -5569 -5570 5571 5573 0
5565 -5566 -5567 -5569 5570 -5571 0
-5565 5566 -5568 5569 -5570 5573 0
5566 5567 -5568 -5569 -5570 -5573 0
-5564 -5565 -5568 -5569 -5570 -5571 0
-5565 -5566 5569 -5571 -5573 0
5564 5565 5566 -5571 -5573 0
-5565 -5566 -5567 5568 5571 5573 0
5565 -5566 -5568 5569 -5570 5573 0
5564 -5565 -5567 -5568 -5569 -5570 5571 0
5568 5569 5570 -5572 0
-5568 -5569 5570 -5571 5573 0
5564 5566 -5567 5568 5569 5571 0
5565 -5566 5570 5571 -5573 0
5566 -5568 5569 5570 -5571 -5573 0
-5564 -5565 -5567 5569 5570 5571 0
5565 5566 5567 -5570 5571 0
5564 -5567 -5568 5570 -5573 0
5565 -5566 -5567 5569 -5570 -5571 0
5564 5565 5566 -5568 5569 5570 0
-5564 -5565 5567 -5571 5573 0
5567 5568 -5569 -5570 5573 0
-5564 -5565 5567 5571 -5573 0
5564 5565 5567 -5572 0
5564 -5565 -5566 -5571 -5573 0
5566 5568 5569 -5570 -5573 0
5564 -5566 -5570 5571 -5573 0
-5564 -5566 5568 -5569 5570 -5571 0
-5564 -5568 -5569 5571 -5573 0
-5567 5568 -5569 -5570 -5573 0
5565 -5566 5568 -5569 -5570 -5571 0
-5564 -5565 -5567 5568 5570 5571 0
5565 5567 -5568 5569 -5570 -5571 0
5564 -5565 -5566 -5567 5568 5569 0
-5564 5566 -5567 -5568 -5569 -5571 0
5564 -5565 -5567 -5568 5570 -5571 0
5567 5570 5571 -5573 0
-5567 -5568 5569 -5570 -5573 0
-5564 5565 5566 -5567 5568 5570 0
5564 5565 5566 5568 5569 5574 0
-5567 -5568 -5571 -5573 0
5564 5565 5568 5570 5571 5574 0
-5564 5565 -5567 5568 5569 5571 0
-5564 5565 -5566 5567 -5571 0
-5567 -5574 0
5567 -5568 -5569 5570 5573 0
5566 5568 -5569 5570 5572 0
-5564 5565 5566 5567 5571 0
5567 5568 5569 5570 5574 0
-5571 -5574 0
5564 5566 5567 -5572 0
-5566 -5574 0
-5565 -5574 0
-5572 -5573 0
5572 5573 5574 0
-5565 5566 -5569 -5570 -5571 0
5576 5579 5580 5582 -5584 0
-5576 5577 -5579 -5582 5584 0
5576 -5577 -5579 -5580 5581 -5584 0
5576 5577 5580 5581 5582 -5583 0
-5575 -5577 -5578 -5579 -5580 -5581 5582 0
5575 -5577 -5578 5580 5581 5582 0
5578 -5579 5580 -5581 5584 0
5576 5577 -5580 -5581 5582 5584 0
5576 -5577 -5578 -5580 5581 -5582 0
-5576 5577 -5579 5580 -5581 5584 0
5577 5578 -5579 -5580 -5581 -5584 0
-5575 -5576 -5579 -5580 -5581 -5582 0
-5576 -5577 5580 -5582 -5584 0
5575 5576 5577 -5582 -5584 0
-5576 -5577 -5578 5579 5582 5584 0
5576 -5577 -5579 5580 -5581 5584 0
5575 -5576 -5578 -5579 -5580 -5581 5582 0
5579 5580 5581 -5583 0
-5579 -5580 5581 -5582 5584 0
5575 5577 -5578 5579 5580 5582 0
5576 -5577 5581 5582 -5584 0
5577 -5579 5580 5581 -5582 -5584 0
-5575 -5576 -5578 5580 5581 5582 0
5576 5577 5578 -5581 5582 0
5575 -5578 -5579 5581 -5584 0
5576 -5577 -5578 5580 -5581 -5582 0
5575 5576 5577 -5579 5580 5581 0
-5575 -5576 5578 -5582 5584 0
5578 5579 -5580 -5581 5584 0
-5575 -5576 5578 5582 -5584 0
5575 5576 5578 -5583 0
5575 -5576 -5577 -5582 -5584 0
5577 5579 5580 -5581 -5584 0
5575 -5577 -5581 5582 -5584 0
-5575 -5577 5579 -5580 5581 -5582 0
-5575 -5579 -5580 5582 -5584 0
-5578 5579 -5580 -5581 -5584 0
5576 -5577 5579 -5580 -5581 -5582 0
-5575 -5576 -5578 5579 5581 5582 0
5576 5578 -5579 5580 -5581 -5582 0
5575 -5576 -5577 -5578 5579 5580 0
-5575 5577 -5578 -5579 -5580 -5582 0
5575 -5576 -5578 -5579 5581 -5582 0
5578 5581 5582 -5584 0
-5578 -5579 5580 -5581 -5584 0
-5575 5576 5577 -5578 5579 5581 0
5575 5576 5577 5579 5580 5585 0
-5578 -5579 -5582 -5584 0
5575 5576 5579 5581 5582 5585 0
-5575 5576 -5578 5579 5580 5582 0
-5575 5576 -5577 5578 -5582 0
-5578 -5585 0
5578 -5579 -5580 5581 5584 0
5577 5579 -5580 5581 5583 0
-5575 5576 5577 5578 5582 0
5578 5579 5580 5581 5585 0
-5582 -5585 0
5575 5577 5578 -5583 0
-5577 -5585 0
-5576 -5585 0
-5583 -5584 0
5583 5584 5585 0
-5576 5577 -5580 -5581 -5582 0
5587 5590 5591 5593 -5595 0
-5587 5588 -5590 -5593 5595 0
5587 -5588 -5590 -5591 5592 -5595 0
5587 5588 5591 5592 5593 -5594 0
-5586 -5588 -5589 -5590 -5591 -5592 5593 0
5586 -5588 -5589 5591 5592 5593 0
5589 -5590 5591 -5592 5595 0
5587 5588 -5591 -5592 5593 5595 0
5587 -5588 -5589 -5591 5592 -5593 0
-5587 5588 -5590 5591 -5592 5595 0
5588 5589 -5590 -5591 -5592 -5595 0
-5586 -5587 -5590 -5591 -5592 -5593 0
-5587 -5588 5591 -5593 -5595 0
5586 5587 5588 -5593 -5595 0
-5587 -5588 -5589 5590 5593 5595 0
5587 -5588 -5590 5591 -5592 5595 0
5586 -5587 -5589 -5590 -5591 -5592 5593 0
5590 5591 5592 -5594 0
-5590 -5591 5592 -5593 5595 0
5586 5588 -5589 5590 5591 5593 0
5587 -5588 5592 5593 -5595 0
5588 -5590 5591 5592 -5593 -5595 0
-5586 -5587 -5589 5591 5592 5593 0
5587 5588 5589 -5592 5593 0
5586 -5589 -5590 5592 -5595 0
5587 -5588 -5589 5591 -5592 -5593 0
5586 5587 5588 -5590 5591 5592 0
-5586 -5587 5589 -5593 5595 0
5589 5590 -5591 -5592 5595 0
-5586 -5587 5589 5593 -5595 0
5586 5587 5589 -5594 0
5586 -5587 -5588 -5593 -5595 0
5588 5590 5591 -5592 -5595 0
5586 -5588 -5592 5593 -5595 0
-5586 -5588 5590 -5591 5592 -5593 0
-5586 -5590 -5591 5593 -5595 0
-5589 5590 -5591 -5592 -5595 0
5587 -5588 5590 -5591 -5592 -5593 0
-5586 -5587 -5589 5590 5592 5593 0
5587 5589 -5590 5591 -5592 -5593 0
5586 -5587 -5588 -5589 5590 5591 0
-5586 5588 -5589 -5590 -5591 -5593 0
5586 -5587 -5589 -5590 5592 -5593 0
5589 5592 5593 -5595 0
-5589 -5590 5591 -5592 -5595 0
-5586 5587 5588 -5589 5590 5592 0
5586 5587 5588 5590 5591 5596 0
-5589 -5590 -5593 -5595 0
5586 5587 5590 5592 5593 5596 0
-5586 5587 -5589 5590 5591 5593 0
-5586 5587 -5588 5589 -5593 0
-5589 -5596 0
5589 -5590 -5591 5592 5595 0
5588 5590 -5591 5592 5594 0
-5586 5587 5588 5589 5593 0
5589 5590 5591 5592 5596 0
-5593 -5596 0
5586 5588 5589 -5594 0
-5588 -5596 0
-5587 -5596 0
-5594 -5595 0
5594 5595 5596 0
-5587 5588 -5591 -5592 -5593 0
5598 5601 5602 5604 -5606 0
-5598 5599 -5601 -5604 5606 0
5598 -5599 -5601 -5602 5603 -5606 0
5598 5599 5602 5603 5604 -5605 0
-5597 -5599 -5600 -5601 -5602 -5603 5604 0
5597 -5599 -5600 5602 5603 5604 0
5600 -5601 5602 -5603 5606 0
5598 5599 -5602 -5603 5604 5606 0
5598 -5599 -5600 -5602 5603 -5604 0
-5598 5599 -5601 5602 -5603 5606 0
5599 5600 -5601 -5602 -5603 -5606 0
-5597 -5598 -5601 -5602 -5603 -5604 0
-5598 -5599 5602 -5604 -5606 0
5597 5598 5599 -5604 -5606 0
-5598 -5599 -5600 5601 5604 5606 0
5598 -5599 -5601 5602 -5603 5606 0
5597 -5598 -5600 -5601 -5602 -5603 5604 0
5601 5602 5603 -5605 0
-5601 -5602 5603 -5604 5606 0
5597 5599 -5600 5601 5602 5604 0
5598 -5599 5603 5604 -5606 0
5599 -5601 5602 5603 -5604 -5606 0
-5597 -5598 -5600 5602 5603 5604 0
5598 5599 5600 -5603 5604 0
5597 -5600 -5601 5603 -5606 0
5598 -5599 -5600 5602 -5603 -5604 0
5597 5598 5599 -5601 5602 5603 0
-5597 -5598 5600 -5604 5606 0
5600 5601 -5602 -5603 5606 0
-5597 -5598 5600 5604 -5606 0
5597 5598 5600 -5605 0
5597 -5598 -5599 -5604 -5606 0
5599 5601 5602 -5603 -5606 0
5597 -5599 -5603 5604 -5606 0
-5597 -5599 5601 -5602 5603 -5604 0
-5597 -5601 -5602 5604 -5606 0
-5600 5601 -5602 -5603 -5606 0
5598 -5599 5601 -5602 -5603 -5604 0
-5597 -5598 -5600 5601 5603 5604 0
5598 5600 -5601 5602 -5603 -5604 0
5597 -5598 -5599 -5600 5601 5602 0
-5597 5599 -5600 -5601 -5602 -5604 0
5597 -5598 -5600 -5601 5603 -5604 0
5600 5603 5604 -5606 0
-5600 -5601 5602 -5603 -5606 0
-5597 5598 5599 -5600 5601 5603 0
5597 5598 5599 5601 5602 5607 0
-5600 -5601 -5604 -5606 0
5597 5598 5601 5603 5604 5607 0
-5597 5598 -5600 5601 5602 5604 0
-5597 5598 -5599 5600 -5604 0
-5600 -5607 0
5600 -5601 -5602 5603 5606 0
5599 5601 -5602 5603 5605 0
-5597 5598 5599 5600 5604 0
5600 5601 5602 5603 5607 0
-5604 -5607 0
5597 5599 5600 -5605 0
-5599 -5607 0
-5598 -5607 0
-5605 -5606 0
5605 5606 5607 0
-5598 5599 -5602 -5603 -5604 0
5609 5612 5613 5615 -5617 0
-5609 5610 -5612 -5615 5617 0
5609 -5610 -5612 -5613 5614 -5617 0
5609 5610 5613 5614 5615 -5616 0
-5608 -5610 -5611 -5612 -5613 -5614 5615 0
5608 -5610 -5611 5613 5614 5615 0
5611 -5612 5613 -5614 5617 0
5609 5610 -5613 -5614 5615 5617 0
5609 -5610 -5611 -5613 5614 -5615 0
-5609 5610 -5612 5613 -5614 5617 0
5610 5611 -5612 -5613 -5614 -5617 0
-5608 -5609 -5612 -5613 -5614 -5615 0
-5609 -5610 5613 -5615 -5617 0
5608 5609 5610 -5615 -5617 0
-5609 -5610 -5611 5612 5615 5617 0
5609 -5610 -5612 5613 -5614 5617 0
5608 -5609 -5611 -5612 -5613 -5614 5615 0
5612 5613 5614 -5616 0
-5612 -5613 5614 -5615 5617 0
5608 5610 -5611 5612 5613 5615 0
5609 -5610 5614 5615 -5617 0
5610 -5612 5613 5614 -5615 -5617 0
-5608 -5609 -5611 5613 5614 5615 0
5609 5610 5611 -5614 5615 0
5608 -5611 -5612 5614 -5617 0
5609 -5610 -5611 5613 -5614 -5615 0
5608 5609 5610 -5612 5613 5614 0
-5608 -5609 5611 -5615 5617 0
5611 5612 -5613 -5614 5617 0
-5608 -5609 5611 5615 -5617 0
5608 5609 5611 -5616 0
5608 -5609 -5610 -5615 -5617 0
5610 5612 5613 -5614 -5617 0
5608 -5610 -5614 5615 -5617 0
-5608 -5610 5612 -5613 5614 -5615 0
-5608 -5612 -5613 5615 -5617 0
-5611 5612 -5613 -5614 -5617 0
5609 -5610 5612 -5613 -5614 -5615 0
-5608 -5609 -5611 5612 5614 5615 0
5609 5611 -5612 5613 -5614 -5615 0
5608 -5609 -5610 -5611 5612 5613 0
-5608 5610 -5611 -5612 -5613 -5615 0
5608 -5609 -5611 -5612 5614 -5615 0
5611 5614 5615 -5617 0
-5611 -5612 5613 -5614 -5617 0
-5608 5609 5610 -5611 5612 5614 0
5608 5609 5610 5612 5613 5618 0
-5611 -5612 -5615 -5617 0
5608 5609 5612 5614 5615 5618 0
-5608 5609 -5611 5612 5613 5615 0
-5608 5609 -5610 5611 -5615 0
-5611 -5618 0
5611 -5612 -5613 5614 5617 0
5610 5612 -5613 5614 5616 0
-5608 5609 5610 5611 5615 0
5611 5612 5613 5614 5618 0
-5615 -5618 0
5608 5610 5611 -5616 0
-5610 -5618 0
-5609 -5618 0
-5616 -5617 0
5616 5617 5618 0
-5609 5610 -5613 -5614 -5615 0
5620 5623 5624 5626 -5628 0
-5620 5621 -5623 -5626 5628 0
5620 -5621 -5623 -5624 5625 -5628 0
5620 5621 5624 5625 5626 -5627 0
-5619 -5621 -5622 -5623 -5624 -5625 5626 0
5619 -5621 -5622 5624 5625 5626 0
5622 -5623 5624 -5625 5628 0
5620 5621 -5624 -5625 5626 5628 0
5620 -5621 -5622 -5624 5625 -5626 0
-5620 5621 -5623 5624 -5625 5628 0
5621 5622 -5623 -5624 -5625 -5628 0
-5619 -5620 -5623 -5624 -5625 -5626 0
-5620 -5621 5624 -5626 -5628 0
5619 5620 5621 -5626 -5628 0
-5620 -5621 -5622 5623 5626 5628 0
5620 -5621 -5623 5624 -5625 5628 0
5619 -5620 -5622 -5623 -5624 -5625 5626 0
5623 5624 5625 -5627 0
-5623 -5624 5625 -5626 5628 0
5619 5621 -5622 5623 5624 5626 0
5620 -5621 5625 5626 -5628 0
5621 -5623 5624 5625 -5626 -5628 0
-5619 -5620 -5622 5624 5625 5626 0
5620 5621 5622 -5625 5626 0
5619 -5622 -5623 5625 -5628 0
5620 -5621 -5622 5624 -5625 -5626 0
5619 5620 5621 -5623 5624 5625 0
-5619 -5620 5622 -5626 5628 0
5622 5623 -5624 -5625 5628 0
-5619 -5620 5622 5626 -5628 0
5619 5620 5622 -5627 0
5619 -5620 -5621 -5626 -5628 0
5621 5623 5624 -5625 -5628 0
5619 -5621 -5625 5626 -5628 0
-5619 -5621 5623 -5624 5625 -5626 0
-5619 -5623 -5624 5626 -5628 0
-5622 5623 -5624 -5625 -5628 0
5620 -5621 5623 -5624 -5625 -5626 0
-5619 -5620 -5622 5623 5625 5626 0
5620 5622 -5623 5624 -5625 -5626 0
5619 -5620 -5621 -5622 5623 5624 0
-5619 5621 -5622 -5623 -5624 -5626 0
5619 -5620 -5622 -5623 5625 -5626 0
5622 5625 5626 -5628 0
-5622 -5623 5624 -5625 -5628 0
-5619 5620 5621 -5622 5623 5625 0
5619 5620 5621 5623 5624 5629 0
-5622 -5623 -5626 -5628 0
5619 5620 5623 5625 5626 5629 0
-5619 5620 -5622 5623 5624 5626 0
-5619 5620 -5621 5622 -5626 0
-5622 -5629 0
5622 -5623 -5624 5625 5628 0
5621 5623 -5624 5625 5627 0
-5619 5620 5621 5622 5626 0
5622 5623 5624 5625 5629 0
-5626 -5629 0
5619 5621 5622 -5627 0
-5621 -5629 0
-5620 -5629 0
-5627 -5628 0
5627 5628 5629 0
-5620 5621 -5624 -5625 -5626 0
5631 5634 5635 5637 -5639 0
-5631 5632 -5634 -5637 5639 0
5631 -5632 -5634 -5635 5636 -5639 0
5631 5632 5635 5636 5637 -5638 0
-5630 -5632 -5633 -5634 -5635 -5636 5637 0
5630 -5632 -5633 5635 5636 5637 0
5633 -5634 5635 -5636 5639 0
5631 5632 -5635 -5636 5637 5639 0
5631 -5632 -5633 -5635 5636 -5637 0
-5631 5632 -5634 5635 -5636 5639 0
5632 5633 -5634 -5635 -5636 -5639 0
-5630 -5631 -5634 -5635 -5636 -5637 0
-5631 -5632 5635 -5637 -5639 0
5630 5631 5632 -5637 -5639 0
-5631 -5632 -5633 5634 5637 5639 0
5631 -5632 -5634 5635 -5636 5639 0
5630 -5631 -5633 -5634 -5635 -5636 5637 0
5634 5635 5636 -5638 0
-5634 -5635 5636 -5637 5639 0
5630 5632 -5633 5634 5635 5637 0
5631 -5632 5636 5637 -5639 0
5632 -5634 5635 5636 -5637 -5639 0
-5630 -5631 -5633 5635 5636 5637 0
5631 5632 5633 -5636 5637 0
5630 -5633 -5634 5636 -5639 0
5631 -5632 -5633 5635 -5636 -5637 0
5630 5631 5632 -5634 5635 5636 0
-5630 -5631 5633 -5637 5639 0
5633 5634 -5635 -5636 5639 0
-5630 -5631 5633 5637 -5639 0
5630 5631 5633 -5638 0
5630 -5631 -5632 -5637 -5639 0
5632 5634 5635 -5636 -5639 0
5630 -5632 -5636 5637 -5639 0
-5630 -5632 5634 -5635 5636 -5637 0
-5630 -5634 -5635 5637 -5639 0
-5633 5634 -5635 -5636 -5639 0
5631 -5632 5634 -5635 -5636 -5637 0
-5630 -5631 -5633 5634 5636 5637 0
5631 5633 -5634 5635 -5636 -5637 0
5630 -5631 -5632 -5633 5634 5635 0
-5630 5632 -5633 -5634 -5635 -5637 0
5630 -5631 -5633 -5634 5636 -5637 0
5633 5636 5637 -5639 0
-5633 -5634 5635 -5636 -5639 0
-5630 5631 5632 -5633 5634 5636 0
5630 5631 5632 5634 5635 5640 0
-5633 -5634 -5637 -5639 0
5630 5631 5634 5636 5637 5640 0
-5630 5631 -5633 5634 5635 5637 0
-5630 5631 -5632 5633 -5637 0
-5633 -5640 0
5633 -5634 -5635 5636 5639 0
5632 5634 -5635 5636 5638 0
-5630 5631 5632 5633 5637 0
5633 5634 5635 5636 5640 0
-5637 -5640 0
5630 5632 5633 -5638 0
-5632 -5640 0
-5631 -5640 0
-5638 -5639 0
5638 5639 5640 0
-5631 5632 -5635 -5636 -5637 0
5642 5645 5646 5648 -5650 0
-5642 5643 -5645 -5648 5650 0
5642 -5643 -5645 -5646 5647 -5650 0
5642 5643 5646 5647 5648 -5649 0
-5641 -5643 -5644 -5645 -5646 -5647 5648 0
5641 -5643 -5644 5646 5647 5648 0
5644 -5645 5646 -5647 5650 0
5642 5643 -5646 -5647 5648 5650 0
5642 -5643 -5644 -5646 5647 -5648 0
-5642 5643 -5645 5646 -5647 5650 0
5643 5644 -5645 -5646 -5647 -5650 0
-5641 -5642 -5645 -5646 -5647 -5648 0
-5642 -5643 5646 -5648 -5650 0
5641 5642 5643 -5648 -5650 0
-5642 -5643 -5644 5645 5648 5650 0
5642 -5643 -5645 5646 -5647 5650 0
5641 -5642 -5644 -5645 -5646 -5647 5648 0
5645 5646 5647 -5649 0
-5645 -5646 5647 -5648 5650 0
5641 5643 -5644 5645 5646 5648 0
5642 -5643 5647 5648 -5650 0
5643 -5645 5646 5647 -5648 -5650 0
-5641 -5642 -5644 5646 5647 5648 0
5642 5643 5644 -5647 5648 0
5641 -5644 -5645 5647 -5650 0
5642 -5643 -5644 5646 -5647 -5648 0
5641 5642 5643 -5645 5646 5647 0
-5641 -5642 5644 -5648 5650 0
5644 5645 -5646 -5647 5650 0
-5641 -5642 5644 5648 -5650 0
5641 5642 5644 -5649 0
5641 -5642 -5643 -5648 -5650 0
5643 5645 5646 -5647 -5650 0
5641 -5643 -5647 5648 -5650 0
-5641 -5643 5645 -5646 5647 -5648 0
-5641 -5645 -5646 5648 -5650 0
-5644 5645 -5646 -5647 -5650 0
5642 -5643 5645 -5646 -5647 -5648 0
-5641 -5642 -5644 5645 5647 5648 0
5642 5644 -5645 5646 -5647 -5648 0
5641 -5642 -5643 -5644 5645 5646 0
-5641 5643 -5644 -5645 -5646 -5648 0
5641 -5642 -5644 -5645 5647 -5648 0
5644 5647 5648 -5650 0
-5644 -5645 5646 -5647 -5650 0
-5641 5642 5643 -5644 5645 5647 0
5641 5642 5643 5645 5646 5651 0
-5644 -5645 -5648 -5650 0
5641 5642 5645 5647 5648 5651 0
-5641 5642 -5644 5645 5646 5648 0
-5641 5642 -5643 5644 -5648 0
-5644 -5651 0
5644 -5645 -5646 5647 5650 0
5643 5645 -5646 5647 5649 0
-5641 5642 5643 5644 5648 0
5644 5645 5646 5647 5651 0
-5648 -5651 0
5641 5643 5644 -5649 0
-5643 -5651 0
-5642 -5651 0
-5649 -5650 0
5649 5650 5651 0
-5642 5643 -5646 -5647 -5648 0
5653 5656 5657 5659 -5661 0
-5653 5654 -5656 -5659 5661 0
5653 -5654 -5656 -5657 5658 -5661 0
5653 5654 5657 5658 5659 -5660 0
-5652 -5654 -5655 -5656 -5657 -5658 5659 0
5652 -5654 -5655 5657 5658 5659 0
5655 -5656 5657 -5658 5661 0
5653 5654 -5657 -5658 5659 5661 0
5653 -5654 -5655 -5657 5658 -5659 0
-5653 5654 -5656 5657 -5658 5661 0
5654 5655 -5656 -5657 -5658 -5661 0
-5652 -5653 -5656 -5657 -5658 -5659 0
-5653 -5654 5657 -5659 -5661 0
5652 5653 5654 -5659 -5661 0
-5653 -5654 -5655 5656 5659 5661 0
5653 -5654 -5656 5657 -5658 5661 0
5652 -5653 -5655 -5656 -5657 -5658 5659 0
5656 5657 5658 -5660 0
-5656 -5657 5658 -5659 5661 0
5652 5654 -5655 5656 5657 5659 0
5653 -5654 5658 5659 -5661 0
5654 -5656 5657 5658 -5659 -5661 0
-5652 -5653 -5655 5657 5658 5659 0
5653 5654 5655 -5658 5659 0
5652 -5655 -5656 5658 -5661 0
5653 -5654 -5655 5657 -5658 -5659 0
5652 5653 5654 -5656 5657 5658 0
-5652 -5653 5655 -5659 5661 0
5655 5656 -5657 -5658 5661 0
-5652 -5653 5655 5659 -5661 0
5652 5653 5655 -5660 0
5652 -5653 -5654 -5659 -5661 0
5654 5656 5657 -5658 -5661 0
5652 -5654 -5658 5659 -5661 0
-5652 -5654 5656 -5657 5658 -5659 0
-5652 -5656 -5657 5659 -5661 0
-5655 5656 -5657 -5658 -5661 0
5653 -5654 5656 -5657 -5658 -5659 0
-5652 -5653 -5655 5656 5658 5659 0
5653 5655 -5656 5657 -5658 -5659 0
5652 -5653 -5654 -5655 5656 5657 0
-5652 5654 -5655 -5656 -5657 -5659 0
5652 -5653 -5655 -5656 5658 -5659 0
5655 5658 5659 -5661 0
-5655 -5656 5657 -5658 -5661 0
-5652 5653 5654 -5655 5656 5658 0
5652 5653 5654 5656 5657 5662 0
-5655 -5656 -5659 -5661 0
5652 5653 5656 5658 5659 5662 0
-5652 5653 -5655 5656 5657 5659 0
-5652 5653 -5654 5655 -5659 0
-5655 -5662 0
5655 -5656 -5657 5658 5661 0
5654 5656 -5657 5658 5660 0
-5652 5653 5654 5655 5659 0
5655 5656 5657 5658 5662 0
-5659 -5662 0
5652 5654 5655 -5660 0
-5654 -5662 0
-5653 -5662 0
-5660 -5661 0
5660 5661 5662 0
-5653 5654 -5657 -5658 -5659 0
5664 5667 5668 5670 -5672 0
-5664 5665 -5667 -5670 5672 0
5664 -5665 -5667 -5668 5669 -5672 0
5664 5665 5668 5669 5670 -5671 0
-5663 -5665 -5666 -5667 -5668 -5669 5670 0
5663 -5665 -5666 5668 5669 5670 0
5666 -5667 5668 -5669 5672 0
5664 5665 -5668 -5669 5670 5672 0
5664 -5665 -5666 -5668 5669 -5670 0
-5664 5665 -5667 5668 -5669 5672 0
5665 5666 -5667 -5668 -5669 -5672 0
-5663 -5664 -5667 -5668 -5669 -5670 0
-5664 -5665 5668 -5670 -5672 0
5663 5664 5665 -5670 -5672 0
-5664 -5665 -5666 5667 5670 5672 0
5664 -5665 -5667 5668 -5669 5672 0
5663 -5664 -5666 -5667 -5668 -5669 5670 0
5667 5668 5669 -5671 0
-5667 -5668 5669 -5670 5672 0
5663 5665 -5666 5667 5668 5670 0
5664 -5665 5669 5670 -5672 0
5665 -5667 5668 5669 -5670 -5672 0
-5663 -5664 -5666 5668 5669 5670 0
5664 5665 5666 -5669 5670 0
5663 -5666 -5667 5669 -5672 0
5664 -5665 -5666 5668 -5669 -5670 0
5663 5664 5665 -5667 5668 5669 0
-5663 -5664 5666 -5670 5672 0
5666 5667 -5668 -5669 5672 0
-5663 -5664 5666 5670 -5672 0
5663 5664 5666 -5671 0
5663 -5664 -5665 -5670 -5672 0
5665 5667 5668 -5669 -5672 0
5663 -5665 -5669 5670 -5672 0
-5663 -5665 5667 -5668 5669 -5670 0
-5663 -5667 -5668 5670 -5672 0
-5666 5667 -5668 -5669 -5672 0
5664 -5665 5667 -5668 -5669 -5670 0
-5663 -5664 -5666 5667 5669 5670 0
5664 5666 -5667 5668 -5669 -5670 0
5663 -5664 -5665 -5666 5667 5668 0
-5663 5665 -5666 -5667 -5668 -5670 0
5663 -5664 -5666 -5667 5669 -5670 0
5666 5669 5670 -5672 0
-5666 -5667 5668 -5669 -5672 0
-5663 5664 5665 -5666 5667 5669 0
5663 5664 5665 5667 5668 5673 0
-5666 -5667 -5670 -5672 0
5663 5664 5667 5669 5670 5673 0
-5663 5664 -5666 5667 5668 5670 0
-5663 5664 -5665 5666 -5670 0
-5666 -5673 0
5666 -5667 -5668 5669 5672 0
5665 5667 -5668 5669 5671 0
-5663 5664 5665 5666 5670 0
5666 5667 5668 5669 5673 0
-5670 -5673 0
5663 5665 5666 -5671 0
-5665 -5673 0
-5664 -5673 0
-5671 -5672 0
5671 5672 5673 0
-5664 5665 -5668 -5669 -5670 0
5675 5678 5679 5681 -5683 0
-5675 5676 -5678 -5681 5683 0
5675 -5676 -5678 -5679 5680 -5683 0
5675 5676 5679 5680 5681 -5682 0
-5674 -5676 -5677 -5678 -5679 -5680 5681 0
5674 -5676 -5677 5679 5680 5681 0
5677 -5678 5679 -5680 5683 0
5675 5676 -5679 -5680 5681 5683 0
5675 -5676 -5677 -5679 5680 -5681 0
-5675 5676 -5678 5679 -5680 5683 0
5676 5677 -5678 -5679 -5680 -5683 0
-5674 -5675 -5678 -5679 -5680 -5681 0
-5675 -5676 5679 -5681 -5683 0
5674 5675 5676 -5681 -5683 0
-5675 -5676 -5677 5678 5681 5683 0
5675 -5676 -5678 5679 -5680 5683 0
5674 -5675 -5677 -5678 -5679 -5680 5681 0
5678 5679 5680 -5682 0
-5678 -5679 5680 -5681 5683 0
5674 5676 -5677 5678 5679 5681 0
5675 -5676 5680 5681 -5683 0
5676 -5678 5679 5680 -5681 -5683 0
-5674 -5675 -5677 5679 5680 5681 0
5675 5676 5677 -5680 5681 0
5674 -5677 -5678 5680 -5683 0
5675 -5676 -5677 5679 -5680 -5681 0
5674 5675 5676 -5678 5679 5680 0
-5674 -5675 5677 -5681 5683 0
5677 5678 -5679 -5680 5683 0
-5674 -5675 5677 5681 -5683 0
5674 5675 5677 -5682 0
5674 -5675 -5676 -5681 -5683 0
5676 5678 5679 -5680 -5683 0
5674 -5676 -5680 5681 -5683 0
-5674 -5676 5678 -5679 5680 -5681 0
-5674 -5678 -5679 5681 -5683 0
-5677 5678 -5679 -5680 -5683 0
5675 -5676 5678 -5679 -5680 -5681 0
-5674 -5675 -5677 5678 5680 5681 0
5675 5677 -5678 5679 -5680 -5681 0
5674 -5675 -5676 -5677 5678 5679 0
-5674 5676 -5677 -5678 -5679 -5681 0
5674 -5675 -5677 -5678 5680 -5681 0
5677 5680 5681 -5683 0
-5677 -5678 5679 -5680 -5683 0
-5674 5675 5676 -5677 5678 5680 0
5674 5675 5676 5678 5679 5684 0
-5677 -5678 -5681 -5683 0
5674 5675 5678 5680 5681 5684 0
-5674 5675 -5677 5678 5679 5681 0
-5674 5675 -5676 5677 -5681 0
-5677 -5684 0
5677 -5678 -5679 5680 5683 0
5676 5678 -5679 5680 5682 0
-5674 5675 5676 5677 5681 0
5677 5678 5679 5680 5684 0
-5681 -5684 0
5674 5676 5677 -5682 0
-5676 -5684 0
-5675 -5684 0
-5682 -5683 0
5682 5683 5684 0
-5675 5676 -5679 -5680 -5681 0
5686 5689 5690 5692 -5694 0
-5686 5687 -5689 -5692 5694 0
5686 -5687 -5689 -5690 5691 -5694 0
5686 5687 5690 5691 5692 -5693 0
-5685 -5687 -5688 -5689 -5690 -5691 5692 0
5685 -5687 -5688 5690 5691 5692 0
5688 -5689 5690 -5691 5694 0
5686 5687 -5690 -5691 5692 5694 0
5686 -5687 -5688 -5690 5691 -5692 0
-5686 5687 -5689 5690 -5691 5694 0
5687 5688 -5689 -5690 -5691 -5694 0
-5685 -5686 -5689 -5690 -5691 -5692 0
-5686 -5687 5690 -5692 -5694 0
5685 5686 5687 -5692 -5694 0
-5686 -5687 -5688 5689 5692 5694 0
5686 -5687 -5689 5690 -5691 5694 0
5685 -5686 -5688 -5689 -5690 -5691 5692 0
5689 5690 5691 -5693 0
-5689 -5690 5691 -5692 5694 0
5685 5687 -5688 5689 5690 5692 0
5686 -5687 5691 5692 -5694 0
5687 -5689 5690 5691 -5692 -5694 0
-5685 -5686 -5688 5690 5691 5692 0
5686 5687 5688 -5691 5692 0
5685 -5688 -5689 5691 -5694 0
5686 -5687 -5688 5690 -5691 -5692 0
5685 5686 5687 -5689 5690 5691 0
-5685 -5686 5688 -5692 5694 0
5688 5689 -5690 -5691 5694 0
-5685 -5686 5688 5692 -5694 0
5685 5686 5688 -5693 0
5685 -5686 -5687 -5692 -5694 0
5687 5689 5690 -5691 -5694 0
5685 -5687 -5691 5692 -5694 0
-5685 -5687 5689 -5690 5691 -5692 0
-5685 -5689 -5690 5692 -5694 0
-5688 5689 -5690 -5691 -5694 0
5686 -5687 5689 -5690 -5691 -5692 0
-5685 -5686 -5688 5689 5691 5692 0
5686 5688 -5689 5690 -5691 -5692 0
5685 -5686 -5687 -5688 5689 5690 0
-5685 5687 -5688 -5689 -5690 -5692 0
5685 -5686 -5688 -5689 5691 -5692 0
5688 5691 5692 -5694 0
-5688 -5689 5690 -5691 -5694 0
-5685 5686 5687 -5688 5689 5691 0
5685 5686 5687 5689 5690 5695 0
-5688 -5689 -5692 -5694 0
5685 5686 5689 5691 5692 5695 0
-5685 5686 -5688 5689 5690 5692 0
-5685 5686 -5687 5688 -5692 0
-5688 -5695 0
5688 -5689 -5690 5691 5694 0
5687 5689 -5690 5691 5693 0
-5685 5686 5687 5688 5692 0
5688 5689 5690 5691 5695 0
-5692 -5695 0
5685 5687 5688 -5693 0
-5687 -5695 0
-5686 -5695 0
-5693 -5694 0
5693 5694 5695 0
-5686 5687 -5690 -5691 -5692 0
5697 5700 5701 5703 -5705 0
-5697 5698 -5700 -5703 5705 0
5697 -5698 -5700 -5701 5702 -5705 0
5697 5698 5701 5702 5703 -5704 0
-5696 -5698 -5699 -5700 -5701 -5702 5703 0
5696 -5698 -5699 5701 5702 5703 0
5699 -5700 5701 -5702 5705 0
5697 5698 -5701 -5702 5703 5705 0
5697 -5698 -5699 -5701 5702 -5703 0
-5697 5698 -5700 5701 -5702 5705 0
5698 5699 -5700 -5701 -5702 -5705 0
-5696 -5697 -5700 -5701 -5702 -5703 0
-5697 -5698 5701 -5703 -5705 0
5696 5697 5698 -5703 -5705 0
-5697 -5698 -5699 5700 5703 5705 0
5697 -5698 -5700 5701 -5702 5705 0
5696 -5697 -5699 -5700 -5701 -5702 5703 0
5700 5701 5702 -5704 0
-5700 -5701 5702 -5703 5705 0
5696 5698 -5699 5700 5701 5703 0
5697 -5698 5702 5703 -5705 0
5698 -5700 5701 5702 -5703 -5705 0
-5696 -5697 -5699 5701 5702 5703 0
5697 5698 5699 -5702 5703 0
5696 -5699 -5700 5702 -5705 0
5697 -5698 -5699 5701 -5702 -5703 0
5696 5697 5698 -5700 5701 5702 0
-5696 -5697 5699 -5703 5705 0
5699 5700 -5701 -5702 5705 0
-5696 -5697 5699 5703 -5705 0
5696 5697 5699 -5704 0
5696 -5697 -5698 -5703 -5705 0
5698 5700 5701 -5702 -5705 0
5696 -5698 -5702 5703 -5705 0
-5696 -5698 5700 -5701 5702 -5703 0
-5696 -5700 -5701 5703 -5705 0
-5699 5700 -5701 -5702 -5705 0
5697 -5698 5700 -5701 -5702 -5703 0
-5696 -5697 -5699 5700 5702 5703 0
5697 5699 -5700 5701 -5702 -5703 0
5696 -5697 -5698 -5699 5700 5701 0
-5696 5698 -5699 -5700 -5701 -5703 0
5696 -5697 -5699 -5700 5702 -5703 0
5699 5702 5703 -5705 0
-5699 -5700 5701 -5702 -5705 0
-5696 5697 5698 -5699 5700 5702 0
5696 5697 5698 5700 5701 5706 0
-5699 -5700 -5703 -5705 0
5696 5697 5700 5702 5703 5706 0
-5696 5697 -5699 5700 5701 5703 0
-5696 5697 -5698 5699 -5703 0
-5699 -5706 0
5699 -5700 -5701 5702 5705 0
5698 5700 -5701 5702 5704 0
-5696 5697 5698 5699 5703 0
5699 5700 5701 5702 5706 0
-5703 -5706 0
5696 5698 5699 -5704 0
-5698 -5706 0
-5697 -5706 0
-5704 -5705 0
5704 5705 5706 0
-5697 5698 -5701 -5702 -5703 0
5708 5711 5712 5714 -5716 0
-5708 5709 -5711 -5714 5716 0
5708 -5709 -5711 -5712 5713 -5716 0
5708 5709 5712 5713 5714 -5715 0
-5707 -5709 -5710 -5711 -5712 -5713 5714 0
5707 -5709 -5710 5712 5713 5714 0
5710 -5711 5712 -5713 5716 0
5708 5709 -5712 -5713 5714 5716 0
5708 -5709 -5710 -5712 5713 -5714 0
-5708 5709 -5711 5712 -5713 5716 0
5709 5710 -5711 -5712 -5713 -5716 0
-5707 -5708 -5711 -5712 -5713 -5714 0
-5708 -5709 5712 -5714 -5716 0
5707 5708 5709 -5714 -5716 0
-5708 -5709 -5710 5711 5714 5716 0
5708 -5709 -5711 5712 -5713 5716 0
5707 -5708 -5710 -5711 -5712 -5713 5714 0
5711 5712 5713 -5715 0
-5711 -5712 5713 -5714 5716 0
5707 5709 -5710 5711 5712 5714 0
5708 -5709 5713 5714 -5716 0
5709 -5711 5712 5713 -5714 -5716 0
-5707 -5708 -5710 5712 5713 5714 0
5708 5709 5710 -5713 5714 0
5707 -5710 -5711 5713 -5716 0
5708 -5709 -5710 5712 -5713 -5714 0
5707 5708 5709 -5711 5712 5713 0
-5707 -5708 5710 -5714 5716 0
5710 5711 -5712 -5713 5716 0
-5707 -5708 5710 5714 -5716 0
5707 5708 5710 -5715 0
5707 -5708 -5709 -5714 -5716 0
5709 5711 5712 -5713 -5716 0
5707 -5709 -5713 5714 -5716 0
-5707 -5709 5711 -5712 5713 -5714 0
-5707 -5711 -5712 5714 -5716 0
-5710 5711 -5712 -5713 -5716 0
5708 -5709 5711 -5712 -5713 -5714 0
-5707 -5708 -5710 5711 5713 5714 0
5708 5710 -5711 5712 -5713 -5714 0
5707 -5708 -5709 -5710 5711 5712 0
-5707 5709 -5710 -5711 -5712 -5714 0
5707 -5708 -5710 -5711 5713 -5714 0
5710 5713 5714 -5716 0
-5710 -5711 5712 -5713 -5716 0
-5707 5708 5709 -5710 5711 5713 0
5707 5708 5709 5711 5712 5717 0
-5710 -5711 -5714 -5716 0
5707 5708 5711 5713 5714 5717 0
-5707 5708 -5710 5711 5712 5714 0
-5707 5708 -5709 5710 -5714 0
-5710 -5717 0
5710 -5711 -5712 5713 5716 0
5709 5711 -5712 5713 5715 0
-5707 5708 5709 5710 5714 0
5710 5711 5712 5713 5717 0
-5714 -5717 0
5707 5709 5710 -5715 0
-5709 -5717 0
-5708 -5717 0
-5715 -5716 0
5715 5716 5717 0
-5708 5709 -5712 -5713 -5714 0
5719 5722 5723 5725 -5727 0
-5719 5720 -5722 -5725 5727 0
5719 -5720 -5722 -5723 5724 -5727 0
5719 5720 5723 5724 5725 -5726 0
-5718 -5720 -5721 -5722 -5723 -5724 5725 0
5718 -5720 -5721 5723 5724 5725 0
5721 -5722 5723 -5724 5727 0
5719 5720 -5723 -5724 5725 5727 0
5719 -5720 -5721 -5723 5724 -5725 0
-5719 5720 -5722 5723 -5724 5727 0
5720 5721 -5722 -5723 -5724 -5727 0
-5718 -5719 -5722 -5723 -5724 -5725 0
-5719 -5720 5723 -5725 -5727 0
5718 5719 5720 -5725 -5727 0
-5719 -5720 -5721 5722 5725 5727 0
5719 -5720 -5722 5723 -5724 5727 0
5718 -5719 -5721 -5722 -5723 -5724 5725 0
5722 5723 5724 -5726 0
-5722 -5723 5724 -5725 5727 0
5718 5720 -5721 5722 5723 5725 0
5719 -5720 5724 5725 -5727 0
5720 -5722 5723 5724 -5725 -5727 0
-5718 -5719 -5721 5723 5724 5725 0
5719 5720 5721 -5724 5725 0
5718 -5721 -5722 5724 -5727 0
5719 -5720 -5721 5723 -5724 -5725 0
5718 5719 5720 -5722 5723 5724 0
-5718 -5719 5721 -5725 5727 0
5721 5722 -5723 -5724 5727 0
-5718 -5719 5721 5725 -5727 0
5718 5719 5721 -5726 0
5718 -5719 -5720 -5725 -5727 0
5720 5722 5723 -5724 -5727 0
5718 -5720 -5724 5725 -5727 0
-5718 -5720 5722 -5723 5724 -5725 0
-5718 -5722 -5723 5725 -5727 0
-5721 5722 -5723 -5724 -5727 0
5719 -5720 5722 -5723 -5724 -5725 0
-5718 -5719 -5721 5722 5724 5725 0
5719 5721 -5722 5723 -5724 -5725 0
5718 -5719 -5720 -5721 5722 5723 0
-5718 5720 -5721 -5722 -5723 -5725 0
5718 -5719 -5721 -5722 5724 -5725 0
5721 5724 5725 -5727 0
-5721 -5722 5723 -5724 -5727 0
-5718 5719 5720 -5721 5722 5724 0
5718 5719 5720 5722 5723 5728 0
-5721 -5722 -5725 -5727 0
5718 5719 5722 5724 5725 5728 0
-5718 5719 -5721 5722 5723 5725 0
-5718 5719 -5720 5721 -5725 0
-5721 -5728 0
5721 -5722 -5723 5724 5727 0
5720 5722 -5723 5724 5726 0
-5718 5719 5720 5721 5725 0
5721 5722 5723 5724 5728 0
-5725 -5728 0
5718 5720 5721 -5726 0
-5720 -5728 0
-5719 -5728 0
-5726 -5727 0
5726 5727 5728 0
-5719 5720 -5723 -5724 -5725 0
5730 5733 5734 5736 -5738 0
-5730 5731 -5733 -5736 5738 0
5730 -5731 -5733 -5734 5735 -5738 0
5730 5731 5734 5735 5736 -5737 0
-5729 -5731 -5732 -5733 -5734 -5735 5736 0
5729 -5731 -5732 5734 5735 5736 0
5732 -5733 5734 -5735 5738 0
5730 5731 -5734 -5735 5736 5738 0
5730 -5731 -5732 -5734 5735 -5736 0
-5730 5731 -5733 5734 -5735 5738 0
5731 5732 -5733 -5734 -5735 -5738 0
-5729 -5730 -5733 -5734 -5735 -5736 0
-5730 -5731 5734 -5736 -5738 0
5729 5730 5731 -5736 -5738 0
-5730 -5731 -5732 5733 5736 5738 0
5730 -5731 -5733 5734 -5735 5738 0
5729 -5730 -5732 -5733 -5734 -5735 5736 0
5733 5734 5735 -5737 0
-5733 -5734 5735 -5736 5738 0
5729 5731 -5732 5733 5734 5736 0
5730 -5731 5735 5736 -5738 0
5731 -5733 5734 5735 -5736 -5738 0
-5729 -5730 -5732 5734 5735 5736 0
5730 5731 5732 -5735 5736 0
5729 -5732 -5733 5735 -5738 0
5730 -5731 -5732 5734 -5735 -5736 0
5729 5730 5731 -5733 5734 5735 0
-5729 -5730 5732 -5736 5738 0
5732 5733 -5734 -5735 5738 0
-5729 -5730 5732 5736 -5738 0
5729 5730 5732 -5737 0
5729 -5730 -5731 -5736 -5738 0
5731 5733 5734 -5735 -5738 0
5729 -5731 -5735 5736 -5738 0
-5729 -5731 5733 -5734 5735 -5736 0
-5729 -5733 -5734 5736 -5738 0
-5732 5733 -5734 -5735 -5738 0
5730 -5731 5733 -5734 -5735 -5736 0
-5729 -5730 -5732 5733 5735 5736 0
5730 5732 -5733 5734 -5735 -5736 0
5729 -5730 -5731 -5732 5733 5734 0
-5729 5731 -5732 -5733 -5734 -5736 0
5729 -5730 -5732 -5733 5735 -5736 0
5732 5735 5736 -5738 0
-5732 -5733 5734 -5735 -5738 0
-5729 5730 5731 -5732 5733 5735 0
5729 5730 5731 5733 5734 5739 0
-5732 -5733 -5736 -5738 0
5729 5730 5733 5735 5736 5739 0
-5729 5730 -5732 5733 5734 5736 0
-5729 5730 -5731 5732 -5736 0
-5732 -5739 0
5732 -5733 -5734 5735 5738 0
5731 5733 -5734 5735 5737 0
-5729 5730 5731 5732 5736 0
5732 5733 5734 5735 5739 0
-5736 -5739 0
5729 5731 5732 -5737 0
-5731 -5739 0
-5730 -5739 0
-5737 -5738 0
5737 5738 5739 0
-5730 5731 -5734 -5735 -5736 0
5741 5744 5745 5747 -5749 0
-5741 5742 -5744 -5747 5749 0
5741 -5742 -5744 -5745 5746 -5749 0
5741 5742 5745 5746 5747 -5748 0
-5740 -5742 -5743 -5744 -5745 -5746 5747 0
5740 -5742 -5743 5745 5746 5747 0
5743 -5744 5745 -5746 5749 0
5741 5742 -5745 -5746 5747 5749 0
5741 -5742 -5743 -5745 5746 -5747 0
-5741 5742 -5744 5745 -5746 5749 0
5742 5743 -5744 -5745 -5746 -5749 0
-5740 -5741 -5744 -5745 -5746 -5747 0
-5741 -5742 5745 -5747 -5749 0
5740 5741 5742 -5747 -5749 0
-5741 -5742 -5743 5744 5747 5749 0
5741 -5742 -5744 5745 -5746 5749 0
5740 -5741 -5743 -5744 -5745 -5746 5747 0
5744 5745 5746 -5748 0
-5744 -5745 5746 -5747 5749 0
5740 5742 -5743 5744 5745 5747 0
5741 -5742 5746 5747 -5749 0
5742 -5744 5745 5746 -5747 -5749 0
-5740 -5741 -5743 5745 5746 5747 0
5741 5742 5743 -5746 5747 0
5740 -5743 -5744 5746 -5749 0
5741 -5742 -5743 5745 -5746 -5747 0
5740 5741 5742 -5744 5745 5746 0
-5740 -5741 5743 -5747 5749 0
5743 5744 -5745 -5746 5749 0
-5740 -5741 5743 5747 -5749 0
5740 5741 5743 -5748 0
5740 -5741 -5742 -5747 -5749 0
5742 5744 5745 -5746 -5749 0
5740 -5742 -5746 5747 -5749 0
-5740 -5742 5744 -5745 5746 -5747 0
-5740 -5744 -5745 5747 -5749 0
-5743 5744 -5745 -5746 -5749 0
5741 -5742 5744 -5745 -5746 -5747 0
-5740 -5741 -5743 5744 5746 5747 0
5741 5743 -5744 5745 -5746 -5747 0
5740 -5741 -5742 -5743 5744 5745 0
-5740 5742 -5743 -5744 -5745 -5747 0
5740 -5741 -5743 -5744 5746 -5747 0
5743 5746 5747 -5749 0
-5743 -5744 5745 -5746 -5749 0
-5740 5741 5742 -5743 5744 5746 0
5740 5741 5742 5744 5745 5750 0
-5743 -5744 -5747 -5749 0
5740 5741 5744 5746 5747 5750 0
-5740 5741 -5743 5744 5745 5747 0
-5740 5741 -5742 5743 -5747 0
-5743 -5750 0
5743 -5744 -5745 5746 5749 0
5742 5744 -5745 5746 5748 0
-5740 5741 5742 5743 5747 0
5743 5744 5745 5746 5750 0
-5747 -5750 0
5740 5742 5743 -5748 0
-5742 -5750 0
-5741 -5750 0
-5748 -5749 0
5748 5749 5750 0
-5741 5742 -5745 -5746 -5747 0
5752 5755 5756 5758 -5760 0
-5752 5753 -5755 -5758 5760 0
5752 -5753 -5755 -5756 5757 -5760 0
5752 5753 5756 5757 5758 -5759 0
-5751 -5753 -5754 -5755 -5756 -5757 5758 0
5751 -5753 -5754 5756 5757 5758 0
5754 -5755 5756 -5757 5760 0
5752 5753 -5756 -5757 5758 5760 0
5752 -5753 -5754 -5756 5757 -5758 0
-5752 5753 -5755 5756 -5757 5760 0
5753 5754 -5755 -5756 -5757 -5760 0
-5751 -5752 -5755 -5756 -5757 -5758 0
-5752 -5753 5756 -5758 -5760 0
5751 5752 5753 -5758 -5760 0
-5752 -5753 -5754 5755 5758 5760 0
5752 -5753 -5755 5756 -5757 5760 0
5751 -5752 -5754 -5755 -5756 -5757 5758 0
5755 5756 5757 -5759 0
-5755 -5756 5757 -5758 5760 0
5751 5753 -5754 5755 5756 5758 0
5752 -5753 5757 5758 -5760 0
5753 -5755 5756 5757 -5758 -5760 0
-5751 -5752 -5754 5756 5757 5758 0
5752 5753 5754 -5757 5758 0
5751 -5754 -5755 5757 -5760 0
5752 -5753 -5754 5756 -5757 -5758 0
5751 5752 5753 -5755 5756 5757 0
-5751 -5752 5754 -5758 5760 0
5754 5755 -5756 -5757 5760 0
-5751 -5752 5754 5758 -5760 0
5751 5752 5754 -5759 0
5751 -5752 -5753 -5758 -5760 0
5753 5755 5756 -5757 -5760 0
5751 -5753 -5757 5758 -5760 0
-5751 -5753 5755 -5756 5757 -5758 0
-5751 -5755 -5756 5758 -5760 0
-5754 5755 -5756 -5757 -5760 0
5752 -5753 5755 -5756 -5757 -5758 0
-5751 -5752 -5754 5755 5757 5758 0
5752 5754 -5755 5756 -5757 -5758 0
5751 -5752 -5753 -5754 5755 5756 0
-5751 5753 -5754 -5755 -5756 -5758 0
5751 -5752 -5754 -5755 5757 -5758 0
5754 5757 5758 -5760 0
-5754 -5755 5756 -5757 -5760 0
-5751 5752 5753 -5754 5755 5757 0
5751 5752 5753 5755 5756 5761 0
-5754 -5755 -5758 -5760 0
5751 5752 5755 5757 5758 5761 0
-5751 5752 -5754 5755 5756 5758 0
-5751 5752 -5753 5754 -5758 0
-5754 -5761 0
5754 -5755 -5756 5757 5760 0
5753 5755 -5756 5757 5759 0
-5751 5752 5753 5754 5758 0
5754 5755 5756 5757 5761 0
-5758 -5761 0
5751 5753 5754 -5759 0
-5753 -5761 0
-5752 -5761 0
-5759 -5760 0
5759 5760 5761 0
-5752 5753 -5756 -5757 -5758 0
5763 5766 5767 5769 -5771 0
-5763 5764 -5766 -5769 5771 0
5763 -5764 -5766 -5767 5768 -5771 0
5763 5764 5767 5768 5769 -5770 0
-5762 -5764 -5765 -5766 -5767 -5768 5769 0
5762 -5764 -5765 5767 5768 5769 0
5765 -5766 5767 -5768 5771 0
5763 5764 -5767 -5768 5769 5771 0
5763 -5764 -5765 -5767 5768 -5769 0
-5763 5764 -5766 5767 -5768 5771 0
5764 5765 -5766 -5767 -5768 -5771 0
-5762 -5763 -5766 -5767 -5768 -5769 0
-5763 -5764 5767 -5769 -5771 0
5762 5763 5764 -5769 -5771 0
-5763 -5764 -5765 5766 5769 5771 0
5763 -5764 -5766 5767 -5768 5771 0
5762 -5763 -5765 -5766 -5767 -5768 5769 0
5766 5767 5768 -5770 0
-5766 -5767 5768 -5769 5771 0
5762 5764 -5765 5766 5767 5769 0
5763 -5764 5768 5769 -5771 0
5764 -5766 5767 5768 -5769 -5771 0
-5762 -5763 -5765 5767 5768 5769 0
5763 5764 5765 -5768 5769 0
5762 -5765 -5766 5768 -5771 0
5763 -5764 -5765 5767 -5768 -5769 0
5762 5763 5764 -5766 5767 5768 0
-5762 -5763 5765 -5769 5771 0
5765 5766 -5767 -5768 5771 0
-5762 -5763 5765 5769 -5771 0
5762 5763 5765 -5770 0
5762 -5763 -5764 -5769 -5771 0
5764 5766 5767 -5768 -5771 0
5762 -5764 -5768 5769 -5771 0
-5762 -5764 5766 -5767 5768 -5769 0
-5762 -5766 -5767 5769 -5771 0
-5765 5766 -5767 -5768 -5771 0
5763 -5764 5766 -5767 -5768 -5769 0
-5762 -5763 -5765 5766 5768 5769 0
5763 5765 -5766 5767 -5768 -5769 0
5762 -5763 -5764 -5765 5766 5767 0
-5762 5764 -5765 -5766 -5767 -5769 0
5762 -5763 -5765 -5766 5768 -5769 0
5765 5768 5769 -5771 0
-5765 -5766 5767 -5768 -5771 0
-5762 5763 5764 -5765 5766 5768 0
5762 5763 5764 5766 5767 5772 0
-5765 -5766 -5769 -5771 0
5762 5763 5766 5768 5769 5772 0
-5762 5763 -5765 5766 5767 5769 0
-5762 5763 -5764 5765 -5769 0
-5765 -5772 0
5765 -5766 -5767 5768 5771 0
5764 5766 -5767 5768 5770 0
-5762 5763 5764 5765 5769 0
5765 5766 5767 5768 5772 0
-5769 -5772 0
5762 5764 5765 -5770 0
-5764 -5772 0
-5763 -5772 0
-5770 -5771 0
5770 5771 5772 0
-5763 5764 -5767 -5768 -5769 0
5774 5777 5778 5780 -5782 0
-5774 5775 -5777 -5780 5782 0
5774 -5775 -5777 -5778 5779 -5782 0
5774 5775 5778 5779 5780 -5781 0
-5773 -5775 -5776 -5777 -5778 -5779 5780 0
5773 -5775 -5776 5778 5779 5780 0
5776 -5777 5778 -5779 5782 0
5774 5775 -5778 -5779 5780 5782 0
5774 -5775 -5776 -5778 5779 -5780 0
-5774 5775 -5777 5778 -5779 5782 0
5775 5776 -5777 -5778 -5779 -5782 0
-5773 -5774 -5777 -5778 -5779 -5780 0
-5774 -5775 5778 -5780 -5782 0
5773 5774 5775 -5780 -5782 0
-5774 -5775 -5776 5777 5780 5782 0
5774 -5775 -5777 5778 -5779 5782 0
5773 -5774 -5776 -5777 -5778 -5779 5780 0
5777 5778 5779 -5781 0
-5777 -5778 5779 -5780 5782 0
5773 5775 -5776 5777 5778 5780 0
5774 -5775 5779 5780 -5782 0
5775 -5777 5778 5779 -5780 -5782 0
-5773 -5774 -5776 5778 5779 5780 0
5774 5775 5776 -5779 5780 0
5773 -5776 -5777 5779 -5782 0
5774 -5775 -5776 5778 -5779 -5780 0
5773 5774 5775 -5777 5778 5779 0
-5773 -5774 5776 -5780 5782 0
5776 5777 -5778 -5779 5782 0
-5773 -5774 5776 5780 -5782 0
5773 5774 5776 -5781 0
5773 -5774 -5775 -5780 -5782 0
5775 5777 5778 -5779 -5782 0
5773 -5775 -5779 5780 -5782 0
-5773 -5775 5777 -5778 5779 -5780 0
-5773 -5777 -5778 5780 -5782 0
-5776 5777 -5778 -5779 -5782 0
5774 -5775 5777 -5778 -5779 -5780 0
-5773 -5774 -5776 5777 5779 5780 0
5774 5776 -5777 5778 -5779 -5780 0
5773 -5774 -5775 -5776 5777 5778 0
-5773 5775 -5776 -5777 -5778 -5780 0
5773 -5774 -5776 -5777 5779 -5780 0
5776 5779 5780 -5782 0
-5776 -5777 5778 -5779 -5782 0
-5773 5774 5775 -5776 5777 5779 0
5773 5774 5775 5777 5778 5783 0
-5776 -5777 -5780 -5782 0
5773 5774 5777 5779 5780 5783 0
-5773 5774 -5776 5777 5778 5780 0
-5773 5774 -5775 5776 -5780 0
-5776 -5783 0
5776 -5777 -5778 5779 5782 0
5775 5777 -5778 5779 5781 0
-5773 5774 5775 5776 5780 0
5776 5777 5778 5779 5783 0
-5780 -5783 0
5773 5775 5776 -5781 0
-5775 -5783 0
-5774 -5783 0
-5781 -5782 0
5781 5782 5783 0
-5774 5775 -5778 -5779 -5780 0
5785 5788 5789 5791 -5793 0
-5785 5786 -5788 -5791 5793 0
5785 -5786 -5788 -5789 5790 -5793 0
5785 5786 5789 5790 5791 -5792 0
-5784 -5786 -5787 -5788 -5789 -5790 5791 0
5784 -5786 -5787 5789 5790 5791 0
5787 -5788 5789 -5790 5793 0
5785 5786 -5789 -5790 5791 5793 0
5785 -5786 -5787 -5789 5790 -5791 0
-5785 5786 -5788 5789 -5790 5793 0
5786 5787 -5788 -5789 -5790 -5793 0
-5784 -5785 -5788 -5789 -5790 -5791 0
-5785 -5786 5789 -5791 -5793 0
5784 5785 5786 -5791 -5793 0
-5785 -5786 -5787 5788 5791 5793 0
5785 -5786 -5788 5789 -5790 5793 0
5784 -5785 -5787 -5788 -5789 -5790 5791 0
5788 5789 5790 -5792 0
-5788 -5789 5790 -5791 5793 0
5784 5786 -5787 5788 5789 5791 0
5785 -5786 5790 5791 -5793 0
5786 -5788 5789 5790 -5791 -5793 0
-5784 -5785 -5787 5789 5790 5791 0
5785 5786 5787 -5790 5791 0
5784 -5787 -5788 5790 -5793 0
5785 -5786 -5787 5789 -5790 -5791 0
5784 5785 5786 -5788 5789 5790 0
-5784 -5785 5787 -5791 5793 0
5787 5788 -5789 -5790 5793 0
-5784 -5785 5787 5791 -5793 0
5784 5785 5787 -5792 0
5784 -5785 -5786 -5791 -5793 0
5786 5788 5789 -5790 -5793 0
5784 -5786 -5790 5791 -5793 0
-5784 -5786 5788 -5789 5790 -5791 0
-5784 -5788 -5789 5791 -5793 0
-5787 5788 -5789 -5790 -5793 0
5785 -5786 5788 -5789 -5790 -5791 0
-5784 -5785 -5787 5788 5790 5791 0
5785 5787 -5788 5789 -5790 -5791 0
5784 -5785 -5786 -5787 5788 5789 0
-5784 5786 -5787 -5788 -5789 -5791 0
5784 -5785 -5787 -5788 5790 -5791 0
5787 5790 5791 -5793 0
-5787 -5788 5789 -5790 -5793 0
-5784 5785 5786 -5787 5788 5790 0
5784 5785 5786 5788 5789 5794 0
-5787 -5788 -5791 -5793 0
5784 5785 5788 5790 5791 5794 0
-5784 5785 -5787 5788 5789 5791 0
-5784 5785 -5786 5787 -5791 0
-5787 -5794 0
5787 -5788 -5789 5790 5793 0
5786 5788 -5789 5790 5792 0
-5784 5785 5786 5787 5791 0
5787 5788 5789 5790 5794 0
-5791 -5794 0
5784 5786 5787 -5792 0
-5786 -5794 0
-5785 -5794 0
-5792 -5793 0
5792 5793 5794 0
-5785 5786 -5789 -5790 -5791 0
5796 5799 5800 5802 -5804 0
-5796 5797 -5799 -5802 5804 0
5796 -5797 -5799 -5800 5801 -5804 0
5796 5797 5800 5801 5802 -5803 0
-5795 -5797 -5798 -5799 -5800 -5801 5802 0
5795 -5797 -5798 5800 5801 5802 0
5798 -5799 5800 -5801 5804 0
5796 5797 -5800 -5801 5802 5804 0
5796 -5797 -5798 -5800 5801 -5802 0
-5796 5797 -5799 5800 -5801 5804 0
5797 5798 -5799 -5800 -5801 -5804 0
-5795 -5796 -5799 -5800 -5801 -5802 0
-5796 -5797 5800 -5802 -5804 0
5795 5796 5797 -5802 -5804 0
-5796 -5797 -5798 5799 5802 5804 0
5796 -5797 -5799 5800 -5801 5804 0
5795 -5796 -5798 -5799 -5800 -5801 5802 0
5799 5800 5801 -5803 0
-5799 -5800 5801 -5802 5804 0
5795 5797 -5798 5799 5800 5802 0
5796 -5797 5801 5802 -5804 0
5797 -5799 5800 5801 -5802 -5804 0
-5795 -5796 -5798 5800 5801 5802 0
5796 5797 5798 -5801 5802 0
5795 -5798 -5799 5801 -5804 0
5796 -5797 -5798 5800 -5801 -5802 0
5795 5796 5797 -5799 5800 5801 0
-5795 -5796 5798 -5802 5804 0
5798 5799 -5800 -5801 5804 0
-5795 -5796 5798 5802 -5804 0
5795 5796 5798 -5803 0
5795 -5796 -5797 -5802 -5804 0
5797 5799 5800 -5801 -5804 0
5795 -5797 -5801 5802 -5804 0
-5795 -5797 5799 -5800 5801 -5802 0
-5795 -5799 -5800 5802 -5804 0
-5798 5799 -5800 -5801 -5804 0
5796 -5797 5799 -5800 -5801 -5802 0
-5795 -5796 -5798 5799 5801 5802 0
5796 5798 -5799 5800 -5801 -5802 0
5795 -5796 -5797 -5798 5799 5800 0
-5795 5797 -5798 -5799 -5800 -5802 0
5795 -5796 -5798 -5799 5801 -5802 0
5798 5801 5802 -5804 0
-5798 -5799 5800 -5801 -5804 0
-5795 5796 5797 -5798 5799 5801 0
5795 5796 5797 5799 5800 5805 0
-5798 -5799 -5802 -5804 0
5795 5796 5799 5801 5802 5805 0
-5795 5796 -5798 5799 5800 5802 0
-5795 5796 -5797 5798 -5802 0
-5798 -5805 0
5798 -5799 -5800 5801 5804 0
5797 5799 -5800 5801 5803 0
-5795 5796 5797 5798 5802 0
5798 5799 5800 5801 5805 0
-5802 -5805 0
5795 5797 5798 -5803 0
-5797 -5805 0
-5796 -5805 0
-5803 -5804 0
5803 5804 5805 0
-5796 5797 -5800 -5801 -5802 0
5807 5810 5811 5813 -5815 0
-5807 5808 -5810 -5813 5815 0
5807 -5808 -5810 -5811 5812 -5815 0
5807 5808 5811 5812 5813 -5814 0
-5806 -5808 -5809 -5810 -5811 -5812 5813 0
5806 -5808 -5809 5811 5812 5813 0
5809 -5810 5811 -5812 5815 0
5807 5808 -5811 -5812 5813 5815 0
5807 -5808 -5809 -5811 5812 -5813 0
-5807 5808 -5810 5811 -5812 5815 0
5808 5809 -5810 -5811 -5812 -5815 0
-5806 -5807 -5810 -5811 -5812 -5813 0
-5807 -5808 5811 -5813 -5815 0
5806 5807 5808 -5813 -5815 0
-5807 -5808 -5809 5810 5813 5815 0
5807 -5808 -5810 5811 -5812 5815 0
5806 -5807 -5809 -5810 -5811 -5812 5813 0
5810 5811 5812 -5814 0
-5810 -5811 5812 -5813 5815 0
5806 5808 -5809 5810 5811 5813 0
5807 -5808 5812 5813 -5815 0
5808 -5810 5811 5812 -5813 -5815 0
-5806 -5807 -5809 5811 5812 5813 0
5807 5808 5809 -5812 5813 0
5806 -5809 -5810 5812 -5815 0
5807 -5808 -5809 5811 -5812 -5813 0
5806 5807 5808 -5810 5811 5812 0
-5806 -5807 5809 -5813 5815 0
5809 5810 -5811 -5812 5815 0
-5806 -5807 5809 5813 -5815 0
5806 5807 5809 -5814 0
5806 -5807 -5808 -5813 -5815 0
5808 5810 5811 -5812 -5815 0
5806 -5808 -5812 5813 -5815 0
-5806 -5808 5810 -5811 5812 -5813 0
-5806 -5810 -5811 5813 -5815 0
-5809 5810 -5811 -5812 -5815 0
5807 -5808 5810 -5811 -5812 -5813 0
-5806 -5807 -5809 5810 5812 5813 0
5807 5809 -5810 5811 -5812 -5813 0
5806 -5807 -5808 -5809 5810 5811 0
-5806 5808 -5809 -5810 -5811 -5813 0
5806 -5807 -5809 -5810 5812 -5813 0
5809 5812 5813 -5815 0
-5809 -5810 5811 -5812 -5815 0
-5806 5807 5808 -5809 5810 5812 0
5806 5807 5808 5810 5811 5816 0
-5809 -5810 -5813 -5815 0
5806 5807 5810 5812 5813 5816 0
-5806 5807 -5809 5810 5811 5813 0
-5806 5807 -5808 5809 -5813 0
-5809 -5816 0
5809 -5810 -5811 5812 5815 0
5808 5810 -5811 5812 5814 0
-5806 5807 5808 5809 5813 0
5809 5810 5811 5812 5816 0
-5813 -5816 0
5806 5808 5809 -5814 0
-5808 -5816 0
-5807 -5816 0
-5814 -5815 0
5814 5815 5816 0
-5807 5808 -5811 -5812 -5813 0
5818 5821 5822 5824 -5826 0
-5818 5819 -5821 -5824 5826 0
5818 -5819 -5821 -5822 5823 -5826 0
5818 5819 5822 5823 5824 -5825 0
-5817 -5819 -5820 -5821 -5822 -5823 5824 0
5817 -5819 -5820 5822 5823 5824 0
5820 -5821 5822 -5823 5826 0
5818 5819 -5822 -5823 5824 5826 0
5818 -5819 -5820 -5822 5823 -5824 0
-5818 5819 -5821 5822 -5823 5826 0
5819 5820 -5821 -5822 -5823 -5826 0
-5817 -5818 -5821 -5822 -5823 -5824 0
-5818 -5819 5822 -5824 -5826 0
5817 5818 5819 -5824 -5826 0
-5818 -5819 -5820 5821 5824 5826 0
5818 -5819 -5821 5822 -5823 5826 0
5817 -5818 -5820 -5821 -5822 -5823 5824 0
5821 5822 5823 -5825 0
-5821 -5822 5823 -5824 5826 0
5817 5819 -5820 5821 5822 5824 0
5818 -5819 5823 5824 -5826 0
5819 -5821 5822 5823 -5824 -5826 0
-5817 -5818 -5820 5822 5823 5824 0
5818 5819 5820 -5823 5824 0
5817 -5820 -5821 5823 -5826 0
5818 -5819 -5820 5822 -5823 -5824 0
5817 5818 5819 -5821 5822 5823 0
-5817 -5818 5820 -5824 5826 0
5820 5821 -5822 -5823 5826 0
-5817 -5818 5820 5824 -5826 0
5817 5818 5820 -5825 0
5817 -5818 -5819 -5824 -5826 0
5819 5821 5822 -5823 -5826 0
5817 -5819 -5823 5824 -5826 0
-5817 -5819 5821 -5822 5823 -5824 0
-5817 -5821 -5822 5824 -5826 0
-5820 5821 -5822 -5823 -5826 0
5818 -5819 5821 -5822 -5823 -5824 0
-5817 -5818 -5820 5821 5823 5824 0
5818 5820 -5821 5822 -5823 -5824 0
5817 -5818 -5819 -5820 5821 5822 0
-5817 5819 -5820 -5821 -5822 -5824 0
5817 -5818 -5820 -5821 5823 -5824 0
5820 5823 5824 -5826 0
-5820 -5821 5822 -5823 -5826 0
-5817 5818 5819 -5820 5821 5823 0
5817 5818 5819 5821 5822 5827 0
-5820 -5821 -5824 -5826 0
5817 5818 5821 5823 5824 5827 0
-5817 5818 -5820 5821 5822 5824 0
-5817 5818 -5819 5820 -5824 0
-5820 -5827 0
5820 -5821 -5822 5823 5826 0
5819 5821 -5822 5823 5825 0
-5817 5818 5819 5820 5824 0
5820 5821 5822 5823 5827 0
-5824 -5827 0
5817 5819 5820 -5825 0
-5819 -5827 0
-5818 -5827 0
-5825 -5826 0
5825 5826 5827 0
-5818 5819 -5822 -5823 -5824 0
5829 5832 5833 5835 -5837 0
-5829 5830 -5832 -5835 5837 0
5829 -5830 -5832 -5833 5834 -5837 0
5829 5830 5833 5834 5835 -5836 0
-5828 -5830 -5831 -5832 -5833 -5834 5835 0
5828 -5830 -5831 5833 5834 5835 0
5831 -5832 5833 -5834 5837 0
5829 5830 -5833 -5834 5835 5837 0
5829 -5830 -5831 -5833 5834 -5835 0
-5829 5830 -5832 5833 -5834 5837 0
5830 5831 -5832 -5833 -5834 -5837 0
-5828 -5829 -5832 -5833 -5834 -5835 0
-5829 -5830 5833 -5835 -5837 0
5828 5829 5830 -5835 -5837 0
-5829 -5830 -5831 5832 5835 5837 0
5829 -5830 -5832 5833 -5834 5837 0
5828 -5829 -5831 -5832 -5833 -5834 5835 0
5832 5833 5834 -5836 0
-5832 -5833 5834 -5835 5837 0
5828 5830 -5831 5832 5833 5835 0
5829 -5830 5834 5835 -5837 0
5830 -5832 5833 5834 -5835 -5837 0
-5828 -5829 -5831 5833 5834 5835 0
5829 5830 5831 -5834 5835 0
5828 -5831 -5832 5834 -5837 0
5829 -5830 -5831 5833 -5834 -5835 0
5828 5829 5830 -5832 5833 5834 0
-5828 -5829 5831 -5835 5837 0
5831 5832 -5833 -5834 5837 0
-5828 -5829 5831 5835 -5837 0
5828 5829 5831 -5836 0
5828 -5829 -5830 -5835 -5837 0
5830 5832 5833 -5834 -5837 0
5828 -5830 -5834 5835 -5837 0
-5828 -5830 5832 -5833 5834 -5835 0
-5828 -5832 -5833 5835 -5837 0
-5831 5832 -5833 -5834 -5837 0
5829 -5830 5832 -5833 -5834 -5835 0
-5828 -5829 -5831 5832 5834 5835 0
5829 5831 -5832 5833 -5834 -5835 0
5828 -5829 -5830 -5831 5832 5833 0
-5828 5830 -5831 -5832 -5833 -5835 0
5828 -5829 -5831 -5832 5834 -5835 0
5831 5834 5835 -5837 0
-5831 -5832 5833 -5834 -5837 0
-5828 5829 5830 -5831 5832 5834 0
5828 5829 5830 5832 5833 5838 0
-5831 -5832 -5835 -5837 0
5828 5829 5832 5834 5835 5838 0
-5828 5829 -5831 5832 5833 5835 0
-5828 5829 -5830 5831 -5835 0
-5831 -5838 0
5831 -5832 -5833 5834 5837 0
5830 5832 -5833 5834 5836 0
-5828 5829 5830 5831 5835 0
5831 5832 5833 5834 5838 0
-5835 -5838 0
5828 5830 5831 -5836 0
-5830 -5838 0
-5829 -5838 0
-5836 -5837 0
5836 5837 5838 0
-5829 5830 -5833 -5834 -5835 0
5840 5843 5844 5846 -5848 0
-5840 5841 -5843 -5846 5848 0
5840 -5841 -5843 -5844 5845 -5848 0
5840 5841 5844 5845 5846 -5847 0
-5839 -5841 -5842 -5843 -5844 -5845 5846 0
5839 -5841 -5842 5844 5845 5846 0
5842 -5843 5844 -5845 5848 0
5840 5841 -5844 -5845 5846 5848 0
5840 -5841 -5842 -5844 5845 -5846 0
-5840 5841 -5843 5844 -5845 5848 0
5841 5842 -5843 -5844 -5845 -5848 0
-5839 -5840 -5843 -5844 -5845 -5846 0
-5840 -5841 5844 -5846 -5848 0
5839 5840 5841 -5846 -5848 0
-5840 -5841 -5842 5843 5846 5848 0
5840 -5841 -5843 5844 -5845 5848 0
5839 -5840 -5842 -5843 -5844 -5845 5846 0
5843 5844 5845 -5847 0
-5843 -5844 5845 -5846 5848 0
5839 5841 -5842 5843 5844 5846 0
5840 -5841 5845 5846 -5848 0
5841 -5843 5844 5845 -5846 -5848 0
-5839 -5840 -5842 5844 5845 5846 0
5840 5841 5842 -5845 5846 0
5839 -5842 -5843 5845 -5848 0
5840 -5841 -5842 5844 -5845 -5846 0
5839 5840 5841 -5843 5844 5845 0
-5839 -5840 5842 -5846 5848 0
5842 5843 -5844 -5845 5848 0
-5839 -5840 5842 5846 -5848 0
5839 5840 5842 -5847 0
5839 -5840 -5841 -5846 -5848 0
5841 5843 5844 -5845 -5848 0
5839 -5841 -5845 5846 -5848 0
-5839 -5841 5843 -5844 5845 -5846 0
-5839 -5843 -5844 5846 -5848 0
-5842 5843 -5844 -5845 -5848 0
5840 -5841 5843 -5844 -5845 -5846 0
-5839 -5840 -5842 5843 5845 5846 0
5840 5842 -5843 5844 -5845 -5846 0
5839 -5840 -5841 -5842 5843 5844 0
-5839 5841 -5842 -5843 -5844 -5846 0
5839 -5840 -5842 -5843 5845 -5846 0
5842 5845 5846 -5848 0
-5842 -5843 5844 -5845 -5848 0
-5839 5840 5841 -5842 5843 5845 0
5839 5840 5841 5843 5844 5849 0
-5842 -5843 -5846 -5848 0
5839 5840 5843 5845 5846 5849 0
-5839 5840 -5842 5843 5844 5846 0
-5839 5840 -5841 5842 -5846 0
-5842 -5849 0
5842 -5843 -5844 5845 5848 0
5841 5843 -5844 5845 5847 0
-5839 5840 5841 5842 5846 0
5842 5843 5844 5845 5849 0
-5846 -5849 0
5839 5841 5842 -5847 0
-5841 -5849 0
-5840 -5849 0
-5847 -5848 0
5847 5848 5849 0
-5840 5841 -5844 -5845 -5846 0
5851 5854 5855 5857 -5859 0
-5851 5852 -5854 -5857 5859 0
5851 -5852 -5854 -5855 5856 -5859 0
5851 5852 5855 5856 5857 -5858 0
-5850 -5852 -5853 -5854 -5855 -5856 5857 0
5850 -5852 -5853 5855 5856 5857 0
5853 -5854 5855 -5856 5859 0
5851 5852 -5855 -5856 5857 5859 0
5851 -5852 -5853 -5855 5856 -5857 0
-5851 5852 -5854 5855 -5856 5859 0
5852 5853 -5854 -5855 -5856 -5859 0
-5850 -5851 -5854 -5855 -5856 -5857 0
-5851 -5852 5855 -5857 -5859 0
5850 5851 5852 -5857 -5859 0
-5851 -5852 -5853 5854 5857 5859 0
5851 -5852 -5854 5855 -5856 5859 0
5850 -5851 -5853 -5854 -5855 -5856 5857 0
5854 5855 5856 -5858 0
-5854 -5855 5856 -5857 5859 0
5850 5852 -5853 5854 5855 5857 0
5851 -5852 5856 5857 -5859 0
5852 -5854 5855 5856 -5857 -5859 0
-5850 -5851 -5853 5855 5856 5857 0
5851 5852 5853 -5856 5857 0
5850 -5853 -5854 5856 -5859 0
5851 -5852 -5853 5855 -5856 -5857 0
5850 5851 5852 -5854 5855 5856 0
-5850 -5851 5853 -5857 5859 0
5853 5854 -5855 -5856 5859 0
-5850 -5851 5853 5857 -5859 0
5850 5851 5853 -5858 0
5850 -5851 -5852 -5857 -5859 0
5852 5854 5855 -5856 -5859 0
5850 -5852 -5856 5857 -5859 0
-5850 -5852 5854 -5855 5856 -5857 0
-5850 -5854 -5855 5857 -5859 0
-5853 5854 -5855 -5856 -5859 0
5851 -5852 5854 -5855 -5856 -5857 0
-5850 -5851 -5853 5854 5856 5857 0
5851 5853 -5854 5855 -5856 -5857 0
5850 -5851 -5852 -5853 5854 5855 0
-5850 5852 -5853 -5854 -5855 -5857 0
5850 -5851 -5853 -5854 5856 -5857 0
5853 5856 5857 -5859 0
-5853 -5854 5855 -5856 -5859 0
-5850 5851 5852 -5853 5854 5856 0
5850 5851 5852 5854 5855 5860 0
-5853 -5854 -5857 -5859 0
5850 5851 5854 5856 5857 5860 0
-5850 5851 -5853 5854 5855 5857 0
-5850 5851 -5852 5853 -5857 0
-5853 -5860 0
5853 -5854 -5855 5856 5859 0
5852 5854 -5855 5856 5858 0
-5850 5851 5852 5853 5857 0
5853 5854 5855 5856 5860 0
-5857 -5860 0
5850 5852 5853 -5858 0
-5852 -5860 0
-5851 -5860 0
-5858 -5859 0
5858 5859 5860 0
-5851 5852 -5855 -5856 -5857 0
-5989 5861 0
5989 -5861 0
-5990 5862 0
5990 -5862 0
-5991 5863 0
5991 -5863 0
-5992 5864 0
5992 -5864 0
-5993 5865 0
5993 -5865 0
-5994 5866 0
5994 -5866 0
-5995 5867 0
5995 -5867 0
-5996 5868 0
5996 -5868 0
-5997 5869 0
5997 -5869 0
-5998 5870 0
5998 -5870 0
-5999 5871 0
5999 -5871 0
-6000 5872 0
6000 -5872 0
-6001 5873 0
6001 -5873 0
-6002 5874 0
6002 -5874 0
-6003 5875 0
6003 -5875 0
-6004 5876 0
6004 -5876 0
-6005 5877 0
6005 -5877 0
-6006 5878 0
6006 -5878 0
-6007 5879 0
6007 -5879 0
-6008 5880 0
6008 -5880 0
-6009 5881 0
6009 -5881 0
-6010 5882 0
6010 -5882 0
-6011 5883 0
6011 -5883 0
-6012 5884 0
6012 -5884 0
-6013 5885 0
6013 -5885 0
-6014 5886 0
6014 -5886 0
-6015 5887 0
6015 -5887 0
-6016 5888 0
6016 -5888 0
-6017 5889 0
6017 -5889 0
-6018 5890 0
6018 -5890 0
-6019 5891 0
6019 -5891 0
-6020 5892 0
6020 -5892 0
-6021 5893 0
6021 -5893 0
-6022 5894 0
6022 -5894 0
-6023 5895 0
6023 -5895 0
-6024 5896 0
6024 -5896 0
-6025 5897 0
6025 -5897 0
-6026 5898 0
6026 -5898 0
-6027 5899 0
6027 -5899 0
-6028 5900 0
6028 -5900 0
-6029 5901 0
6029 -5901 0
-6030 5902 0
6030 -5902 0
-6031 5903 0
6031 -5903 0
-6032 5904 0
6032 -5904 0
-6033 5905 0
6033 -5905 0
-6034 5906 0
6034 -5906 0
-6035 5907 0
6035 -5907 0
-6036 5908 0
6036 -5908 0
-6037 5909 0
6037 -5909 0
-6038 5910 0
6038 -5910 0
-6039 5911 0
6039 -5911 0
-6040 5912 0
6040 -5912 0
-6041 5913 0
6041 -5913 0
-6042 5914 0
6042 -5914 0
-6043 5915 0
6043 -5915 0
-6044 5916 0
6044 -5916 0
-6045 5917 0
6045 -5917 0
-6046 5918 0
6046 -5918 0
-6047 5919 0
6047 -5919 0
-6048 5920 0
6048 -5920 0
-6049 5921 0
6049 -5921 0
-6050 5922 0
6050 -5922 0
-6051 5923 0
6051 -5923 0
-6052 5924 0
6052 -5924 0
-6053 5925 0
6053 -5925 0
-6054 5926 0
6054 -5926 0
-6055 5927 0
6055 -5927 0
-6056 5928 0
6056 -5928 0
-6057 5929 0
6057 -5929 0
-6058 5930 0
6058 -5930 0
-6059 5931 0
6059 -5931 0
-6060 5932 0
6060 -5932 0
-6061 5933 0
6061 -5933 0
-6062 5934 0
6062 -5934 0
-6063 5935 0
6063 -5935 0
-6064 5936 0
6064 -5936 0
-6065 5937 0
6065 -5937 0
-6066 5938 0
6066 -5938 0
-6067 5939 0
6067 -5939 0
-6068 5940 0
6068 -5940 0
-6069 5941 0
6069 -5941 0
-6070 5942 0
6070 -5942 0
-6071 5943 0
6071 -5943 0
-6072 5944 0
6072 -5944 0
-6073 5945 0
6073 -5945 0
-6074 5946 0
6074 -5946 0
-6075 5947 0
6075 -5947 0
-6076 5948 0
6076 -5948 0
-6077 5949 0
6077 -5949 0
-6078 5950 0
6078 -5950 0
-6079 5951 0
6079 -5951 0
-6080 5952 0
6080 -5952 0
-6081 5953 0
6081 -5953 0
-6082 5954 0
6082 -5954 0
-6083 5955 0
6083 -5955 0
-6084 5956 0
6084 -5956 0
-6085 5957 0
6085 -5957 0
-6086 5958 0
6086 -5958 0
-6087 5959 0
6087 -5959 0
-6088 5960 0
6088 -5960 0
-6089 5961 0
6089 -5961 0
-6090 5962 0
6090 -5962 0
-6091 5963 0
6091 -5963 0
-6092 5964 0
6092 -5964 0
-6093 5965 0
6093 -5965 0
-6094 5966 0
6094 -5966 0
-6095 5967 0
6095 -5967 0
-6096 5968 0
6096 -5968 0
-6097 5969 0
6097 -5969 0
-6098 5970 0
6098 -5970 0
-6099 5971 0
6099 -5971 0
-6100 5972 0
6100 -5972 0
-6101 5973 0
6101 -5973 0
-6102 5974 0
6102 -5974 0
-6103 5975 0
6103 -5975 0
-6104 5976 0
6104 -5976 0
-6105 5977 0
6105 -5977 0
-6106 5978 0
6106 -5978 0
-6107 5979 0
6107 -5979 0
-6108 5980 0
6108 -5980 0
-6109 5981 0
6109 -5981 0
-6110 5982 0
6110 -5982 0
-6111 5983 0
6111 -5983 0
-6112 5984 0
6112 -5984 0
-6113 5985 0
6113 -5985 0
-6114 5986 0
6114 -5986 0
-6115 5987 0
6115 -5987 0
-6116 5988 0
6116 -5988 0
4997 -5253 0
-4997 5253 0
4998 -5254 0
-4998 5254 0
4999 -5255 0
-4999 5255 0
5000 -5256 0
-5000 5256 0
5001 -5257 0
-5001 5257 0
5002 -5258 0
-5002 5258 0
5003 -5259 0
-5003 5259 0
5004 -5260 0
-5004 5260 0
5005 -5261 0
-5005 5261 0
5006 -5262 0
-5006 5262 0
5007 -5263 0
-5007 5263 0
5008 -5264 0
-5008 5264 0
5009 -5265 0
-5009 5265 0
5010 -5266 0
-5010 5266 0
5011 -5267 0
-5011 5267 0
5012 -5268 0
-5012 5268 0
5013 -5269 0
-5013 5269 0
5014 -5270 0
-5014 5270 0
5015 -5271 0
-5015 5271 0
5016 -5272 0
-5016 5272 0
5017 -5273 0
-5017 5273 0
5018 -5274 0
-5018 5274 0
5019 -5275 0
-5019 5275 0
5020 -5276 0
-5020 5276 0
5021 -5277 0
-5021 5277 0
5022 -5278 0
-5022 5278 0
5023 -5279 0
-5023 5279 0
5024 -5280 0
-5024 5280 0
5025 -5281 0
-5025 5281 0
5026 -5282 0
-5026 5282 0
5027 -5283 0
-5027 5283 0
5028 -5284 0
-5028 5284 0
5029 -5285 0
-5029 5285 0
5030 -5286 0
-5030 5286 0
5031 -5287 0
-5031 5287 0
5032 -5288 0
-5032 5288 0
5033 -5289 0
-5033 5289 0
5034 -5290 0
-5034 5290 0
5035 -5291 0
-5035 5291 0
5036 -5292 0
-5036 5292 0
5037 -5293 0
-5037 5293 0
5038 -5294 0
-5038 5294 0
5039 -5295 0
-5039 5295 0
5040 -5296 0
-5040 5296 0
5041 -5297 0
-5041 5297 0
5042 -5298 0
-5042 5298 0
5043 -5299 0
-5043 5299 0
5044 -5300 0
-5044 5300 0
5045 -5301 0
-5045 5301 0
5046 -5302 0
-5046 5302 0
5047 -5303 0
-5047 5303 0
5048 -5304 0
-5048 5304 0
5049 -5305 0
-5049 5305 0
5050 -5306 0
-5050 5306 0
5051 -5307 0
-5051 5307 0
5052 -5308 0
-5052 5308 0
5053 -5309 0
-5053 5309 0
5054 -5310 0
-5054 5310 0
5055 -5311 0
-5055 5311 0
5056 -5312 0
-5056 5312 0
5057 -5313 0
-5057 5313 0
5058 -5314 0
-5058 5314 0
5059 -5315 0
-5059 5315 0
5060 -5316 0
-5060 5316 0
5061 -5317 0
-5061 5317 0
5062 -5318 0
-5062 5318 0
5063 -5319 0
-5063 5319 0
5064 -5320 0
-5064 5320 0
5065 -5321 0
-5065 5321 0
5066 -5322 0
-5066 5322 0
5067 -5323 0
-5067 5323 0
5068 -5324 0
-5068 5324 0
5069 -5325 0
-5069 5325 0
5070 -5326 0
-5070 5326 0
5071 -5327 0
-5071 5327 0
5072 -5328 0
-5072 5328 0
5073 -5329 0
-5073 5329 0
5074 -5330 0
-5074 5330 0
5075 -5331 0
-5075 5331 0
5076 -5332 0
-5076 5332 0
5077 -5333 0
-5077 5333 0
5078 -5334 0
-5078 5334 0
5079 -5335 0
-5079 5335 0
5080 -5336 0
-5080 5336 0
5081 -5337 0
-5081 5337 0
5082 -5338 0
-5082 5338 0
5083 -5339 0
-5083 5339 0
5084 -5340 0
-5084 5340 0
5085 -5341 0
-5085 5341 0
5086 -5342 0
-5086 5342 0
5087 -5343 0
-5087 5343 0
5088 -5344 0
-5088 5344 0
5089 -5345 0
-5089 5345 0
5090 -5346 0
-5090 5346 0
5091 -5347 0
-5091 5347 0
5092 -5348 0
-5092 5348 0
5093 -5349 0
-5093 5349 0
5094 -5350 0
-5094 5350 0
5095 -5351 0
-5095 5351 0
5096 -5352 0
-5096 5352 0
5097 -5353 0
-5097 5353 0
5098 -5354 0
-5098 5354 0
5099 -5355 0
-5099 5355 0
5100 -5356 0
-5100 5356 0
5101 -5357 0
-5101 5357 0
5102 -5358 0
-5102 5358 0
5103 -5359 0
-5103 5359 0
5104 -5360 0
-5104 5360 0
5105 -5361 0
-5105 5361 0
5106 -5362 0
-5106 5362 0
5107 -5363 0
-5107 5363 0
5108 -5364 0
-5108 5364 0
5109 -5365 0
-5109 5365 0
5110 -5366 0
-5110 5366 0
5111 -5367 0
-5111 5367 0
5112 -5368 0
-5112 5368 0
5113 -5369 0
-5113 5369 0
5114 -5370 0
-5114 5370 0
5115 -5371 0
-5115 5371 0
5116 -5372 0
-5116 5372 0
5117 -5373 0
-5117 5373 0
5118 -5374 0
-5118 5374 0
5119 -5375 0
-5119 5375 0
5120 -5376 0
-5120 5376 0
5121 -5377 0
-5121 5377 0
5122 -5378 0
-5122 5378 0
5123 -5379 0
-5123 5379 0
5124 -5380 0
-5124 5380 0
5989 -5125 0
-5989 5125 0
5990 -5126 0
-5990 5126 0
5991 -5127 0
-5991 5127 0
5992 -5128 0
-5992 5128 0
5993 -5129 0
-5993 5129 0
5994 -5130 0
-5994 5130 0
5995 -5131 0
-5995 5131 0
5996 -5132 0
-5996 5132 0
5997 -5133 0
-5997 5133 0
5998 -5134 0
-5998 5134 0
5999 -5135 0
-5999 5135 0
6000 -5136 0
-6000 5136 0
6001 -5137 0
-6001 5137 0
6002 -5138 0
-6002 5138 0
6003 -5139 0
-6003 5139 0
6004 -5140 0
-6004 5140 0
6005 -5141 0
-6005 5141 0
6006 -5142 0
-6006 5142 0
6007 -5143 0
-6007 5143 0
6008 -5144 0
-6008 5144 0
6009 -5145 0
-6009 5145 0
6010 -5146 0
-6010 5146 0
6011 -5147 0
-6011 5147 0
6012 -5148 0
-6012 5148 0
6013 -5149 0
-6013 5149 0
6014 -5150 0
-6014 5150 0
6015 -5151 0
-6015 5151 0
6016 -5152 0
-6016 5152 0
6017 -5153 0
-6017 5153 0
6018 -5154 0
-6018 5154 0
6019 -5155 0
-6019 5155 0
6020 -5156 0
-6020 5156 0
6021 -5157 0
-6021 5157 0
6022 -5158 0
-6022 5158 0
6023 -5159 0
-6023 5159 0
6024 -5160 0
-6024 5160 0
6025 -5161 0
-6025 5161 0
6026 -5162 0
-6026 5162 0
6027 -5163 0
-6027 5163 0
6028 -5164 0
-6028 5164 0
6029 -5165 0
-6029 5165 0
6030 -5166 0
-6030 5166 0
6031 -5167 0
-6031 5167 0
6032 -5168 0
-6032 5168 0
6033 -5169 0
-6033 5169 0
6034 -5170 0
-6034 5170 0
6035 -5171 0
-6035 5171 0
6036 -5172 0
-6036 5172 0
6037 -5173 0
-6037 5173 0
6038 -5174 0
-6038 5174 0
6039 -5175 0
-6039 5175 0
6040 -5176 0
-6040 5176 0
6041 -5177 0
-6041 5177 0
6042 -5178 0
-6042 5178 0
6043 -5179 0
-6043 5179 0
6044 -5180 0
-6044 5180 0
6045 -5181 0
-6045 5181 0
6046 -5182 0
-6046 5182 0
6047 -5183 0
-6047 5183 0
6048 -5184 0
-6048 5184 0
6049 -5185 0
-6049 5185 0
6050 -5186 0
-6050 5186 0
6051 -5187 0
-6051 5187 0
6052 -5188 0
-6052 5188 0
6053 -5189 0
-6053 5189 0
6054 -5190 0
-6054 5190 0
6055 -5191 0
-6055 5191 0
6056 -5192 0
-6056 5192 0
6057 -5193 0
-6057 5193 0
6058 -5194 0
-6058 5194 0
6059 -5195 0
-6059 5195 0
6060 -5196 0
-6060 5196 0
6061 -5197 0
-6061 5197 0
6062 -5198 0
-6062 5198 0
6063 -5199 0
-6063 5199 0
6064 -5200 0
-6064 5200 0
6065 -5201 0
-6065 5201 0
6066 -5202 0
-6066 5202 0
6067 -5203 0
-6067 5203 0
6068 -5204 0
-6068 5204 0
6069 -5205 0
-6069 5205 0
6070 -5206 0
-6070 5206 0
6071 -5207 0
-6071 5207 0
6072 -5208 0
-6072 5208 0
6073 -5209 0
-6073 5209 0
6074 -5210 0
-6074 5210 0
6075 -5211 0
-6075 5211 0
6076 -5212 0
-6076 5212 0
6077 -5213 0
-6077 5213 0
6078 -5214 0
-6078 5214 0
6079 -5215 0
-6079 5215 0
6080 -5216 0
-6080 5216 0
6081 -5217 0
-6081 5217 0
6082 -5218 0
-6082 5218 0
6083 -5219 0
-6083 5219 0
6084 -5220 0
-6084 5220 0
6085 -5221 0
-6085 5221 0
6086 -5222 0
-6086 5222 0
6087 -5223 0
-6087 5223 0
6088 -5224 0
-6088 5224 0
6089 -5225 0
-6089 5225 0
6090 -5226 0
-6090 5226 0
6091 -5227 0
-6091 5227 0
6092 -5228 0
-6092 5228 0
6093 -5229 0
-6093 5229 0
6094 -5230 0
-6094 5230 0
6095 -5231 0
-6095 5231 0
6096 -5232 0
-6096 5232 0
6097 -5233 0
-6097 5233 0
6098 -5234 0
-6098 5234 0
6099 -5235 0
-6099 5235 0
6100 -5236 0
-6100 5236 0
6101 -5237 0
-6101 5237 0
6102 -5238 0
-6102 5238 0
6103 -5239 0
-6103 5239 0
6104 -5240 0
-6104 5240 0
6105 -5241 0
-6105 5241 0
6106 -5242 0
-6106 5242 0
6107 -5243 0
-6107 5243 0
6108 -5244 0
-6108 5244 0
6109 -5245 0
-6109 5245 0
6110 -5246 0
-6110 5246 0
6111 -5247 0
-6111 5247 0
6112 -5248 0
-6112 5248 0
6113 -5249 0
-6113 5249 0
6114 -5250 0
-6114 5250 0
6115 -5251 0
-6115 5251 0
6116 -5252 0
-6116 5252 0
-5505 5509 0
5505 -5509 0
-5506 5510 0
5506 -5510 0
-5507 5511 0
5507 -5511 0
-5508 5512 0
5508 -5512 0
-5501 5520 0
5501 -5520 0
-5502 5521 0
5502 -5521 0
-5503 5522 0
5503 -5522 0
-5504 5523 0
5504 -5523 0
-5497 5531 0
5497 -5531 0
-5498 5532 0
5498 -5532 0
-5499 5533 0
5499 -5533 0
-5500 5534 0
5500 -5534 0
-5493 5542 0
5493 -5542 0
-5494 5543 0
5494 -5543 0
-5495 5544 0
5495 -5544 0
-5496 5545 0
5496 -5545 0
-5489 5553 0
5489 -5553 0
-5490 5554 0
5490 -5554 0
-5491 5555 0
5491 -5555 0
-5492 5556 0
5492 -5556 0
-5485 5564 0
5485 -5564 0
-5486 5565 0
5486 -5565 0
-5487 5566 0
5487 -5566 0
-5488 5567 0
5488 -5567 0
-5481 5575 0
5481 -5575 0
-5482 5576 0
5482 -5576 0
-5483 5577 0
5483 -5577 0
-5484 5578 0
5484 -5578 0
-5477 5586 0
5477 -5586 0
-5478 5587 0
5478 -5587 0
-5479 5588 0
5479 -5588 0
-5480 5589 0
5480 -5589 0
-5473 5597 0
5473 -5597 0
-5474 5598 0
5474 -5598 0
-5475 5599 0
5475 -5599 0
-5476 5600 0
5476 -5600 0
-5469 5608 0
5469 -5608 0
-5470 5609 0
5470 -5609 0
-5471 5610 0
5471 -5610 0
-5472 5611 0
5472 -5611 0
-5465 5619 0
5465 -5619 0
-5466 5620 0
5466 -5620 0
-5467 5621 0
5467 -5621 0
-5468 5622 0
5468 -5622 0
-5461 5630 0
5461 -5630 0
-5462 5631 0
5462 -5631 0
-5463 5632 0
5463 -5632 0
-5464 5633 0
5464 -5633 0
-5457 5641 0
5457 -5641 0
-5458 5642 0
5458 -5642 0
-5459 5643 0
5459 -5643 0
-5460 5644 0
5460 -5644 0
-5453 5652 0
5453 -5652 0
-5454 5653 0
5454 -5653 0
-5455 5654 0
5455 -5654 0
-5456 5655 0
5456 -5655 0
-5449 5663 0
5449 -5663 0
-5450 5664 0
5450 -5664 0
-5451 5665 0
5451 -5665 0
-5452 5666 0
5452 -5666 0
-5445 5674 0
5445 -5674 0
-5446 5675 0
5446 -5675 0
-5447 5676 0
5447 -5676 0
-5448 5677 0
5448 -5677 0
-5441 5685 0
5441 -5685 0
-5442 5686 0
5442 -5686 0
-5443 5687 0
5443 -5687 0
-5444 5688 0
5444 -5688 0
-5437 5696 0
5437 -5696 0
-5438 5697 0
5438 -5697 0
-5439 5698 0
5439 -5698 0
-5440 5699 0
5440 -5699 0
-5433 5707 0
5433 -5707 0
-5434 5708 0
5434 -5708 0
-5435 5709 0
5435 -5709 0
-5436 5710 0
5436 -5710 0
-5429 5718 0
5429 -5718 0
-5430 5719 0
5430 -5719 0
-5431 5720 0
5431 -5720 0
-5432 5721 0
5432 -5721 0
-5425 5729 0
5425 -5729 0
-5426 5730 0
5426 -5730 0
-5427 5731 0
5427 -5731 0
-5428 5732 0
5428 -5732 0
-5421 5740 0
5421 -5740 0
-5422 5741 0
5422 -5741 0
-5423 5742 0
5423 -5742 0
-5424 5743 0
5424 -5743 0
-5417 5751 0
5417 -5751 0
-5418 5752 0
5418 -5752 0
-5419 5753 0
5419 -5753 0
-5420 5754 0
5420 -5754 0
-5413 5762 0
5413 -5762 0
-5414 5763 0
5414 -5763 0
-5415 5764 0
5415 -5764 0
-5416 5765 0
5416 -5765 0
-5409 5773 0
5409 -5773 0
-5410 5774 0
5410 -5774 0
-5411 5775 0
5411 -5775 0
-5412 5776 0
5412 -5776 0
-5405 5784 0
5405 -5784 0
-5406 5785 0
5406 -5785 0
-5407 5786 0
5407 -5786 0
-5408 5787 0
5408 -5787 0
-5401 5795 0
5401 -5795 0
-5402 5796 0
5402 -5796 0
-5403 5797 0
5403 -5797 0
-5404 5798 0
5404 -5798 0
-5397 5806 0
5397 -5806 0
-5398 5807 0
5398 -5807 0
-5399 5808 0
5399 -5808 0
-5400 5809 0
5400 -5809 0
-5393 5817 0
5393 -5817 0
-5394 5818 0
5394 -5818 0
-5395 5819 0
5395 -5819 0
-5396 5820 0
5396 -5820 0
-5389 5828 0
5389 -5828 0
-5390 5829 0
5390 -5829 0
-5391 5830 0
5391 -5830 0
-5392 5831 0
5392 -5831 0
-5385 5839 0
5385 -5839 0
-5386 5840 0
5386 -5840 0
-5387 5841 0
5387 -5841 0
-5388 5842 0
5388 -5842 0
-5381 5850 0
5381 -5850 0
-5382 5851 0
5382 -5851 0
-5383 5852 0
5383 -5852 0
-5384 5853 0
5384 -5853 0
-5854 5861 0
5854 -5861 0
-5855 5862 0
5855 -5862 0
-5856 5863 0
5856 -5863 0
-5857 5864 0
5857 -5864 0
-5843 5865 0
5843 -5865 0
-5844 5866 0
5844 -5866 0
-5845 5867 0
5845 -5867 0
-5846 5868 0
5846 -5868 0
-5832 5869 0
5832 -5869 0
-5833 5870 0
5833 -5870 0
-5834 5871 0
5834 -5871 0
-5835 5872 0
5835 -5872 0
-5821 5873 0
5821 -5873 0
-5822 5874 0
5822 -5874 0
-5823 5875 0
5823 -5875 0
-5824 5876 0
5824 -5876 0
-5810 5877 0
5810 -5877 0
-5811 5878 0
5811 -5878 0
-5812 5879 0
5812 -5879 0
-5813 5880 0
5813 -5880 0
-5799 5881 0
5799 -5881 0
-5800 5882 0
5800 -5882 0
-5801 5883 0
5801 -5883 0
-5802 5884 0
5802 -5884 0
-5788 5885 0
5788 -5885 0
-5789 5886 0
5789 -5886 0
-5790 5887 0
5790 -5887 0
-5791 5888 0
5791 -5888 0
-5777 5889 0
5777 -5889 0
-5778 5890 0
5778 -5890 0
-5779 5891 0
5779 -5891 0
-5780 5892 0
5780 -5892 0
-5766 5893 0
5766 -5893 0
-5767 5894 0
5767 -5894 0
-5768 5895 0
5768 -5895 0
-5769 5896 0
5769 -5896 0
-5755 5897 0
5755 -5897 0
-5756 5898 0
5756 -5898 0
-5757 5899 0
5757 -5899 0
-5758 5900 0
5758 -5900 0
-5744 5901 0
5744 -5901 0
-5745 5902 0
5745 -5902 0
-5746 5903 0
5746 -5903 0
-5747 5904 0
5747 -5904 0
-5733 5905 0
5733 -5905 0
-5734 5906 0
5734 -5906 0
-5735 5907 0
5735 -5907 0
-5736 5908 0
5736 -5908 0
-5722 5909 0
5722 -5909 0
-5723 5910 0
5723 -5910 0
-5724 5911 0
5724 -5911 0
-5725 5912 0
5725 -5912 0
-5711 5913 0
5711 -5913 0
-5712 5914 0
5712 -5914 0
-5713 5915 0
5713 -5915 0
-5714 5916 0
5714 -5916 0
-5700 5917 0
5700 -5917 0
-5701 5918 0
5701 -5918 0
-5702 5919 0
5702 -5919 0
-5703 5920 0
5703 -5920 0
-5689 5921 0
5689 -5921 0
-5690 5922 0
5690 -5922 0
-5691 5923 0
5691 -5923 0
-5692 5924 0
5692 -5924 0
-5678 5925 0
5678 -5925 0
-5679 5926 0
5679 -5926 0
-5680 5927 0
5680 -5927 0
-5681 5928 0
5681 -5928 0
-5667 5929 0
5667 -5929 0
-5668 5930 0
5668 -5930 0
-5669 5931 0
5669 -5931 0
-5670 5932 0
5670 -5932 0
-5656 5933 0
5656 -5933 0
-5657 5934 0
5657 -5934 0
-5658 5935 0
5658 -5935 0
-5659 5936 0
5659 -5936 0
-5645 5937 0
5645 -5937 0
-5646 5938 0
5646 -5938 0
-5647 5939 0
5647 -5939 0
-5648 5940 0
5648 -5940 0
-5634 5941 0
5634 -5941 0
-5635 5942 0
5635 -5942 0
-5636 5943 0
5636 -5943 0
-5637 5944 0
5637 -5944 0
-5623 5945 0
5623 -5945 0
-5624 5946 0
5624 -5946 0
-5625 5947 0
5625 -5947 0
-5626 5948 0
5626 -5948 0
-5612 5949 0
5612 -5949 0
-5613 5950 0
5613 -5950 0
-5614 5951 0
5614 -5951 0
-5615 5952 0
5615 -5952 0
-5601 5953 0
5601 -5953 0
-5602 5954 0
5602 -5954 0
-5603 5955 0
5603 -5955 0
-5604 5956 0
5604 -5956 0
-5590 5957 0
5590 -5957 0
-5591 5958 0
5591 -5958 0
-5592 5959 0
5592 -5959 0
-5593 5960 0
5593 -5960 0
-5579 5961 0
5579 -5961 0
-5580 5962 0
5580 -5962 0
-5581 5963 0
5581 -5963 0
-5582 5964 0
5582 -5964 0
-5568 5965 0
5568 -5965 0
-5569 5966 0
5569 -5966 0
-5570 5967 0
5570 -5967 0
-5571 5968 0
5571 -5968 0
-5557 5969 0
5557 -5969 0
-5558 5970 0
5558 -5970 0
-5559 5971 0
5559 -5971 0
-5560 5972 0
5560 -5972 0
-5546 5973 0
5546 -5973 0
-5547 5974 0
5547 -5974 0
-5548 5975 0
5548 -5975 0
-5549 5976 0
5549 -5976 0
-5535 5977 0
5535 -5977 0
-5536 5978 0
5536 -5978 0
-5537 5979 0
5537 -5979 0
-5538 5980 0
5538 -5980 0
-5524 5981 0
5524 -5981 0
-5525 5982 0
5525 -5982 0
-5526 5983 0
5526 -5983 0
-5527 5984 0
5527 -5984 0
-5513 5985 0
5513 -5985 0
-5514 5986 0
5514 -5986 0
-5515 5987 0
5515 -5987 0
-5516 5988 0
5516 -5988 0
6245 -6117 0
-6245 6117 0
6246 -6118 0
-6246 6118 0
6247 -6119 0
-6247 6119 0
6248 -6120 0
-6248 6120 0
6249 -6121 0
-6249 6121 0
6250 -6122 0
-6250 6122 0
6251 -6123 0
-6251 6123 0
6252 -6124 0
-6252 6124 0
6253 -6125 0
-6253 6125 0
6254 -6126 0
-6254 6126 0
6255 -6127 0
-6255 6127 0
6256 -6128 0
-6256 6128 0
6257 -6129 0
-6257 6129 0
6258 -6130 0
-6258 6130 0
6259 -6131 0
-6259 6131 0
6260 -6132 0
-6260 6132 0
6261 -6133 0
-6261 6133 0
6262 -6134 0
-6262 6134 0
6263 -6135 0
-6263 6135 0
6264 -6136 0
-6264 6136 0
6265 -6137 0
-6265 6137 0
6266 -6138 0
-6266 6138 0
6267 -6139 0
-6267 6139 0
6268 -6140 0
-6268 6140 0
6269 -6141 0
-6269 6141 0
6270 -6142 0
-6270 6142 0
6271 -6143 0
-6271 6143 0
6272 -6144 0
-6272 6144 0
6273 -6145 0
-6273 6145 0
6274 -6146 0
-6274 6146 0
6275 -6147 0
-6275 6147 0
6276 -6148 0
-6276 6148 0
6277 -6149 0
-6277 6149 0
6278 -6150 0
-6278 6150 0
6279 -6151 0
-6279 6151 0
6280 -6152 0
-6280 6152 0
6281 -6153 0
-6281 6153 0
6282 -6154 0
-6282 6154 0
6283 -6155 0
-6283 6155 0
6284 -6156 0
-6284 6156 0
6285 -6157 0
-6285 6157 0
6286 -6158 0
-6286 6158 0
6287 -6159 0
-6287 6159 0
6288 -6160 0
-6288 6160 0
6289 -6161 0
-6289 6161 0
6290 -6162 0
-6290 6162 0
6291 -6163 0
-6291 6163 0
6292 -6164 0
-6292 6164 0
6293 -6165 0
-6293 6165 0
6294 -6166 0
-6294 6166 0
6295 -6167 0
-6295 6167 0
6296 -6168 0
-6296 6168 0
6297 -6169 0
-6297 6169 0
6298 -6170 0
-6298 6170 0
6299 -6171 0
-6299 6171 0
6300 -6172 0
-6300 6172 0
6301 -6173 0
-6301 6173 0
6302 -6174 0
-6302 6174 0
6303 -6175 0
-6303 6175 0
6304 -6176 0
-6304 6176 0
6305 -6177 0
-6305 6177 0
6306 -6178 0
-6306 6178 0
6307 -6179 0
-6307 6179 0
6308 -6180 0
-6308 6180 0
6309 -6181 0
-6309 6181 0
6310 -6182 0
-6310 6182 0
6311 -6183 0
-6311 6183 0
6312 -6184 0
-6312 6184 0
6313 -6185 0
-6313 6185 0
6314 -6186 0
-6314 6186 0
6315 -6187 0
-6315 6187 0
6316 -6188 0
-6316 6188 0
6317 -6189 0
-6317 6189 0
6318 -6190 0
-6318 6190 0
6319 -6191 0
-6319 6191 0
6320 -6192 0
-6320 6192 0
6321 -6193 0
-6321 6193 0
6322 -6194 0
-6322 6194 0
6323 -6195 0
-6323 6195 0
6324 -6196 0
-6324 6196 0
6325 -6197 0
-6325 6197 0
6326 -6198 0
-6326 6198 0
6327 -6199 0
-6327 6199 0
6328 -6200 0
-6328 6200 0
6329 -6201 0
-6329 6201 0
6330 -6202 0
-6330 6202 0
6331 -6203 0
-6331 6203 0
6332 -6204 0
-6332 6204 0
6333 -6205 0
-6333 6205 0
6334 -6206 0
-6334 6206 0
6335 -6207 0
-6335 6207 0
6336 -6208 0
-6336 6208 0
6337 -6209 0
-6337 6209 0
6338 -6210 0
-6338 6210 0
6339 -6211 0
-6339 6211 0
6340 -6212 0
-6340 6212 0
6341 -6213 0
-6341 6213 0
6342 -6214 0
-6342 6214 0
6343 -6215 0
-6343 6215 0
6344 -6216 0
-6344 6216 0
6345 -6217 0
-6345 6217 0
6346 -6218 0
-6346 6218 0
6347 -6219 0
-6347 6219 0
6348 -6220 0
-6348 6220 0
6349 -6221 0
-6349 6221 0
6350 -6222 0
-6350 6222 0
6351 -6223 0
-6351 6223 0
6352 -6224 0
-6352 6224 0
6353 -6225 0
-6353 6225 0
6354 -6226 0
-6354 6226 0
6355 -6227 0
-6355 6227 0
6356 -6228 0
-6356 6228 0
6357 -6229 0
-6357 6229 0
6358 -6230 0
-6358 6230 0
6359 -6231 0
-6359 6231 0
6360 -6232 0
-6360 6232 0
6361 -6233 0
-6361 6233 0
6362 -6234 0
-6362 6234 0
6363 -6235 0
-6363 6235 0
6364 -6236 0
-6364 6236 0
6365 -6237 0
-6365 6237 0
6366 -6238 0
-6366 6238 0
6367 -6239 0
-6367 6239 0
6368 -6240 0
-6368 6240 0
6369 -6241 0
-6369 6241 0
6370 -6242 0
-6370 6242 0
6371 -6243 0
-6371 6243 0
6372 -6244 0
-6372 6244 0
6501 -6373 0
-6501 6373 0
6533 -6374 0
-6533 6374 0
6565 -6375 0
-6565 6375 0
6597 -6376 0
-6597 6376 0
6502 -6377 0
-6502 6377 0
6534 -6378 0
-6534 6378 0
6566 -6379 0
-6566 6379 0
6598 -6380 0
-6598 6380 0
6503 -6381 0
-6503 6381 0
6535 -6382 0
-6535 6382 0
6567 -6383 0
-6567 6383 0
6599 -6384 0
-6599 6384 0
6504 -6385 0
-6504 6385 0
6536 -6386 0
-6536 6386 0
6568 -6387 0
-6568 6387 0
6600 -6388 0
-6600 6388 0
6505 -6389 0
-6505 6389 0
6537 -6390 0
-6537 6390 0
6569 -6391 0
-6569 6391 0
6601 -6392 0
-6601 6392 0
6506 -6393 0
-6506 6393 0
6538 -6394 0
-6538 6394 0
6570 -6395 0
-6570 6395 0
6602 -6396 0
-6602 6396 0
6507 -6397 0
-6507 6397 0
6539 -6398 0
-6539 6398 0
6571 -6399 0
-6571 6399 0
6603 -6400 0
-6603 6400 0
6508 -6401 0
-6508 6401 0
6540 -6402 0
-6540 6402 0
6572 -6403 0
-6572 6403 0
6604 -6404 0
-6604 6404 0
6509 -6405 0
-6509 6405 0
6541 -6406 0
-6541 6406 0
6573 -6407 0
-6573 6407 0
6605 -6408 0
-6605 6408 0
6510 -6409 0
-6510 6409 0
6542 -6410 0
-6542 6410 0
6574 -6411 0
-6574 6411 0
6606 -6412 0
-6606 6412 0
6511 -6413 0
-6511 6413 0
6543 -6414 0
-6543 6414 0
6575 -6415 0
-6575 6415 0
6607 -6416 0
-6607 6416 0
6512 -6417 0
-6512 6417 0
6544 -6418 0
-6544 6418 0
6576 -6419 0
-6576 6419 0
6608 -6420 0
-6608 6420 0
6513 -6421 0
-6513 6421 0
6545 -6422 0
-6545 6422 0
6577 -6423 0
-6577 6423 0
6609 -6424 0
-6609 6424 0
6514 -6425 0
-6514 6425 0
6546 -6426 0
-6546 6426 0
6578 -6427 0
-6578 6427 0
6610 -6428 0
-6610 6428 0
6515 -6429 0
-6515 6429 0
6547 -6430 0
-6547 6430 0
6579 -6431 0
-6579 6431 0
6611 -6432 0
-6611 6432 0
6516 -6433 0
-6516 6433 0
6548 -6434 0
-6548 6434 0
6580 -6435 0
-6580 6435 0
6612 -6436 0
-6612 6436 0
6517 -6437 0
-6517 6437 0
6549 -6438 0
-6549 6438 0
6581 -6439 0
-6581 6439 0
6613 -6440 0
-6613 6440 0
6518 -6441 0
-6518 6441 0
6550 -6442 0
-6550 6442 0
6582 -6443 0
-6582 6443 0
6614 -6444 0
-6614 6444 0
6519 -6445 0
-6519 6445 0
6551 -6446 0
-6551 6446 0
6583 -6447 0
-6583 6447 0
6615 -6448 0
-6615 6448 0
6520 -6449 0
-6520 6449 0
6552 -6450 0
-6552 6450 0
6584 -6451 0
-6584 6451 0
6616 -6452 0
-6616 6452 0
6521 -6453 0
-6521 6453 0
6553 -6454 0
-6553 6454 0
6585 -6455 0
-6585 6455 0
6617 -6456 0
-6617 6456 0
6522 -6457 0
-6522 6457 0
6554 -6458 0
-6554 6458 0
6586 -6459 0
-6586 6459 0
6618 -6460 0
-6618 6460 0
6523 -6461 0
-6523 6461 0
6555 -6462 0
-6555 6462 0
6587 -6463 0
-6587 6463 0
6619 -6464 0
-6619 6464 0
6524 -6465 0
-6524 6465 0
6556 -6466 0
-6556 6466 0
6588 -6467 0
-6588 6467 0
6620 -6468 0
-6620 6468 0
6525 -6469 0
-6525 6469 0
6557 -6470 0
-6557 6470 0
6589 -6471 0
-6589 6471 0
6621 -6472 0
-6621 6472 0
6526 -6473 0
-6526 6473 0
6558 -6474 0
-6558 6474 0
6590 -6475 0
-6590 6475 0
6622 -6476 0
-6622 6476 0
6527 -6477 0
-6527 6477 0
6559 -6478 0
-6559 6478 0
6591 -6479 0
-6591 6479 0
6623 -6480 0
-6623 6480 0
6528 -6481 0
-6528 6481 0
6560 -6482 0
-6560 6482 0
6592 -6483 0
-6592 6483 0
6624 -6484 0
-6624 6484 0
6529 -6485 0
-6529 6485 0
6561 -6486 0
-6561 6486 0
6593 -6487 0
-6593 6487 0
6625 -6488 0
-6625 6488 0
6530 -6489 0
-6530 6489 0
6562 -6490 0
-6562 6490 0
6594 -6491 0
-6594 6491 0
6626 -6492 0
-6626 6492 0
6531 -6493 0
-6531 6493 0
6563 -6494 0
-6563 6494 0
6595 -6495 0
-6595 6495 0
6627 -6496 0
-6627 6496 0
6532 -6497 0
-6532 6497 0
6564 -6498 0
-6564 6498 0
6596 -6499 0
-6596 6499 0
6628 -6500 0
-6628 6500 0
-6757 6629 0
6757 -6629 0
-6758 6630 0
6758 -6630 0
-6759 6631 0
6759 -6631 0
-6760 6632 0
6760 -6632 0
-6761 6633 0
6761 -6633 0
-6762 6634 0
6762 -6634 0
-6763 6635 0
6763 -6635 0
-6764 6636 0
6764 -6636 0
-6765 6637 0
6765 -6637 0
-6766 6638 0
6766 -6638 0
-6767 6639 0
6767 -6639 0
-6768 6640 0
6768 -6640 0
-6769 6641 0
6769 -6641 0
-6770 6642 0
6770 -6642 0
-6771 6643 0
6771 -6643 0
-6772 6644 0
6772 -6644 0
-6773 6645 0
6773 -6645 0
-6774 6646 0
6774 -6646 0
-6775 6647 0
6775 -6647 0
-6776 6648 0
6776 -6648 0
-6777 6649 0
6777 -6649 0
-6778 6650 0
6778 -6650 0
-6779 6651 0
6779 -6651 0
-6780 6652 0
6780 -6652 0
-6781 6653 0
6781 -6653 0
-6782 6654 0
6782 -6654 0
-6783 6655 0
6783 -6655 0
-6784 6656 0
6784 -6656 0
-6785 6657 0
6785 -6657 0
-6786 6658 0
6786 -6658 0
-6787 6659 0
6787 -6659 0
-6788 6660 0
6788 -6660 0
-6789 6661 0
6789 -6661 0
-6790 6662 0
6790 -6662 0
-6791 6663 0
6791 -6663 0
-6792 6664 0
6792 -6664 0
-6793 6665 0
6793 -6665 0
-6794 6666 0
6794 -6666 0
-6795 6667 0
6795 -6667 0
-6796 6668 0
6796 -6668 0
-6797 6669 0
6797 -6669 0
-6798 6670 0
6798 -6670 0
-6799 6671 0
6799 -6671 0
-6800 6672 0
6800 -6672 0
-6801 6673 0
6801 -6673 0
-6802 6674 0
6802 -6674 0
-6803 6675 0
6803 -6675 0
-6804 6676 0
6804 -6676 0
-6805 6677 0
6805 -6677 0
-6806 6678 0
6806 -6678 0
-6807 6679 0
6807 -6679 0
-6808 6680 0
6808 -6680 0
-6809 6681 0
6809 -6681 0
-6810 6682 0
6810 -6682 0
-6811 6683 0
6811 -6683 0
-6812 6684 0
6812 -6684 0
-6813 6685 0
6813 -6685 0
-6814 6686 0
6814 -6686 0
-6815 6687 0
6815 -6687 0
-6816 6688 0
6816 -6688 0
-6817 6689 0
6817 -6689 0
-6818 6690 0
6818 -6690 0
-6819 6691 0
6819 -6691 0
-6820 6692 0
6820 -6692 0
-6821 6693 0
6821 -6693 0
-6822 6694 0
6822 -6694 0
-6823 6695 0
6823 -6695 0
-6824 6696 0
6824 -6696 0
-6825 6697 0
6825 -6697 0
-6826 6698 0
6826 -6698 0
-6827 6699 0
6827 -6699 0
-6828 6700 0
6828 -6700 0
-6829 6701 0
6829 -6701 0
-6830 6702 0
6830 -6702 0
-6831 6703 0
6831 -6703 0
-6832 6704 0
6832 -6704 0
-6833 6705 0
6833 -6705 0
-6834 6706 0
6834 -6706 0
-6835 6707 0
6835 -6707 0
-6836 6708 0
6836 -6708 0
-6837 6709 0
6837 -6709 0
-6838 6710 0
6838 -6710 0
-6839 6711 0
6839 -6711 0
-6840 6712 0
6840 -6712 0
-6841 6713 0
6841 -6713 0
-6842 6714 0
6842 -6714 0
-6843 6715 0
6843 -6715 0
-6844 6716 0
6844 -6716 0
-6845 6717 0
6845 -6717 0
-6846 6718 0
6846 -6718 0
-6847 6719 0
6847 -6719 0
-6848 6720 0
6848 -6720 0
-6849 6721 0
6849 -6721 0
-6850 6722 0
6850 -6722 0
-6851 6723 0
6851 -6723 0
-6852 6724 0
6852 -6724 0
-6853 6725 0
6853 -6725 0
-6854 6726 0
6854 -6726 0
-6855 6727 0
6855 -6727 0
-6856 6728 0
6856 -6728 0
-6857 6729 0
6857 -6729 0
-6858 6730 0
6858 -6730 0
-6859 6731 0
6859 -6731 0
-6860 6732 0
6860 -6732 0
-6861 6733 0
6861 -6733 0
-6862 6734 0
6862 -6734 0
-6863 6735 0
6863 -6735 0
-6864 6736 0
6864 -6736 0
-6865 6737 0
6865 -6737 0
-6866 6738 0
6866 -6738 0
-6867 6739 0
6867 -6739 0
-6868 6740 0
6868 -6740 0
-6869 6741 0
6869 -6741 0
-6870 6742 0
6870 -6742 0
-6871 6743 0
6871 -6743 0
-6872 6744 0
6872 -6744 0
-6873 6745 0
6873 -6745 0
-6874 6746 0
6874 -6746 0
-6875 6747 0
6875 -6747 0
-6876 6748 0
6876 -6748 0
-6877 6749 0
6877 -6749 0
-6878 6750 0
6878 -6750 0
-6879 6751 0
6879 -6751 0
-6880 6752 0
6880 -6752 0
-6881 6753 0
6881 -6753 0
-6882 6754 0
6882 -6754 0
-6883 6755 0
6883 -6755 0
-6884 6756 0
6884 -6756 0
1 -257 0
-1 257 0
2 -258 0
-2 258 0
3 -259 0
-3 259 0
4 -260 0
-4 260 0
5 -261 0
-5 261 0
6 -262 0
-6 262 0
7 -263 0
-7 263 0
8 -264 0
-8 264 0
9 -265 0
-9 265 0
10 -266 0
-10 266 0
11 -267 0
-11 267 0
12 -268 0
-12 268 0
13 -269 0
-13 269 0
14 -270 0
-14 270 0
15 -271 0
-15 271 0
16 -272 0
-16 272 0
17 -273 0
-17 273 0
18 -274 0
-18 274 0
19 -275 0
-19 275 0
20 -276 0
-20 276 0
21 -277 0
-21 277 0
22 -278 0
-22 278 0
23 -279 0
-23 279 0
24 -280 0
-24 280 0
25 -281 0
-25 281 0
26 -282 0
-26 282 0
27 -283 0
-27 283 0
28 -284 0
-28 284 0
29 -285 0
-29 285 0
30 -286 0
-30 286 0
31 -287 0
-31 287 0
32 -288 0
-32 288 0
33 -289 0
-33 289 0
34 -290 0
-34 290 0
35 -291 0
-35 291 0
36 -292 0
-36 292 0
37 -293 0
-37 293 0
38 -294 0
-38 294 0
39 -295 0
-39 295 0
40 -296 0
-40 296 0
41 -297 0
-41 297 0
42 -298 0
-42 298 0
43 -299 0
-43 299 0
44 -300 0
-44 300 0
45 -301 0
-45 301 0
46 -302 0
-46 302 0
47 -303 0
-47 303 0
48 -304 0
-48 304 0
49 -305 0
-49 305 0
50 -306 0
-50 306 0
51 -307 0
-51 307 0
52 -308 0
-52 308 0
53 -309 0
-53 309 0
54 -310 0
-54 310 0
55 -311 0
-55 311 0
56 -312 0
-56 312 0
57 -313 0
-57 313 0
58 -314 0
-58 314 0
59 -315 0
-59 315 0
60 -316 0
-60 316 0
61 -317 0
-61 317 0
62 -318 0
-62 318 0
63 -319 0
-63 319 0
64 -320 0
-64 320 0
65 -321 0
-65 321 0
66 -322 0
-66 322 0
67 -323 0
-67 323 0
68 -324 0
-68 324 0
69 -325 0
-69 325 0
70 -326 0
-70 326 0
71 -327 0
-71 327 0
72 -328 0
-72 328 0
73 -329 0
-73 329 0
74 -330 0
-74 330 0
75 -331 0
-75 331 0
76 -332 0
-76 332 0
77 -333 0
-77 333 0
78 -334 0
-78 334 0
79 -335 0
-79 335 0
80 -336 0
-80 336 0
81 -337 0
-81 337 0
82 -338 0
-82 338 0
83 -339 0
-83 339 0
84 -340 0
-84 340 0
85 -341 0
-85 341 0
86 -342 0
-86 342 0
87 -343 0
-87 343 0
88 -344 0
-88 344 0
89 -345 0
-89 345 0
90 -346 0
-90 346 0
91 -347 0
-91 347 0
92 -348 0
-92 348 0
93 -349 0
-93 349 0
94 -350 0
-94 350 0
95 -351 0
-95 351 0
96 -352 0
-96 352 0
97 -353 0
-97 353 0
98 -354 0
-98 354 0
99 -355 0
-99 355 0
100 -356 0
-100 356 0
101 -357 0
-101 357 0
102 -358 0
-102 358 0
103 -359 0
-103 359 0
104 -360 0
-104 360 0
105 -361 0
-105 361 0
106 -362 0
-106 362 0
107 -363 0
-107 363 0
108 -364 0
-108 364 0
109 -365 0
-109 365 0
110 -366 0
-110 366 0
111 -367 0
-111 367 0
112 -368 0
-112 368 0
113 -369 0
-113 369 0
114 -370 0
-114 370 0
115 -371 0
-115 371 0
116 -372 0
-116 372 0
117 -373 0
-117 373 0
118 -374 0
-118 374 0
119 -375 0
-119 375 0
120 -376 0
-120 376 0
121 -377 0
-121 377 0
122 -378 0
-122 378 0
123 -379 0
-123 379 0
124 -380 0
-124 380 0
125 -381 0
-125 381 0
126 -382 0
-126 382 0
127 -383 0
-127 383 0
128 -384 0
-128 384 0
6757 -129 0
-6757 129 0
6758 -130 0
-6758 130 0
6759 -131 0
-6759 131 0
6760 -132 0
-6760 132 0
6761 -133 0
-6761 133 0
6762 -134 0
-6762 134 0
6763 -135 0
-6763 135 0
6764 -136 0
-6764 136 0
6765 -137 0
-6765 137 0
6766 -138 0
-6766 138 0
6767 -139 0
-6767 139 0
6768 -140 0
-6768 140 0
6769 -141 0
-6769 141 0
6770 -142 0
-6770 142 0
6771 -143 0
-6771 143 0
6772 -144 0
-6772 144 0
6773 -145 0
-6773 145 0
6774 -146 0
-6774 146 0
6775 -147 0
-6775 147 0
6776 -148 0
-6776 148 0
6777 -149 0
-6777 149 0
6778 -150 0
-6778 150 0
6779 -151 0
-6779 151 0
6780 -152 0
-6780 152 0
6781 -153 0
-6781 153 0
6782 -154 0
-6782 154 0
6783 -155 0
-6783 155 0
6784 -156 0
-6784 156 0
6785 -157 0
-6785 157 0
6786 -158 0
-6786 158 0
6787 -159 0
-6787 159 0
6788 -160 0
-6788 160 0
6789 -161 0
-6789 161 0
6790 -162 0
-6790 162 0
6791 -163 0
-6791 163 0
6792 -164 0
-6792 164 0
6793 -165 0
-6793 165 0
6794 -166 0
-6794 166 0
6795 -167 0
-6795 167 0
6796 -168 0
-6796 168 0
6797 -169 0
-6797 169 0
6798 -170 0
-6798 170 0
6799 -171 0
-6799 171 0
6800 -172 0
-6800 172 0
6801 -173 0
-6801 173 0
6802 -174 0
-6802 174 0
6803 -175 0
-6803 175 0
6804 -176 0
-6804 176 0
6805 -177 0
-6805 177 0
6806 -178 0
-6806 178 0
6807 -179 0
-6807 179 0
6808 -180 0
-6808 180 0
6809 -181 0
-6809 181 0
6810 -182 0
-6810 182 0
6811 -183 0
-6811 183 0
6812 -184 0
-6812 184 0
6813 -185 0
-6813 185 0
6814 -186 0
-6814 186 0
6815 -187 0
-6815 187 0
6816 -188 0
-6816 188 0
6817 -189 0
-6817 189 0
6818 -190 0
-6818 190 0
6819 -191 0
-6819 191 0
6820 -192 0
-6820 192 0
6821 -193 0
-6821 193 0
6822 -194 0
-6822 194 0
6823 -195 0
-6823 195 0
6824 -196 0
-6824 196 0
6825 -197 0
-6825 197 0
6826 -198 0
-6826 198 0
6827 -199 0
-6827 199 0
6828 -200 0
-6828 200 0
6829 -201 0
-6829 201 0
6830 -202 0
-6830 202 0
6831 -203 0
-6831 203 0
6832 -204 0
-6832 204 0
6833 -205 0
-6833 205 0
6834 -206 0
-6834 206 0
6835 -207 0
-6835 207 0
6836 -208 0
-6836 208 0
6837 -209 0
-6837 209 0
6838 -210 0
-6838 210 0
6839 -211 0
-6839 211 0
6840 -212 0
-6840 212 0
6841 -213 0
-6841 213 0
6842 -214 0
-6842 214 0
6843 -215 0
-6843 215 0
6844 -216 0
-6844 216 0
6845 -217 0
-6845 217 0
6846 -218 0
-6846 218 0
6847 -219 0
-6847 219 0
6848 -220 0
-6848 220 0
6849 -221 0
-6849 221 0
6850 -222 0
-6850 222 0
6851 -223 0
-6851 223 0
6852 -224 0
-6852 224 0
6853 -225 0
-6853 225 0
6854 -226 0
-6854 226 0
6855 -227 0
-6855 227 0
6856 -228 0
-6856 228 0
6857 -229 0
-6857 229 0
6858 -230 0
-6858 230 0
6859 -231 0
-6859 231 0
6860 -232 0
-6860 232 0
6861 -233 0
-6861 233 0
6862 -234 0
-6862 234 0
6863 -235 0
-6863 235 0
6864 -236 0
-6864 236 0
6865 -237 0
-6865 237 0
6866 -238 0
-6866 238 0
6867 -239 0
-6867 239 0
6868 -240 0
-6868 240 0
6869 -241 0
-6869 241 0
6870 -242 0
-6870 242 0
6871 -243 0
-6871 243 0
6872 -244 0
-6872 244 0
6873 -245 0
-6873 245 0
6874 -246 0
-6874 246 0
6875 -247 0
-6875 247 0
6876 -248 0
-6876 248 0
6877 -249 0
-6877 249 0
6878 -250 0
-6878 250 0
6879 -251 0
-6879 251 0
6880 -252 0
-6880 252 0
6881 -253 0
-6881 253 0
6882 -254 0
-6882 254 0
6883 -255 0
-6883 255 0
6884 -256 0
-6884 256 0
-385 513 0
385 -513 0
-386 514 0
386 -514 0
-387 515 0
387 -515 0
-388 516 0
388 -516 0
-389 517 0
389 -517 0
-390 518 0
390 -518 0
-391 519 0
391 -519 0
-392 520 0
392 -520 0
-393 521 0
393 -521 0
-394 522 0
394 -522 0
-395 523 0
395 -523 0
-396 524 0
396 -524 0
-397 525 0
397 -525 0
-398 526 0
398 -526 0
-399 527 0
399 -527 0
-400 528 0
400 -528 0
-401 529 0
401 -529 0
-402 530 0
402 -530 0
-403 531 0
403 -531 0
-404 532 0
404 -532 0
-405 533 0
405 -533 0
-406 534 0
406 -534 0
-407 535 0
407 -535 0
-408 536 0
408 -536 0
-409 537 0
409 -537 0
-410 538 0
410 -538 0
-411 539 0
411 -539 0
-412 540 0
412 -540 0
-413 541 0
413 -541 0
-414 542 0
414 -542 0
-415 543 0
415 -543 0
-416 544 0
416 -544 0
-417 545 0
417 -545 0
-418 546 0
418 -546 0
-419 547 0
419 -547 0
-420 548 0
420 -548 0
-421 549 0
421 -549 0
-422 550 0
422 -550 0
-423 551 0
423 -551 0
-424 552 0
424 -552 0
-425 553 0
425 -553 0
-426 554 0
426 -554 0
-427 555 0
427 -555 0
-428 556 0
428 -556 0
-429 557 0
429 -557 0
-430 558 0
430 -558 0
-431 559 0
431 -559 0
-432 560 0
432 -560 0
-433 561 0
433 -561 0
-434 562 0
434 -562 0
-435 563 0
435 -563 0
-436 564 0
436 -564 0
-437 565 0
437 -565 0
-438 566 0
438 -566 0
-439 567 0
439 -567 0
-440 568 0
440 -568 0
-441 569 0
441 -569 0
-442 570 0
442 -570 0
-443 571 0
443 -571 0
-444 572 0
444 -572 0
-445 573 0
445 -573 0
-446 574 0
446 -574 0
-447 575 0
447 -575 0
-448 576 0
448 -576 0
-449 577 0
449 -577 0
-450 578 0
450 -578 0
-451 579 0
451 -579 0
-452 580 0
452 -580 0
-453 581 0
453 -581 0
-454 582 0
454 -582 0
-455 583 0
455 -583 0
-456 584 0
456 -584 0
-457 585 0
457 -585 0
-458 586 0
458 -586 0
-459 587 0
459 -587 0
-460 588 0
460 -588 0
-461 589 0
461 -589 0
-462 590 0
462 -590 0
-463 591 0
463 -591 0
-464 592 0
464 -592 0
-465 593 0
465 -593 0
-466 594 0
466 -594 0
-467 595 0
467 -595 0
-468 596 0
468 -596 0
-469 597 0
469 -597 0
-470 598 0
470 -598 0
-471 599 0
471 -599 0
-472 600 0
472 -600 0
-473 601 0
473 -601 0
-474 602 0
474 -602 0
-475 603 0
475 -603 0
-476 604 0
476 -604 0
-477 605 0
477 -605 0
-478 606 0
478 -606 0
-479 607 0
479 -607 0
-480 608 0
480 -608 0
-481 609 0
481 -609 0
-482 610 0
482 -610 0
-483 611 0
483 -611 0
-484 612 0
484 -612 0
-485 613 0
485 -613 0
-486 614 0
486 -614 0
-487 615 0
487 -615 0
-488 616 0
488 -616 0
-489 617 0
489 -617 0
-490 618 0
490 -618 0
-491 619 0
491 -619 0
-492 620 0
492 -620 0
-493 621 0
493 -621 0
-494 622 0
494 -622 0
-495 623 0
495 -623 0
-496 624 0
496 -624 0
-497 625 0
497 -625 0
-498 626 0
498 -626 0
-499 627 0
499 -627 0
-500 628 0
500 -628 0
-501 629 0
501 -629 0
-502 630 0
502 -630 0
-503 631 0
503 -631 0
-504 632 0
504 -632 0
-505 633 0
505 -633 0
-506 634 0
506 -634 0
-507 635 0
507 -635 0
-508 636 0
508 -636 0
-509 637 0
509 -637 0
-510 638 0
510 -638 0
-511 639 0
511 -639 0
-512 640 0
512 -640 0
-641 769 0
641 -769 0
-642 770 0
642 -770 0
-643 771 0
643 -771 0
-644 772 0
644 -772 0
-645 773 0
645 -773 0
-646 774 0
646 -774 0
-647 775 0
647 -775 0
-648 776 0
648 -776 0
-649 777 0
649 -777 0
-650 778 0
650 -778 0
-651 779 0
651 -779 0
-652 780 0
652 -780 0
-653 781 0
653 -781 0
-654 782 0
654 -782 0
-655 783 0
655 -783 0
-656 784 0
656 -784 0
-657 785 0
657 -785 0
-658 786 0
658 -786 0
-659 787 0
659 -787 0
-660 788 0
660 -788 0
-661 789 0
661 -789 0
-662 790 0
662 -790 0
-663 791 0
663 -791 0
-664 792 0
664 -792 0
-665 793 0
665 -793 0
-666 794 0
666 -794 0
-667 795 0
667 -795 0
-668 796 0
668 -796 0
-669 797 0
669 -797 0
-670 798 0
670 -798 0
-671 799 0
671 -799 0
-672 800 0
672 -800 0
-673 801 0
673 -801 0
-674 802 0
674 -802 0
-675 803 0
675 -803 0
-676 804 0
676 -804 0
-677 805 0
677 -805 0
-678 806 0
678 -806 0
-679 807 0
679 -807 0
-680 808 0
680 -808 0
-681 809 0
681 -809 0
-682 810 0
682 -810 0
-683 811 0
683 -811 0
-684 812 0
684 -812 0
-685 813 0
685 -813 0
-686 814 0
686 -814 0
-687 815 0
687 -815 0
-688 816 0
688 -816 0
-689 817 0
689 -817 0
-690 818 0
690 -818 0
-691 819 0
691 -819 0
-692 820 0
692 -820 0
-693 821 0
693 -821 0
-694 822 0
694 -822 0
-695 823 0
695 -823 0
-696 824 0
696 -824 0
-697 825 0
697 -825 0
-698 826 0
698 -826 0
-699 827 0
699 -827 0
-700 828 0
700 -828 0
-701 829 0
701 -829 0
-702 830 0
702 -830 0
-703 831 0
703 -831 0
-704 832 0
704 -832 0
-705 833 0
705 -833 0
-706 834 0
706 -834 0
-707 835 0
707 -835 0
-708 836 0
708 -836 0
-709 837 0
709 -837 0
-710 838 0
710 -838 0
-711 839 0
711 -839 0
-712 840 0
712 -840 0
-713 841 0
713 -841 0
-714 842 0
714 -842 0
-715 843 0
715 -843 0
-716 844 0
716 -844 0
-717 845 0
717 -845 0
-718 846 0
718 -846 0
-719 847 0
719 -847 0
-720 848 0
720 -848 0
-721 849 0
721 -849 0
-722 850 0
722 -850 0
-723 851 0
723 -851 0
-724 852 0
724 -852 0
-725 853 0
725 -853 0
-726 854 0
726 -854 0
-727 855 0
727 -855 0
-728 856 0
728 -856 0
-729 857 0
729 -857 0
-730 858 0
730 -858 0
-731 859 0
731 -859 0
-732 860 0
732 -860 0
-733 861 0
733 -861 0
-734 862 0
734 -862 0
-735 863 0
735 -863 0
-736 864 0
736 -864 0
-737 865 0
737 -865 0
-738 866 0
738 -866 0
-739 867 0
739 -867 0
-740 868 0
740 -868 0
-741 869 0
741 -869 0
-742 870 0
742 -870 0
-743 871 0
743 -871 0
-744 872 0
744 -872 0
-745 873 0
745 -873 0
-746 874 0
746 -874 0
-747 875 0
747 -875 0
-748 876 0
748 -876 0
-749 877 0
749 -877 0
-750 878 0
750 -878 0
-751 879 0
751 -879 0
-752 880 0
752 -880 0
-753 881 0
753 -881 0
-754 882 0
754 -882 0
-755 883 0
755 -883 0
-756 884 0
756 -884 0
-757 885 0
757 -885 0
-758 886 0
758 -886 0
-759 887 0
759 -887 0
-760 888 0
760 -888 0
-761 889 0
761 -889 0
-762 890 0
762 -890 0
-763 891 0
763 -891 0
-764 892 0
764 -892 0
-765 893 0
765 -893 0
-766 894 0
766 -894 0
-767 895 0
767 -895 0
-768 896 0
768 -896 0
-897 1025 0
897 -1025 0
-898 1026 0
898 -1026 0
-899 1027 0
899 -1027 0
-900 1028 0
900 -1028 0
-901 1029 0
901 -1029 0
-902 1030 0
902 -1030 0
-903 1031 0
903 -1031 0
-904 1032 0
904 -1032 0
-905 1033 0
905 -1033 0
-906 1034 0
906 -1034 0
-907 1035 0
907 -1035 0
-908 1036 0
908 -1036 0
-909 1037 0
909 -1037 0
-910 1038 0
910 -1038 0
-911 1039 0
911 -1039 0
-912 1040 0
912 -1040 0
-913 1041 0
913 -1041 0
-914 1042 0
914 -1042 0
-915 1043 0
915 -1043 0
-916 1044 0
916 -1044 0
-917 1045 0
917 -1045 0
-918 1046 0
918 -1046 0
-919 1047 0
919 -1047 0
-920 1048 0
920 -1048 0
-921 1049 0
921 -1049 0
-922 1050 0
922 -1050 0
-923 1051 0
923 -1051 0
-924 1052 0
924 -1052 0
-925 1053 0
925 -1053 0
-926 1054 0
926 -1054 0
-927 1055 0
927 -1055 0
-928 1056 0
928 -1056 0
-929 1057 0
929 -1057 0
-930 1058 0
930 -1058 0
-931 1059 0
931 -1059 0
-932 1060 0
932 -1060 0
-933 1061 0
933 -1061 0
-934 1062 0
934 -1062 0
-935 1063 0
935 -1063 0
-936 1064 0
936 -1064 0
-937 1065 0
937 -1065 0
-938 1066 0
938 -1066 0
-939 1067 0
939 -1067 0
-940 1068 0
940 -1068 0
-941 1069 0
941 -1069 0
-942 1070 0
942 -1070 0
-943 1071 0
943 -1071 0
-944 1072 0
944 -1072 0
-945 1073 0
945 -1073 0
-946 1074 0
946 -1074 0
-947 1075 0
947 -1075 0
-948 1076 0
948 -1076 0
-949 1077 0
949 -1077 0
-950 1078 0
950 -1078 0
-951 1079 0
951 -1079 0
-952 1080 0
952 -1080 0
-953 1081 0
953 -1081 0
-954 1082 0
954 -1082 0
-955 1083 0
955 -1083 0
-956 1084 0
956 -1084 0
-957 1085 0
957 -1085 0
-958 1086 0
958 -1086 0
-959 1087 0
959 -1087 0
-960 1088 0
960 -1088 0
-961 1089 0
961 -1089 0
-962 1090 0
962 -1090 0
-963 1091 0
963 -1091 0
-964 1092 0
964 -1092 0
-965 1093 0
965 -1093 0
-966 1094 0
966 -1094 0
-967 1095 0
967 -1095 0
-968 1096 0
968 -1096 0
-969 1097 0
969 -1097 0
-970 1098 0
970 -1098 0
-971 1099 0
971 -1099 0
-972 1100 0
972 -1100 0
-973 1101 0
973 -1101 0
-974 1102 0
974 -1102 0
-975 1103 0
975 -1103 0
-976 1104 0
976 -1104 0
-977 1105 0
977 -1105 0
-978 1106 0
978 -1106 0
-979 1107 0
979 -1107 0
-980 1108 0
980 -1108 0
-981 1109 0
981 -1109 0
-982 1110 0
982 -1110 0
-983 1111 0
983 -1111 0
-984 1112 0
984 -1112 0
-985 1113 0
985 -1113 0
-986 1114 0
986 -1114 0
-987 1115 0
987 -1115 0
-988 1116 0
988 -1116 0
-989 1117 0
989 -1117 0
-990 1118 0
990 -1118 0
-991 1119 0
991 -1119 0
-992 1120 0
992 -1120 0
-993 1121 0
993 -1121 0
-994 1122 0
994 -1122 0
-995 1123 0
995 -1123 0
-996 1124 0
996 -1124 0
-997 1125 0
997 -1125 0
-998 1126 0
998 -1126 0
-999 1127 0
999 -1127 0
-1000 1128 0
1000 -1128 0
-1001 1129 0
1001 -1129 0
-1002 1130 0
1002 -1130 0
-1003 1131 0
1003 -1131 0
-1004 1132 0
1004 -1132 0
-1005 1133 0
1005 -1133 0
-1006 1134 0
1006 -1134 0
-1007 1135 0
1007 -1135 0
-1008 1136 0
1008 -1136 0
-1009 1137 0
1009 -1137 0
-1010 1138 0
1010 -1138 0
-1011 1139 0
1011 -1139 0
-1012 1140 0
1012 -1140 0
-1013 1141 0
1013 -1141 0
-1014 1142 0
1014 -1142 0
-1015 1143 0
1015 -1143 0
-1016 1144 0
1016 -1144 0
-1017 1145 0
1017 -1145 0
-1018 1146 0
1018 -1146 0
-1019 1147 0
1019 -1147 0
-1020 1148 0
1020 -1148 0
-1021 1149 0
1021 -1149 0
-1022 1150 0
1022 -1150 0
-1023 1151 0
1023 -1151 0
-1024 1152 0
1024 -1152 0
-1153 2145 0
1153 -2145 0
-1154 2146 0
1154 -2146 0
-1155 2147 0
1155 -2147 0
-1156 2148 0
1156 -2148 0
-1157 2149 0
1157 -2149 0
-1158 2150 0
1158 -2150 0
-1159 2151 0
1159 -2151 0
-1160 2152 0
1160 -2152 0
-1161 2153 0
1161 -2153 0
-1162 2154 0
1162 -2154 0
-1163 2155 0
1163 -2155 0
-1164 2156 0
1164 -2156 0
-1165 2157 0
1165 -2157 0
-1166 2158 0
1166 -2158 0
-1167 2159 0
1167 -2159 0
-1168 2160 0
1168 -2160 0
-1169 2161 0
1169 -2161 0
-1170 2162 0
1170 -2162 0
-1171 2163 0
1171 -2163 0
-1172 2164 0
1172 -2164 0
-1173 2165 0
1173 -2165 0
-1174 2166 0
1174 -2166 0
-1175 2167 0
1175 -2167 0
-1176 2168 0
1176 -2168 0
-1177 2169 0
1177 -2169 0
-1178 2170 0
1178 -2170 0
-1179 2171 0
1179 -2171 0
-1180 2172 0
1180 -2172 0
-1181 2173 0
1181 -2173 0
-1182 2174 0
1182 -2174 0
-1183 2175 0
1183 -2175 0
-1184 2176 0
1184 -2176 0
-1185 2177 0
1185 -2177 0
-1186 2178 0
1186 -2178 0
-1187 2179 0
1187 -2179 0
-1188 2180 0
1188 -2180 0
-1189 2181 0
1189 -2181 0
-1190 2182 0
1190 -2182 0
-1191 2183 0
1191 -2183 0
-1192 2184 0
1192 -2184 0
-1193 2185 0
1193 -2185 0
-1194 2186 0
1194 -2186 0
-1195 2187 0
1195 -2187 0
-1196 2188 0
1196 -2188 0
-1197 2189 0
1197 -2189 0
-1198 2190 0
1198 -2190 0
-1199 2191 0
1199 -2191 0
-1200 2192 0
1200 -2192 0
-1201 2193 0
1201 -2193 0
-1202 2194 0
1202 -2194 0
-1203 2195 0
1203 -2195 0
-1204 2196 0
1204 -2196 0
-1205 2197 0
1205 -2197 0
-1206 2198 0
1206 -2198 0
-1207 2199 0
1207 -2199 0
-1208 2200 0
1208 -2200 0
-1209 2201 0
1209 -2201 0
-1210 2202 0
1210 -2202 0
-1211 2203 0
1211 -2203 0
-1212 2204 0
1212 -2204 0
-1213 2205 0
1213 -2205 0
-1214 2206 0
1214 -2206 0
-1215 2207 0
1215 -2207 0
-1216 2208 0
1216 -2208 0
-1217 2209 0
1217 -2209 0
-1218 2210 0
1218 -2210 0
-1219 2211 0
1219 -2211 0
-1220 2212 0
1220 -2212 0
-1221 2213 0
1221 -2213 0
-1222 2214 0
1222 -2214 0
-1223 2215 0
1223 -2215 0
-1224 2216 0
1224 -2216 0
-1225 2217 0
1225 -2217 0
-1226 2218 0
1226 -2218 0
-1227 2219 0
1227 -2219 0
-1228 2220 0
1228 -2220 0
-1229 2221 0
1229 -2221 0
-1230 2222 0
1230 -2222 0
-1231 2223 0
1231 -2223 0
-1232 2224 0
1232 -2224 0
-1233 2225 0
1233 -2225 0
-1234 2226 0
1234 -2226 0
-1235 2227 0
1235 -2227 0
-1236 2228 0
1236 -2228 0
-1237 2229 0
1237 -2229 0
-1238 2230 0
1238 -2230 0
-1239 2231 0
1239 -2231 0
-1240 2232 0
1240 -2232 0
-1241 2233 0
1241 -2233 0
-1242 2234 0
1242 -2234 0
-1243 2235 0
1243 -2235 0
-1244 2236 0
1244 -2236 0
-1245 2237 0
1245 -2237 0
-1246 2238 0
1246 -2238 0
-1247 2239 0
1247 -2239 0
-1248 2240 0
1248 -2240 0
-1249 2241 0
1249 -2241 0
-1250 2242 0
1250 -2242 0
-1251 2243 0
1251 -2243 0
-1252 2244 0
1252 -2244 0
-1253 2245 0
1253 -2245 0
-1254 2246 0
1254 -2246 0
-1255 2247 0
1255 -2247 0
-1256 2248 0
1256 -2248 0
-1257 2249 0
1257 -2249 0
-1258 2250 0
1258 -2250 0
-1259 2251 0
1259 -2251 0
-1260 2252 0
1260 -2252 0
-1261 2253 0
1261 -2253 0
-1262 2254 0
1262 -2254 0
-1263 2255 0
1263 -2255 0
-1264 2256 0
1264 -2256 0
-1265 2257 0
1265 -2257 0
-1266 2258 0
1266 -2258 0
-1267 2259 0
1267 -2259 0
-1268 2260 0
1268 -2260 0
-1269 2261 0
1269 -2261 0
-1270 2262 0
1270 -2262 0
-1271 2263 0
1271 -2263 0
-1272 2264 0
1272 -2264 0
-1273 2265 0
1273 -2265 0
-1274 2266 0
1274 -2266 0
-1275 2267 0
1275 -2267 0
-1276 2268 0
1276 -2268 0
-1277 2269 0
1277 -2269 0
-1278 2270 0
1278 -2270 0
-1279 2271 0
1279 -2271 0
-1280 2272 0
1280 -2272 0
-2273 2755 0
2273 -2755 0
-2274 2756 0
2274 -2756 0
-2275 2757 0
2275 -2757 0
-2276 2758 0
2276 -2758 0
-2277 2759 0
2277 -2759 0
-2278 2760 0
2278 -2760 0
-2279 2761 0
2279 -2761 0
-2280 2762 0
2280 -2762 0
-2281 2763 0
2281 -2763 0
-2282 2764 0
2282 -2764 0
-2283 2765 0
2283 -2765 0
-2284 2766 0
2284 -2766 0
-2285 2767 0
2285 -2767 0
-2286 2768 0
2286 -2768 0
-2287 2769 0
2287 -2769 0
-2288 2770 0
2288 -2770 0
-2289 2771 0
2289 -2771 0
-2290 2772 0
2290 -2772 0
-2291 2773 0
2291 -2773 0
-2292 2774 0
2292 -2774 0
-2293 2775 0
2293 -2775 0
-2294 2776 0
2294 -2776 0
-2295 2777 0
2295 -2777 0
-2296 2778 0
2296 -2778 0
-2297 2779 0
2297 -2779 0
-2298 2780 0
2298 -2780 0
-2299 2781 0
2299 -2781 0
-2300 2782 0
2300 -2782 0
-2301 2783 0
2301 -2783 0
-2302 2784 0
2302 -2784 0
-2303 2785 0
2303 -2785 0
-2304 2786 0
2304 -2786 0
-2305 2787 0
2305 -2787 0
-2306 2788 0
2306 -2788 0
-2307 2789 0
2307 -2789 0
-2308 2790 0
2308 -2790 0
-2309 2791 0
2309 -2791 0
-2310 2792 0
2310 -2792 0
-2311 2793 0
2311 -2793 0
-2312 2794 0
2312 -2794 0
-2313 2795 0
2313 -2795 0
-2314 2796 0
2314 -2796 0
-2315 2797 0
2315 -2797 0
-2316 2798 0
2316 -2798 0
-2317 2799 0
2317 -2799 0
-2318 2800 0
2318 -2800 0
-2319 2801 0
2319 -2801 0
-2320 2802 0
2320 -2802 0
-2321 2803 0
2321 -2803 0
-2322 2804 0
2322 -2804 0
-2323 2805 0
2323 -2805 0
-2324 2806 0
2324 -2806 0
-2325 2807 0
2325 -2807 0
-2326 2808 0
2326 -2808 0
-2327 2809 0
2327 -2809 0
-2328 2810 0
2328 -2810 0
-2329 2811 0
2329 -2811 0
-2330 2812 0
2330 -2812 0
-2331 2813 0
2331 -2813 0
-2332 2814 0
2332 -2814 0
-2333 2815 0
2333 -2815 0
-2334 2816 0
2334 -2816 0
-2335 2817 0
2335 -2817 0
-2336 2818 0
2336 -2818 0
-2337 2819 0
2337 -2819 0
-2338 2820 0
2338 -2820 0
-2339 2821 0
2339 -2821 0
-2340 2822 0
2340 -2822 0
-2341 2823 0
2341 -2823 0
-2342 2824 0
2342 -2824 0
-2343 2825 0
2343 -2825 0
-2344 2826 0
2344 -2826 0
-2345 2827 0
2345 -2827 0
-2346 2828 0
2346 -2828 0
-2347 2829 0
2347 -2829 0
-2348 2830 0
2348 -2830 0
-2349 2831 0
2349 -2831 0
-2350 2832 0
2350 -2832 0
-2351 2833 0
2351 -2833 0
-2352 2834 0
2352 -2834 0
-2353 2835 0
2353 -2835 0
-2354 2836 0
2354 -2836 0
-2355 2837 0
2355 -2837 0
-2356 2838 0
2356 -2838 0
-2357 2839 0
2357 -2839 0
-2358 2840 0
2358 -2840 0
-2359 2841 0
2359 -2841 0
-2360 2842 0
2360 -2842 0
-2361 2843 0
2361 -2843 0
-2362 2844 0
2362 -2844 0
-2363 2845 0
2363 -2845 0
-2364 2846 0
2364 -2846 0
-2365 2847 0
2365 -2847 0
-2366 2848 0
2366 -2848 0
-2367 2849 0
2367 -2849 0
-2368 2850 0
2368 -2850 0
-2369 2851 0
2369 -2851 0
-2370 2852 0
2370 -2852 0
-2371 2853 0
2371 -2853 0
-2372 2854 0
2372 -2854 0
-2373 2855 0
2373 -2855 0
-2374 2856 0
2374 -2856 0
-2375 2857 0
2375 -2857 0
-2376 2858 0
2376 -2858 0
-2377 2859 0
2377 -2859 0
-2378 2860 0
2378 -2860 0
-2379 2861 0
2379 -2861 0
-2380 2862 0
2380 -2862 0
-2381 2863 0
2381 -2863 0
-2382 2864 0
2382 -2864 0
-2383 2865 0
2383 -2865 0
-2384 2866 0
2384 -2866 0
-2385 2867 0
2385 -2867 0
-2386 2868 0
2386 -2868 0
-2387 2869 0
2387 -2869 0
-2388 2870 0
2388 -2870 0
-2389 2871 0
2389 -2871 0
-2390 2872 0
2390 -2872 0
-2391 2873 0
2391 -2873 0
-2392 2874 0
2392 -2874 0
-2393 2875 0
2393 -2875 0
-2394 2876 0
2394 -2876 0
-2395 2877 0
2395 -2877 0
-2396 2878 0
2396 -2878 0
-2397 2879 0
2397 -2879 0
-2398 2880 0
2398 -2880 0
-2399 2881 0
2399 -2881 0
-2400 2882 0
2400 -2882 0
-2883 3011 0
2883 -3011 0
-2884 3012 0
2884 -3012 0
-2885 3013 0
2885 -3013 0
-2886 3014 0
2886 -3014 0
-2887 3015 0
2887 -3015 0
-2888 3016 0
2888 -3016 0
-2889 3017 0
2889 -3017 0
-2890 3018 0
2890 -3018 0
-2891 3019 0
2891 -3019 0
-2892 3020 0
2892 -3020 0
-2893 3021 0
2893 -3021 0
-2894 3022 0
2894 -3022 0
-2895 3023 0
2895 -3023 0
-2896 3024 0
2896 -3024 0
-2897 3025 0
2897 -3025 0
-2898 3026 0
2898 -3026 0
-2899 3027 0
2899 -3027 0
-2900 3028 0
2900 -3028 0
-2901 3029 0
2901 -3029 0
-2902 3030 0
2902 -3030 0
-2903 3031 0
2903 -3031 0
-2904 3032 0
2904 -3032 0
-2905 3033 0
2905 -3033 0
-2906 3034 0
2906 -3034 0
-2907 3035 0
2907 -3035 0
-2908 3036 0
2908 -3036 0
-2909 3037 0
2909 -3037 0
-2910 3038 0
2910 -3038 0
-2911 3039 0
2911 -3039 0
-2912 3040 0
2912 -3040 0
-2913 3041 0
2913 -3041 0
-2914 3042 0
2914 -3042 0
-2915 3043 0
2915 -3043 0
-2916 3044 0
2916 -3044 0
-2917 3045 0
2917 -3045 0
-2918 3046 0
2918 -3046 0
-2919 3047 0
2919 -3047 0
-2920 3048 0
2920 -3048 0
-2921 3049 0
2921 -3049 0
-2922 3050 0
2922 -3050 0
-2923 3051 0
2923 -3051 0
-2924 3052 0
2924 -3052 0
-2925 3053 0
2925 -3053 0
-2926 3054 0
2926 -3054 0
-2927 3055 0
2927 -3055 0
-2928 3056 0
2928 -3056 0
-2929 3057 0
2929 -3057 0
-2930 3058 0
2930 -3058 0
-2931 3059 0
2931 -3059 0
-2932 3060 0
2932 -3060 0
-2933 3061 0
2933 -3061 0
-2934 3062 0
2934 -3062 0
-2935 3063 0
2935 -3063 0
-2936 3064 0
2936 -3064 0
-2937 3065 0
2937 -3065 0
-2938 3066 0
2938 -3066 0
-2939 3067 0
2939 -3067 0
-2940 3068 0
2940 -3068 0
-2941 3069 0
2941 -3069 0
-2942 3070 0
2942 -3070 0
-2943 3071 0
2943 -3071 0
-2944 3072 0
2944 -3072 0
-2945 3073 0
2945 -3073 0
-2946 3074 0
2946 -3074 0
-2947 3075 0
2947 -3075 0
-2948 3076 0
2948 -3076 0
-2949 3077 0
2949 -3077 0
-2950 3078 0
2950 -3078 0
-2951 3079 0
2951 -3079 0
-2952 3080 0
2952 -3080 0
-2953 3081 0
2953 -3081 0
-2954 3082 0
2954 -3082 0
-2955 3083 0
2955 -3083 0
-2956 3084 0
2956 -3084 0
-2957 3085 0
2957 -3085 0
-2958 3086 0
2958 -3086 0
-2959 3087 0
2959 -3087 0
-2960 3088 0
2960 -3088 0
-2961 3089 0
2961 -3089 0
-2962 3090 0
2962 -3090 0
-2963 3091 0
2963 -3091 0
-2964 3092 0
2964 -3092 0
-2965 3093 0
2965 -3093 0
-2966 3094 0
2966 -3094 0
-2967 3095 0
2967 -3095 0
-2968 3096 0
2968 -3096 0
-2969 3097 0
2969 -3097 0
-2970 3098 0
2970 -3098 0
-2971 3099 0
2971 -3099 0
-2972 3100 0
2972 -3100 0
-2973 3101 0
2973 -3101 0
-2974 3102 0
2974 -3102 0
-2975 3103 0
2975 -3103 0
-2976 3104 0
2976 -3104 0
-2977 3105 0
2977 -3105 0
-2978 3106 0
2978 -3106 0
-2979 3107 0
2979 -3107 0
-2980 3108 0
2980 -3108 0
-2981 3109 0
2981 -3109 0
-2982 3110 0
2982 -3110 0
-2983 3111 0
2983 -3111 0
-2984 3112 0
2984 -3112 0
-2985 3113 0
2985 -3113 0
-2986 3114 0
2986 -3114 0
-2987 3115 0
2987 -3115 0
-2988 3116 0
2988 -3116 0
-2989 3117 0
2989 -3117 0
-2990 3118 0
2990 -3118 0
-2991 3119 0
2991 -3119 0
-2992 3120 0
2992 -3120 0
-2993 3121 0
2993 -3121 0
-2994 3122 0
2994 -3122 0
-2995 3123 0
2995 -3123 0
-2996 3124 0
2996 -3124 0
-2997 3125 0
2997 -3125 0
-2998 3126 0
2998 -3126 0
-2999 3127 0
2999 -3127 0
-3000 3128 0
3000 -3128 0
-3001 3129 0
3001 -3129 0
-3002 3130 0
3002 -3130 0
-3003 3131 0
3003 -3131 0
-3004 3132 0
3004 -3132 0
-3005 3133 0
3005 -3133 0
-3006 3134 0
3006 -3134 0
-3007 3135 0
3007 -3135 0
-3008 3136 0
3008 -3136 0
-3009 3137 0
3009 -3137 0
-3010 3138 0
3010 -3138 0
-3139 4131 0
3139 -4131 0
-3140 4132 0
3140 -4132 0
-3141 4133 0
3141 -4133 0
-3142 4134 0
3142 -4134 0
-3143 4135 0
3143 -4135 0
-3144 4136 0
3144 -4136 0
-3145 4137 0
3145 -4137 0
-3146 4138 0
3146 -4138 0
-3147 4139 0
3147 -4139 0
-3148 4140 0
3148 -4140 0
-3149 4141 0
3149 -4141 0
-3150 4142 0
3150 -4142 0
-3151 4143 0
3151 -4143 0
-3152 4144 0
3152 -4144 0
-3153 4145 0
3153 -4145 0
-3154 4146 0
3154 -4146 0
-3155 4147 0
3155 -4147 0
-3156 4148 0
3156 -4148 0
-3157 4149 0
3157 -4149 0
-3158 4150 0
3158 -4150 0
-3159 4151 0
3159 -4151 0
-3160 4152 0
3160 -4152 0
-3161 4153 0
3161 -4153 0
-3162 4154 0
3162 -4154 0
-3163 4155 0
3163 -4155 0
-3164 4156 0
3164 -4156 0
-3165 4157 0
3165 -4157 0
-3166 4158 0
3166 -4158 0
-3167 4159 0
3167 -4159 0
-3168 4160 0
3168 -4160 0
-3169 4161 0
3169 -4161 0
-3170 4162 0
3170 -4162 0
-3171 4163 0
3171 -4163 0
-3172 4164 0
3172 -4164 0
-3173 4165 0
3173 -4165 0
-3174 4166 0
3174 -4166 0
-3175 4167 0
3175 -4167 0
-3176 4168 0
3176 -4168 0
-3177 4169 0
3177 -4169 0
-3178 4170 0
3178 -4170 0
-3179 4171 0
3179 -4171 0
-3180 4172 0
3180 -4172 0
-3181 4173 0
3181 -4173 0
-3182 4174 0
3182 -4174 0
-3183 4175 0
3183 -4175 0
-3184 4176 0
3184 -4176 0
-3185 4177 0
3185 -4177 0
-3186 4178 0
3186 -4178 0
-3187 4179 0
3187 -4179 0
-3188 4180 0
3188 -4180 0
-3189 4181 0
3189 -4181 0
-3190 4182 0
3190 -4182 0
-3191 4183 0
3191 -4183 0
-3192 4184 0
3192 -4184 0
-3193 4185 0
3193 -4185 0
-3194 4186 0
3194 -4186 0
-3195 4187 0
3195 -4187 0
-3196 4188 0
3196 -4188 0
-3197 4189 0
3197 -4189 0
-3198 4190 0
3198 -4190 0
-3199 4191 0
3199 -4191 0
-3200 4192 0
3200 -4192 0
-3201 4193 0
3201 -4193 0
-3202 4194 0
3202 -4194 0
-3203 4195 0
3203 -4195 0
-3204 4196 0
3204 -4196 0
-3205 4197 0
3205 -4197 0
-3206 4198 0
3206 -4198 0
-3207 4199 0
3207 -4199 0
-3208 4200 0
3208 -4200 0
-3209 4201 0
3209 -4201 0
-3210 4202 0
3210 -4202 0
-3211 4203 0
3211 -4203 0
-3212 4204 0
3212 -4204 0
-3213 4205 0
3213 -4205 0
-3214 4206 0
3214 -4206 0
-3215 4207 0
3215 -4207 0
-3216 4208 0
3216 -4208 0
-3217 4209 0
3217 -4209 0
-3218 4210 0
3218 -4210 0
-3219 4211 0
3219 -4211 0
-3220 4212 0
3220 -4212 0
-3221 4213 0
3221 -4213 0
-3222 4214 0
3222 -4214 0
-3223 4215 0
3223 -4215 0
-3224 4216 0
3224 -4216 0
-3225 4217 0
3225 -4217 0
-3226 4218 0
3226 -4218 0
-3227 4219 0
3227 -4219 0
-3228 4220 0
3228 -4220 0
-3229 4221 0
3229 -4221 0
-3230 4222 0
3230 -4222 0
-3231 4223 0
3231 -4223 0
-3232 4224 0
3232 -4224 0
-3233 4225 0
3233 -4225 0
-3234 4226 0
3234 -4226 0
-3235 4227 0
3235 -4227 0
-3236 4228 0
3236 -4228 0
-3237 4229 0
3237 -4229 0
-3238 4230 0
3238 -4230 0
-3239 4231 0
3239 -4231 0
-3240 4232 0
3240 -4232 0
-3241 4233 0
3241 -4233 0
-3242 4234 0
3242 -4234 0
-3243 4235 0
3243 -4235 0
-3244 4236 0
3244 -4236 0
-3245 4237 0
3245 -4237 0
-3246 4238 0
3246 -4238 0
-3247 4239 0
3247 -4239 0
-3248 4240 0
3248 -4240 0
-3249 4241 0
3249 -4241 0
-3250 4242 0
3250 -4242 0
-3251 4243 0
3251 -4243 0
-3252 4244 0
3252 -4244 0
-3253 4245 0
3253 -4245 0
-3254 4246 0
3254 -4246 0
-3255 4247 0
3255 -4247 0
-3256 4248 0
3256 -4248 0
-3257 4249 0
3257 -4249 0
-3258 4250 0
3258 -4250 0
-3259 4251 0
3259 -4251 0
-3260 4252 0
3260 -4252 0
-3261 4253 0
3261 -4253 0
-3262 4254 0
3262 -4254 0
-3263 4255 0
3263 -4255 0
-3264 4256 0
3264 -4256 0
-3265 4257 0
3265 -4257 0
-3266 4258 0
3266 -4258 0
-4259 4741 0
4259 -4741 0
-4260 4742 0
4260 -4742 0
-4261 4743 0
4261 -4743 0
-4262 4744 0
4262 -4744 0
-4263 4745 0
4263 -4745 0
-4264 4746 0
4264 -4746 0
-4265 4747 0
4265 -4747 0
-4266 4748 0
4266 -4748 0
-4267 4749 0
4267 -4749 0
-4268 4750 0
4268 -4750 0
-4269 4751 0
4269 -4751 0
-4270 4752 0
4270 -4752 0
-4271 4753 0
4271 -4753 0
-4272 4754 0
4272 -4754 0
-4273 4755 0
4273 -4755 0
-4274 4756 0
4274 -4756 0
-4275 4757 0
4275 -4757 0
-4276 4758 0
4276 -4758 0
-4277 4759 0
4277 -4759 0
-4278 4760 0
4278 -4760 0
-4279 4761 0
4279 -4761 0
-4280 4762 0
4280 -4762 0
-4281 4763 0
4281 -4763 0
-4282 4764 0
4282 -4764 0
-4283 4765 0
4283 -4765 0
-4284 4766 0
4284 -4766 0
-4285 4767 0
4285 -4767 0
-4286 4768 0
4286 -4768 0
-4287 4769 0
4287 -4769 0
-4288 4770 0
4288 -4770 0
-4289 4771 0
4289 -4771 0
-4290 4772 0
4290 -4772 0
-4291 4773 0
4291 -4773 0
-4292 4774 0
4292 -4774 0
-4293 4775 0
4293 -4775 0
-4294 4776 0
4294 -4776 0
-4295 4777 0
4295 -4777 0
-4296 4778 0
4296 -4778 0
-4297 4779 0
4297 -4779 0
-4298 4780 0
4298 -4780 0
-4299 4781 0
4299 -4781 0
-4300 4782 0
4300 -4782 0
-4301 4783 0
4301 -4783 0
-4302 4784 0
4302 -4784 0
-4303 4785 0
4303 -4785 0
-4304 4786 0
4304 -4786 0
-4305 4787 0
4305 -4787 0
-4306 4788 0
4306 -4788 0
-4307 4789 0
4307 -4789 0
-4308 4790 0
4308 -4790 0
-4309 4791 0
4309 -4791 0
-4310 4792 0
4310 -4792 0
-4311 4793 0
4311 -4793 0
-4312 4794 0
4312 -4794 0
-4313 4795 0
4313 -4795 0
-4314 4796 0
4314 -4796 0
-4315 4797 0
4315 -4797 0
-4316 4798 0
4316 -4798 0
-4317 4799 0
4317 -4799 0
-4318 4800 0
4318 -4800 0
-4319 4801 0
4319 -4801 0
-4320 4802 0
4320 -4802 0
-4321 4803 0
4321 -4803 0
-4322 4804 0
4322 -4804 0
-4323 4805 0
4323 -4805 0
-4324 4806 0
4324 -4806 0
-4325 4807 0
4325 -4807 0
-4326 4808 0
4326 -4808 0
-4327 4809 0
4327 -4809 0
-4328 4810 0
4328 -4810 0
-4329 4811 0
4329 -4811 0
-4330 4812 0
4330 -4812 0
-4331 4813 0
4331 -4813 0
-4332 4814 0
4332 -4814 0
-4333 4815 0
4333 -4815 0
-4334 4816 0
4334 -4816 0
-4335 4817 0
4335 -4817 0
-4336 4818 0
4336 -4818 0
-4337 4819 0
4337 -4819 0
-4338 4820 0
4338 -4820 0
-4339 4821 0
4339 -4821 0
-4340 4822 0
4340 -4822 0
-4341 4823 0
4341 -4823 0
-4342 4824 0
4342 -4824 0
-4343 4825 0
4343 -4825 0
-4344 4826 0
4344 -4826 0
-4345 4827 0
4345 -4827 0
-4346 4828 0
4346 -4828 0
-4347 4829 0
4347 -4829 0
-4348 4830 0
4348 -4830 0
-4349 4831 0
4349 -4831 0
-4350 4832 0
4350 -4832 0
-4351 4833 0
4351 -4833 0
-4352 4834 0
4352 -4834 0
-4353 4835 0
4353 -4835 0
-4354 4836 0
4354 -4836 0
-4355 4837 0
4355 -4837 0
-4356 4838 0
4356 -4838 0
-4357 4839 0
4357 -4839 0
-4358 4840 0
4358 -4840 0
-4359 4841 0
4359 -4841 0
-4360 4842 0
4360 -4842 0
-4361 4843 0
4361 -4843 0
-4362 4844 0
4362 -4844 0
-4363 4845 0
4363 -4845 0
-4364 4846 0
4364 -4846 0
-4365 4847 0
4365 -4847 0
-4366 4848 0
4366 -4848 0
-4367 4849 0
4367 -4849 0
-4368 4850 0
4368 -4850 0
-4369 4851 0
4369 -4851 0
-4370 4852 0
4370 -4852 0
-4371 4853 0
4371 -4853 0
-4372 4854 0
4372 -4854 0
-4373 4855 0
4373 -4855 0
-4374 4856 0
4374 -4856 0
-4375 4857 0
4375 -4857 0
-4376 4858 0
4376 -4858 0
-4377 4859 0
4377 -4859 0
-4378 4860 0
4378 -4860 0
-4379 4861 0
4379 -4861 0
-4380 4862 0
4380 -4862 0
-4381 4863 0
4381 -4863 0
-4382 4864 0
4382 -4864 0
-4383 4865 0
4383 -4865 0
-4384 4866 0
4384 -4866 0
-4385 4867 0
4385 -4867 0
-4386 4868 0
4386 -4868 0
-4869 4997 0
4869 -4997 0
-4870 4998 0
4870 -4998 0
-4871 4999 0
4871 -4999 0
-4872 5000 0
4872 -5000 0
-4873 5001 0
4873 -5001 0
-4874 5002 0
4874 -5002 0
-4875 5003 0
4875 -5003 0
-4876 5004 0
4876 -5004 0
-4877 5005 0
4877 -5005 0
-4878 5006 0
4878 -5006 0
-4879 5007 0
4879 -5007 0
-4880 5008 0
4880 -5008 0
-4881 5009 0
4881 -5009 0
-4882 5010 0
4882 -5010 0
-4883 5011 0
4883 -5011 0
-4884 5012 0
4884 -5012 0
-4885 5013 0
4885 -5013 0
-4886 5014 0
4886 -5014 0
-4887 5015 0
4887 -5015 0
-4888 5016 0
4888 -5016 0
-4889 5017 0
4889 -5017 0
-4890 5018 0
4890 -5018 0
-4891 5019 0
4891 -5019 0
-4892 5020 0
4892 -5020 0
-4893 5021 0
4893 -5021 0
-4894 5022 0
4894 -5022 0
-4895 5023 0
4895 -5023 0
-4896 5024 0
4896 -5024 0
-4897 5025 0
4897 -5025 0
-4898 5026 0
4898 -5026 0
-4899 5027 0
4899 -5027 0
-4900 5028 0
4900 -5028 0
-4901 5029 0
4901 -5029 0
-4902 5030 0
4902 -5030 0
-4903 5031 0
4903 -5031 0
-4904 5032 0
4904 -5032 0
-4905 5033 0
4905 -5033 0
-4906 5034 0
4906 -5034 0
-4907 5035 0
4907 -5035 0
-4908 5036 0
4908 -5036 0
-4909 5037 0
4909 -5037 0
-4910 5038 0
4910 -5038 0
-4911 5039 0
4911 -5039 0
-4912 5040 0
4912 -5040 0
-4913 5041 0
4913 -5041 0
-4914 5042 0
4914 -5042 0
-4915 5043 0
4915 -5043 0
-4916 5044 0
4916 -5044 0
-4917 5045 0
4917 -5045 0
-4918 5046 0
4918 -5046 0
-4919 5047 0
4919 -5047 0
-4920 5048 0
4920 -5048 0
-4921 5049 0
4921 -5049 0
-4922 5050 0
4922 -5050 0
-4923 5051 0
4923 -5051 0
-4924 5052 0
4924 -5052 0
-4925 5053 0
4925 -5053 0
-4926 5054 0
4926 -5054 0
-4927 5055 0
4927 -5055 0
-4928 5056 0
4928 -5056 0
-4929 5057 0
4929 -5057 0
-4930 5058 0
4930 -5058 0
-4931 5059 0
4931 -5059 0
-4932 5060 0
4932 -5060 0
-4933 5061 0
4933 -5061 0
-4934 5062 0
4934 -5062 0
-4935 5063 0
4935 -5063 0
-4936 5064 0
4936 -5064 0
-4937 5065 0
4937 -5065 0
-4938 5066 0
4938 -5066 0
-4939 5067 0
4939 -5067 0
-4940 5068 0
4940 -5068 0
-4941 5069 0
4941 -5069 0
-4942 5070 0
4942 -5070 0
-4943 5071 0
4943 -5071 0
-4944 5072 0
4944 -5072 0
-4945 5073 0
4945 -5073 0
-4946 5074 0
4946 -5074 0
-4947 5075 0
4947 -5075 0
-4948 5076 0
4948 -5076 0
-4949 5077 0
4949 -5077 0
-4950 5078 0
4950 -5078 0
-4951 5079 0
4951 -5079 0
-4952 5080 0
4952 -5080 0
-4953 5081 0
4953 -5081 0
-4954 5082 0
4954 -5082 0
-4955 5083 0
4955 -5083 0
-4956 5084 0
4956 -5084 0
-4957 5085 0
4957 -5085 0
-4958 5086 0
4958 -5086 0
-4959 5087 0
4959 -5087 0
-4960 5088 0
4960 -5088 0
-4961 5089 0
4961 -5089 0
-4962 5090 0
4962 -5090 0
-4963 5091 0
4963 -5091 0
-4964 5092 0
4964 -5092 0
-4965 5093 0
4965 -5093 0
-4966 5094 0
4966 -5094 0
-4967 5095 0
4967 -5095 0
-4968 5096 0
4968 -5096 0
-4969 5097 0
4969 -5097 0
-4970 5098 0
4970 -5098 0
-4971 5099 0
4971 -5099 0
-4972 5100 0
4972 -5100 0
-4973 5101 0
4973 -5101 0
-4974 5102 0
4974 -5102 0
-4975 5103 0
4975 -5103 0
-4976 5104 0
4976 -5104 0
-4977 5105 0
4977 -5105 0
-4978 5106 0
4978 -5106 0
-4979 5107 0
4979 -5107 0
-4980 5108 0
4980 -5108 0
-4981 5109 0
4981 -5109 0
-4982 5110 0
4982 -5110 0
-4983 5111 0
4983 -5111 0
-4984 5112 0
4984 -5112 0
-4985 5113 0
4985 -5113 0
-4986 5114 0
4986 -5114 0
-4987 5115 0
4987 -5115 0
-4988 5116 0
4988 -5116 0
-4989 5117 0
4989 -5117 0
-4990 5118 0
4990 -5118 0
-4991 5119 0
4991 -5119 0
-4992 5120 0
4992 -5120 0
-4993 5121 0
4993 -5121 0
-4994 5122 0
4994 -5122 0
-4995 5123 0
4995 -5123 0
-4996 5124 0
4996 -5124 0
-5125 6117 0
5125 -6117 0
-5126 6118 0
5126 -6118 0
-5127 6119 0
5127 -6119 0
-5128 6120 0
5128 -6120 0
-5129 6121 0
5129 -6121 0
-5130 6122 0
5130 -6122 0
-5131 6123 0
5131 -6123 0
-5132 6124 0
5132 -6124 0
-5133 6125 0
5133 -6125 0
-5134 6126 0
5134 -6126 0
-5135 6127 0
5135 -6127 0
-5136 6128 0
5136 -6128 0
-5137 6129 0
5137 -6129 0
-5138 6130 0
5138 -6130 0
-5139 6131 0
5139 -6131 0
-5140 6132 0
5140 -6132 0
-5141 6133 0
5141 -6133 0
-5142 6134 0
5142 -6134 0
-5143 6135 0
5143 -6135 0
-5144 6136 0
5144 -6136 0
-5145 6137 0
5145 -6137 0
-5146 6138 0
5146 -6138 0
-5147 6139 0
5147 -6139 0
-5148 6140 0
5148 -6140 0
-5149 6141 0
5149 -6141 0
-5150 6142 0
5150 -6142 0
-5151 6143 0
5151 -6143 0
-5152 6144 0
5152 -6144 0
-5153 6145 0
5153 -6145 0
-5154 6146 0
5154 -6146 0
-5155 6147 0
5155 -6147 0
-5156 6148 0
5156 -6148 0
-5157 6149 0
5157 -6149 0
-5158 6150 0
5158 -6150 0
-5159 6151 0
5159 -6151 0
-5160 6152 0
5160 -6152 0
-5161 6153 0
5161 -6153 0
-5162 6154 0
5162 -6154 0
-5163 6155 0
5163 -6155 0
-5164 6156 0
5164 -6156 0
-5165 6157 0
5165 -6157 0
-5166 6158 0
5166 -6158 0
-5167 6159 0
5167 -6159 0
-5168 6160 0
5168 -6160 0
-5169 6161 0
5169 -6161 0
-5170 6162 0
5170 -6162 0
-5171 6163 0
5171 -6163 0
-5172 6164 0
5172 -6164 0
-5173 6165 0
5173 -6165 0
-5174 6166 0
5174 -6166 0
-5175 6167 0
5175 -6167 0
-5176 6168 0
5176 -6168 0
-5177 6169 0
5177 -6169 0
-5178 6170 0
5178 -6170 0
-5179 6171 0
5179 -6171 0
-5180 6172 0
5180 -6172 0
-5181 6173 0
5181 -6173 0
-5182 6174 0
5182 -6174 0
-5183 6175 0
5183 -6175 0
-5184 6176 0
5184 -6176 0
-5185 6177 0
5185 -6177 0
-5186 6178 0
5186 -6178 0
-5187 6179 0
5187 -6179 0
-5188 6180 0
5188 -6180 0
-5189 6181 0
5189 -6181 0
-5190 6182 0
5190 -6182 0
-5191 6183 0
5191 -6183 0
-5192 6184 0
5192 -6184 0
-5193 6185 0
5193 -6185 0
-5194 6186 0
5194 -6186 0
-5195 6187 0
5195 -6187 0
-5196 6188 0
5196 -6188 0
-5197 6189 0
5197 -6189 0
-5198 6190 0
5198 -6190 0
-5199 6191 0
5199 -6191 0
-5200 6192 0
5200 -6192 0
-5201 6193 0
5201 -6193 0
-5202 6194 0
5202 -6194 0
-5203 6195 0
5203 -6195 0
-5204 6196 0
5204 -6196 0
-5205 6197 0
5205 -6197 0
-5206 6198 0
5206 -6198 0
-5207 6199 0
5207 -6199 0
-5208 6200 0
5208 -6200 0
-5209 6201 0
5209 -6201 0
-5210 6202 0
5210 -6202 0
-5211 6203 0
5211 -6203 0
-5212 6204 0
5212 -6204 0
-5213 6205 0
5213 -6205 0
-5214 6206 0
5214 -6206 0
-5215 6207 0
5215 -6207 0
-5216 6208 0
5216 -6208 0
-5217 6209 0
5217 -6209 0
-5218 6210 0
5218 -6210 0
-5219 6211 0
5219 -6211 0
-5220 6212 0
5220 -6212 0
-5221 6213 0
5221 -6213 0
-5222 6214 0
5222 -6214 0
-5223 6215 0
5223 -6215 0
-5224 6216 0
5224 -6216 0
-5225 6217 0
5225 -6217 0
-5226 6218 0
5226 -6218 0
-5227 6219 0
5227 -6219 0
-5228 6220 0
5228 -6220 0
-5229 6221 0
5229 -6221 0
-5230 6222 0
5230 -6222 0
-5231 6223 0
5231 -6223 0
-5232 6224 0
5232 -6224 0
-5233 6225 0
5233 -6225 0
-5234 6226 0
5234 -6226 0
-5235 6227 0
5235 -6227 0
-5236 6228 0
5236 -6228 0
-5237 6229 0
5237 -6229 0
-5238 6230 0
5238 -6230 0
-5239 6231 0
5239 -6231 0
-5240 6232 0
5240 -6232 0
-5241 6233 0
5241 -6233 0
-5242 6234 0
5242 -6234 0
-5243 6235 0
5243 -6235 0
-5244 6236 0
5244 -6236 0
-5245 6237 0
5245 -6237 0
-5246 6238 0
5246 -6238 0
-5247 6239 0
5247 -6239 0
-5248 6240 0
5248 -6240 0
-5249 6241 0
5249 -6241 0
-5250 6242 0
5250 -6242 0
-5251 6243 0
5251 -6243 0
-5252 6244 0
5252 -6244 0
-6245 6373 0
6245 -6373 0
-6246 6374 0
6246 -6374 0
-6247 6375 0
6247 -6375 0
-6248 6376 0
6248 -6376 0
-6249 6377 0
6249 -6377 0
-6250 6378 0
6250 -6378 0
-6251 6379 0
6251 -6379 0
-6252 6380 0
6252 -6380 0
-6253 6381 0
6253 -6381 0
-6254 6382 0
6254 -6382 0
-6255 6383 0
6255 -6383 0
-6256 6384 0
6256 -6384 0
-6257 6385 0
6257 -6385 0
-6258 6386 0
6258 -6386 0
-6259 6387 0
6259 -6387 0
-6260 6388 0
6260 -6388 0
-6261 6389 0
6261 -6389 0
-6262 6390 0
6262 -6390 0
-6263 6391 0
6263 -6391 0
-6264 6392 0
6264 -6392 0
-6265 6393 0
6265 -6393 0
-6266 6394 0
6266 -6394 0
-6267 6395 0
6267 -6395 0
-6268 6396 0
6268 -6396 0
-6269 6397 0
6269 -6397 0
-6270 6398 0
6270 -6398 0
-6271 6399 0
6271 -6399 0
-6272 6400 0
6272 -6400 0
-6273 6401 0
6273 -6401 0
-6274 6402 0
6274 -6402 0
-6275 6403 0
6275 -6403 0
-6276 6404 0
6276 -6404 0
-6277 6405 0
6277 -6405 0
-6278 6406 0
6278 -6406 0
-6279 6407 0
6279 -6407 0
-6280 6408 0
6280 -6408 0
-6281 6409 0
6281 -6409 0
-6282 6410 0
6282 -6410 0
-6283 6411 0
6283 -6411 0
-6284 6412 0
6284 -6412 0
-6285 6413 0
6285 -6413 0
-6286 6414 0
6286 -6414 0
-6287 6415 0
6287 -6415 0
-6288 6416 0
6288 -6416 0
-6289 6417 0
6289 -6417 0
-6290 6418 0
6290 -6418 0
-6291 6419 0
6291 -6419 0
-6292 6420 0
6292 -6420 0
-6293 6421 0
6293 -6421 0
-6294 6422 0
6294 -6422 0
-6295 6423 0
6295 -6423 0
-6296 6424 0
6296 -6424 0
-6297 6425 0
6297 -6425 0
-6298 6426 0
6298 -6426 0
-6299 6427 0
6299 -6427 0
-6300 6428 0
6300 -6428 0
-6301 6429 0
6301 -6429 0
-6302 6430 0
6302 -6430 0
-6303 6431 0
6303 -6431 0
-6304 6432 0
6304 -6432 0
-6305 6433 0
6305 -6433 0
-6306 6434 0
6306 -6434 0
-6307 6435 0
6307 -6435 0
-6308 6436 0
6308 -6436 0
-6309 6437 0
6309 -6437 0
-6310 6438 0
6310 -6438 0
-6311 6439 0
6311 -6439 0
-6312 6440 0
6312 -6440 0
-6313 6441 0
6313 -6441 0
-6314 6442 0
6314 -6442 0
-6315 6443 0
6315 -6443 0
-6316 6444 0
6316 -6444 0
-6317 6445 0
6317 -6445 0
-6318 6446 0
6318 -6446 0
-6319 6447 0
6319 -6447 0
-6320 6448 0
6320 -6448 0
-6321 6449 0
6321 -6449 0
-6322 6450 0
6322 -6450 0
-6323 6451 0
6323 -6451 0
-6324 6452 0
6324 -6452 0
-6325 6453 0
6325 -6453 0
-6326 6454 0
6326 -6454 0
-6327 6455 0
6327 -6455 0
-6328 6456 0
6328 -6456 0
-6329 6457 0
6329 -6457 0
-6330 6458 0
6330 -6458 0
-6331 6459 0
6331 -6459 0
-6332 6460 0
6332 -6460 0
-6333 6461 0
6333 -6461 0
-6334 6462 0
6334 -6462 0
-6335 6463 0
6335 -6463 0
-6336 6464 0
6336 -6464 0
-6337 6465 0
6337 -6465 0
-6338 6466 0
6338 -6466 0
-6339 6467 0
6339 -6467 0
-6340 6468 0
6340 -6468 0
-6341 6469 0
6341 -6469 0
-6342 6470 0
6342 -6470 0
-6343 6471 0
6343 -6471 0
-6344 6472 0
6344 -6472 0
-6345 6473 0
6345 -6473 0
-6346 6474 0
6346 -6474 0
-6347 6475 0
6347 -6475 0
-6348 6476 0
6348 -6476 0
-6349 6477 0
6349 -6477 0
-6350 6478 0
6350 -6478 0
-6351 6479 0
6351 -6479 0
-6352 6480 0
6352 -6480 0
-6353 6481 0
6353 -6481 0
-6354 6482 0
6354 -6482 0
-6355 6483 0
6355 -6483 0
-6356 6484 0
6356 -6484 0
-6357 6485 0
6357 -6485 0
-6358 6486 0
6358 -6486 0
-6359 6487 0
6359 -6487 0
-6360 6488 0
6360 -6488 0
-6361 6489 0
6361 -6489 0
-6362 6490 0
6362 -6490 0
-6363 6491 0
6363 -6491 0
-6364 6492 0
6364 -6492 0
-6365 6493 0
6365 -6493 0
-6366 6494 0
6366 -6494 0
-6367 6495 0
6367 -6495 0
-6368 6496 0
6368 -6496 0
-6369 6497 0
6369 -6497 0
-6370 6498 0
6370 -6498 0
-6371 6499 0
6371 -6499 0
-6372 6500 0
6372 -6500 0
-6501 6629 0
6501 -6629 0
-6502 6630 0
6502 -6630 0
-6503 6631 0
6503 -6631 0
-6504 6632 0
6504 -6632 0
-6505 6633 0
6505 -6633 0
-6506 6634 0
6506 -6634 0
-6507 6635 0
6507 -6635 0
-6508 6636 0
6508 -6636 0
-6509 6637 0
6509 -6637 0
-6510 6638 0
6510 -6638 0
-6511 6639 0
6511 -6639 0
-6512 6640 0
6512 -6640 0
-6513 6641 0
6513 -6641 0
-6514 6642 0
6514 -6642 0
-6515 6643 0
6515 -6643 0
-6516 6644 0
6516 -6644 0
-6517 6645 0
6517 -6645 0
-6518 6646 0
6518 -6646 0
-6519 6647 0
6519 -6647 0
-6520 6648 0
6520 -6648 0
-6521 6649 0
6521 -6649 0
-6522 6650 0
6522 -6650 0
-6523 6651 0
6523 -6651 0
-6524 6652 0
6524 -6652 0
-6525 6653 0
6525 -6653 0
-6526 6654 0
6526 -6654 0
-6527 6655 0
6527 -6655 0
-6528 6656 0
6528 -6656 0
-6529 6657 0
6529 -6657 0
-6530 6658 0
6530 -6658 0
-6531 6659 0
6531 -6659 0
-6532 6660 0
6532 -6660 0
-6533 6661 0
6533 -6661 0
-6534 6662 0
6534 -6662 0
-6535 6663 0
6535 -6663 0
-6536 6664 0
6536 -6664 0
-6537 6665 0
6537 -6665 0
-6538 6666 0
6538 -6666 0
-6539 6667 0
6539 -6667 0
-6540 6668 0
6540 -6668 0
-6541 6669 0
6541 -6669 0
-6542 6670 0
6542 -6670 0
-6543 6671 0
6543 -6671 0
-6544 6672 0
6544 -6672 0
-6545 6673 0
6545 -6673 0
-6546 6674 0
6546 -6674 0
-6547 6675 0
6547 -6675 0
-6548 6676 0
6548 -6676 0
-6549 6677 0
6549 -6677 0
-6550 6678 0
6550 -6678 0
-6551 6679 0
6551 -6679 0
-6552 6680 0
6552 -6680 0
-6553 6681 0
6553 -6681 0
-6554 6682 0
6554 -6682 0
-6555 6683 0
6555 -6683 0
-6556 6684 0
6556 -6684 0
-6557 6685 0
6557 -6685 0
-6558 6686 0
6558 -6686 0
-6559 6687 0
6559 -6687 0
-6560 6688 0
6560 -6688 0
-6561 6689 0
6561 -6689 0
-6562 6690 0
6562 -6690 0
-6563 6691 0
6563 -6691 0
-6564 6692 0
6564 -6692 0
-6565 6693 0
6565 -6693 0
-6566 6694 0
6566 -6694 0
-6567 6695 0
6567 -6695 0
-6568 6696 0
6568 -6696 0
-6569 6697 0
6569 -6697 0
-6570 6698 0
6570 -6698 0
-6571 6699 0
6571 -6699 0
-6572 6700 0
6572 -6700 0
-6573 6701 0
6573 -6701 0
-6574 6702 0
6574 -6702 0
-6575 6703 0
6575 -6703 0
-6576 6704 0
6576 -6704 0
-6577 6705 0
6577 -6705 0
-6578 6706 0
6578 -6706 0
-6579 6707 0
6579 -6707 0
-6580 6708 0
6580 -6708 0
-6581 6709 0
6581 -6709 0
-6582 6710 0
6582 -6710 0
-6583 6711 0
6583 -6711 0
-6584 6712 0
6584 -6712 0
-6585 6713 0
6585 -6713 0
-6586 6714 0
6586 -6714 0
-6587 6715 0
6587 -6715 0
-6588 6716 0
6588 -6716 0
-6589 6717 0
6589 -6717 0
-6590 6718 0
6590 -6718 0
-6591 6719 0
6591 -6719 0
-6592 6720 0
6592 -6720 0
-6593 6721 0
6593 -6721 0
-6594 6722 0
6594 -6722 0
-6595 6723 0
6595 -6723 0
-6596 6724 0
6596 -6724 0
-6597 6725 0
6597 -6725 0
-6598 6726 0
6598 -6726 0
-6599 6727 0
6599 -6727 0
-6600 6728 0
6600 -6728 0
-6601 6729 0
6601 -6729 0
-6602 6730 0
6602 -6730 0
-6603 6731 0
6603 -6731 0
-6604 6732 0
6604 -6732 0
-6605 6733 0
6605 -6733 0
-6606 6734 0
6606 -6734 0
-6607 6735 0
6607 -6735 0
-6608 6736 0
6608 -6736 0
-6609 6737 0
6609 -6737 0
-6610 6738 0
6610 -6738 0
-6611 6739 0
6611 -6739 0
-6612 6740 0
6612 -6740 0
-6613 6741 0
6613 -6741 0
-6614 6742 0
6614 -6742 0
-6615 6743 0
6615 -6743 0
-6616 6744 0
6616 -6744 0
-6617 6745 0
6617 -6745 0
-6618 6746 0
6618 -6746 0
-6619 6747 0
6619 -6747 0
-6620 6748 0
6620 -6748 0
-6621 6749 0
6621 -6749 0
-6622 6750 0
6622 -6750 0
-6623 6751 0
6623 -6751 0
-6624 6752 0
6624 -6752 0
-6625 6753 0
6625 -6753 0
-6626 6754 0
6626 -6754 0
-6627 6755 0
6627 -6755 0
-6628 6756 0
6628 -6756 0
1 2 3 4 5 6 7 8 9 10 11 12 13 14 15 16 17 18 19 20 21 22 23 24 25 26 27 28 29 30 31 32 33 34 35 36 37 38 39 40 41 42 43 44 45 46 47 48 49 50 51 52 53 54 55 56 57 58 59 60 61 62 63 64 65 66 67 68 69 70 71 72 73 74 75 76 77 78 79 80 81 82 83 84 85 86 87 88 89 90 91 92 93 94 95 96 97 98 99 100 101 102 103 104 105 106 107 108 109 110 111 112 113 114 115 116 117 118 119 120 121 122 123 124 125 126 127 128 129 130 131 132 133 134 135 136 137 138 139 140 141 142 143 144 145 146 147 148 149 150 151 152 153 154 155 156 157 158 159 160 161 162 163 164 165 166 167 168 169 170 171 172 173 174 175 176 177 178 179 180 181 182 183 184 185 186 187 188 189 190 191 192 193 194 195 196 197 198 199 200 201 202 203 204 205 206 207 208 209 210 211 212 213 214 215 216 217 218 219 220 221 222 223 224 225 226 227 228 229 230 231 232 233 234 235 236 237 238 239 240 241 242 243 244 245 246 247 248 249 250 251 252 253 254 255 256 257 258 259 260 261 262 263 264 265 266 267 268 269 270 271 272 273 274 275 276 277 278 279 280 281 282 283 284 285 286 287 288 289 290 291 292 293 294 295 296 297 298 299 300 301 302 303 304 305 306 307 308 309 310 311 312 313 314 315 316 317 318 319 320 321 322 323 324 325 326 327 328 329 330 331 332 333 334 335 336 337 338 339 340 341 342 343 344 345 346 347 348 349 350 351 352 353 354 355 356 357 358 359 360 361 362 363 364 365 366 367 368 369 370 371 372 373 374 375 376 377 378 379 380 381 382 383 384 385 386 387 388 389 390 391 392 393 394 395 396 397 398 399 400 401 402 403 404 405 406 407 408 409 410 411 412 413 414 415 416 417 418 419 420 421 422 423 424 425 426 427 428 429 430 431 432 433 434 435 436 437 438 439 440 441 442 443 444 445 446 447 448 449 450 451 452 453 454 455 456 457 458 459 460 461 462 463 464 465 466 467 468 469 470 471 472 473 474 475 476 477 478 479 480 481 482 483 484 485 486 487 488 489 490 491 492 493 494 495 496 497 498 499 500 501 502 503 504 505 506 507 508 509 510 511 512 513 514 515 516 517 518 519 520 521 522 523 524 525 526 527 528 529 530 531 532 533 534 535 536 537 538 539 540 541 542 543 544 545 546 547 548 549 550 551 552 553 554 555 556 557 558 559 560 561 562 563 564 565 566 567 568 569 570 571 572 573 574 575 576 577 578 579 580 581 582 583 584 585 586 587 588 589 590 591 592 593 594 595 596 597 598 599 600 601 602 603 604 605 606 607 608 609 610 611 612 613 614 615 616 617 618 619 620 621 622 623 624 625 626 627 628 629 630 631 632 633 634 635 636 637 638 639 640 641 642 643 644 645 646 647 648 649 650 651 652 653 654 655 656 657 658 659 660 661 662 663 664 665 666 667 668 669 670 671 672 673 674 675 676 677 678 679 680 681 682 683 684 685 686 687 688 689 690 691 692 693 694 695 696 697 698 699 700 701 702 703 704 705 706 707 708 709 710 711 712 713 714 715 716 717 718 719 720 721 722 723 724 725 726 727 728 729 730 731 732 733 734 735 736 737 738 739 740 741 742 743 744 745 746 747 748 749 750 751 752 753 754 755 756 757 758 759 760 761 762 763 764 765 766 767 768 769 770 771 772 773 774 775 776 777 778 779 780 781 782 783 784 785 786 787 788 789 790 791 792 793 794 795 796 797 798 799 800 801 802 803 804 805 806 807 808 809 810 811 812 813 814 815 816 817 818 819 820 821 822 823 824 825 826 827 828 829 830 831 832 833 834 835 836 837 838 839 840 841 842 843 844 845 846 847 848 849 850 851 852 853 854 855 856 857 858 859 860 861 862 863 864 865 866 867 868 869 870 871 872 873 874 875 876 877 878 879 880 881 882 883 884 885 886 887 888 889 890 891 892 893 894 895 896 897 898 899 900 901 902 903 904 905 906 907 908 909 910 911 912 913 914 915 916 917 918 919 920 921 922 923 924 925 926 927 928 929 930 931 932 933 934 935 936 937 938 939 940 941 942 943 944 945 946 947 948 949 950 951 952 953 954 955 956 957 958 959 960 961 962 963 964 965 966 967 968 969 970 971 972 973 974 975 976 977 978 979 980 981 982 983 984 985 986 987 988 989 990 991 992 993 994 995 996 997 998 999 1000 1001 1002 1003 1004 1005 1006 1007 1008 1009 1010 1011 1012 1013 1014 1015 1016 1017 1018 1019 1020 1021 1022 1023 1024 1025 1026 1027 1028 1029 1030 1031 1032 1033 1034 1035 1036 1037 1038 1039 1040 1041 1042 1043 1044 1045 1046 1047 1048 1049 1050 1051 1052 1053 1054 1055 1056 1057 1058 1059 1060 1061 1062 1063 1064 1065 1066 1067 1068 1069 1070 1071 1072 1073 1074 1075 1076 1077 1078 1079 1080 1081 1082 1083 1084 1085 1086 1087 1088 1089 1090 1091 1092 1093 1094 1095 1096 1097 1098 1099 1100 1101 1102 1103 1104 1105 1106 1107 1108 1109 1110 1111 1112 1113 1114 1115 1116 1117 1118 1119 1120 1121 1122 1123 1124 1125 1126 1127 1128 1129 1130 1131 1132 1133 1134 1135 1136 1137 1138 1139 1140 1141 1142 1143 1144 1145 1146 1147 1148 1149 1150 1151 1152 1153 1154 1155 1156 1157 1158 1159 1160 1161 1162 1163 1164 1165 1166 1167 1168 1169 1170 1171 1172 1173 1174 1175 1176 1177 1178 1179 1180 1181 1182 1183 1184 1185 1186 1187 1188 1189 1190 1191 1192 1193 1194 1195 1196 1197 1198 1199 1200 1201 1202 1203 1204 1205 1206 1207 1208 1209 1210 1211 1212 1213 1214 1215 1216 1217 1218 1219 1220 1221 1222 1223 1224 1225 1226 1227 1228 1229 1230 1231 1232 1233 1234 1235 1236 1237 1238 1239 1240 1241 1242 1243 1244 1245 1246 1247 1248 1249 1250 1251 1252 1253 1254 1255 1256 1257 1258 1259 1260 1261 1262 1263 1264 1265 1266 1267 1268 1269 1270 1271 1272 1273 1274 1275 1276 1277 1278 1279 1280 1281 1282 1283 1284 1285 1286 1287 1288 1289 1290 1291 1292 1293 1294 1295 1296 1297 1298 1299 1300 1301 1302 1303 1304 1305 1306 1307 1308 1309 1310 1311 1312 1313 1314 1315 1316 1317 1318 1319 1320 1321 1322 1323 1324 1325 1326 1327 1328 1329 1330 1331 1332 1333 1334 1335 1336 1337 1338 1339 1340 1341 1342 1343 1344 1345 1346 1347 1348 1349 1350 1351 1352 1353 1354 1355 1356 1357 1358 1359 1360 1361 1362 1363 1364 1365 1366 1367 1368 1369 1370 1371 1372 1373 1374 1375 1376 1377 1378 1379 1380 1381 1382 1383 1384 1385 1386 1387 1388 1389 1390 1391 1392 1393 1394 1395 1396 1397 1398 1399 1400 1401 1402 1403 1404 1405 1406 1407 1408 1409 1410 1411 1412 1413 1414 1415 1416 1417 1418 1419 1420 1421 1422 1423 1424 1425 1426 1427 1428 1429 1430 1431 1432 1433 1434 1435 1436 1437 1438 1439 1440 1441 1442 1443 1444 1445 1446 1447 1448 1449 1450 1451 1452 1453 1454 1455 1456 1457 1458 1459 1460 1461 1462 1463 1464 1465 1466 1467 1468 1469 1470 1471 1472 1473 1474 1475 1476 1477 1478 1479 1480 1481 1482 1483 1484 1485 1486 1487 1488 1489 1490 1491 1492 1493 1494 1495 1496 1497 1498 1499 1500 1501 1502 1503 1504 1505 1506 1507 1508 1509 1510 1511 1512 1513 1514 1515 1516 1517 1518 1519 1520 1521 1522 1523 1524 1525 1526 1527 1528 1529 1530 1531 1532 1533 1534 1535 1536 1537 1538 1539 1540 1541 1542 1543 1544 1548 1549 1550 1551 1552 1553 1554 1555 1559 1560 1561 1562 1563 1564 1565 1566 1570 1571 1572 1573 1574 1575 1576 1577 1581 1582 1583 1584 1585 1586 1587 1588 1592 1593 1594 1595 1596 1597 1598 1599 1603 1604 1605 1606 1607 1608 1609 1610 1614 1615 1616 1617 1618 1619 1620 1621 1625 1626 1627 1628 1629 1630 1631 1632 1636 1637 1638 1639 1640 1641 1642 1643 1647 1648 1649 1650 1651 1652 1653 1654 1658 1659 1660 1661 1662 1663 1664 1665 1669 1670 1671 1672 1673 1674 1675 1676 1680 1681 1682 1683 1684 1685 1686 1687 1691 1692 1693 1694 1695 1696 1697 1698 1702 1703 1704 1705 1706 1707 1708 1709 1713 1714 1715 1716 1717 1718 1719 1720 1724 1725 1726 1727 1728 1729 1730 1731 1735 1736 1737 1738 1739 1740 1741 1742 1746 1747 1748 1749 1750 1751 1752 1753 1757 1758 1759 1760 1761 1762 1763 1764 1768 1769 1770 1771 1772 1773 1774 1775 1779 1780 1781 1782 1783 1784 1785 1786 1790 1791 1792 1793 1794 1795 1796 1797 1801 1802 1803 1804 1805 1806 1807 1808 1812 1813 1814 1815 1816 1817 1818 1819 1823 1824 1825 1826 1827 1828 1829 1830 1834 1835 1836 1837 1838 1839 1840 1841 1845 1846 1847 1848 1849 1850 1851 1852 1856 1857 1858 1859 1860 1861 1862 1863 1867 1868 1869 1870 1871 1872 1873 1874 1878 1879 1880 1881 1882 1883 1884 1885 1889 1890 1891 1892 1893 1894 1895 1896 1897 1898 1899 1900 1901 1902 1903 1904 1905 1906 1907 1908 1909 1910 1911 1912 1913 1914 1915 1916 1917 1918 1919 1920 1921 1922 1923 1924 1925 1926 1927 1928 1929 1930 1931 1932 1933 1934 1935 1936 1937 1938 1939 1940 1941 1942 1943 1944 1945 1946 1947 1948 1949 1950 1951 1952 1953 1954 1955 1956 1957 1958 1959 1960 1961 1962 1963 1964 1965 1966 1967 1968 1969 1970 1971 1972 1973 1974 1975 1976 1977 1978 1979 1980 1981 1982 1983 1984 1985 1986 1987 1988 1989 1990 1991 1992 1993 1994 1995 1996 1997 1998 1999 2000 2001 2002 2003 2004 2005 2006 2007 2008 2009 2010 2011 2012 2013 2014 2015 2016 2017 2018 2019 2020 2021 2022 2023 2024 2025 2026 2027 2028 2029 2030 2031 2032 2033 2034 2035 2036 2037 2038 2039 2040 2041 2042 2043 2044 2045 2046 2047 2048 2049 2050 2051 2052 2053 2054 2055 2056 2057 2058 2059 2060 2061 2062 2063 2064 2065 2066 2067 2068 2069 2070 2071 2072 2073 2074 2075 2076 2077 2078 2079 2080 2081 2082 2083 2084 2085 2086 2087 2088 2089 2090 2091 2092 2093 2094 2095 2096 2097 2098 2099 2100 2101 2102 2103 2104 2105 2106 2107 2108 2109 2110 2111 2112 2113 2114 2115 2116 2117 2118 2119 2120 2121 2122 2123 2124 2125 2126 2127 2128 2129 2130 2131 2132 2133 2134 2135 2136 2137 2138 2139 2140 2141 2142 2143 2144 2145 2146 2147 2148 2149 2150 2151 2152 2153 2154 2155 2156 2157 2158 2159 2160 2161 2162 2163 2164 2165 2166 2167 2168 2169 2170 2171 2172 2173 2174 2175 2176 2177 2178 2179 2180 2181 2182 2183 2184 2185 2186 2187 2188 2189 2190 2191 2192 2193 2194 2195 2196 2197 2198 2199 2200 2201 2202 2203 2204 2205 2206 2207 2208 2209 2210 2211 2212 2213 2214 2215 2216 2217 2218 2219 2220 2221 2222 2223 2224 2225 2226 2227 2228 2229 2230 2231 2232 2233 2234 2235 2236 2237 2238 2239 2240 2241 2242 2243 2244 2245 2246 2247 2248 2249 2250 2251 2252 2253 2254 2255 2256 2257 2258 2259 2260 2261 2262 2263 2264 2265 2266 2267 2268 2269 2270 2271 2272 2273 2274 2275 2276 2277 2278 2279 2280 2281 2282 2283 2284 2285 2286 2287 2288 2289 2290 2291 2292 2293 2294 2295 2296 2297 2298 2299 2300 2301 2302 2303 2304 2305 2306 2307 2308 2309 2310 2311 2312 2313 2314 2315 2316 2317 2318 2319 2320 2321 2322 2323 2324 2325 2326 2327 2328 2329 2330 2331 2332 2333 2334 2335 2336 2337 2338 2339 2340 2341 2342 2343 2344 2345 2346 2347 2348 2349 2350 2351 2352 2353 2354 2355 2356 2357 2358 2359 2360 2361 2362 2363 2364 2365 2366 2367 2368 2369 2370 2371 2372 2373 2374 2375 2376 2377 2378 2379 2380 2381 2382 2383 2384 2385 2386 2387 2388 2389 2390 2391 2392 2393 2394 2395 2396 2397 2398 2399 2400 2401 2402 2403 2404 2405 2406 2407 2408 2409 2410 2411 2412 2413 2414 2415 2416 2417 2418 2419 2420 2421 2422 2423 2424 2425 2426 2427 2428 2429 2430 2431 2432 2433 2434 2435 2436 2437 2438 2439 2440 2441 2442 2443 2444 2445 2446 2447 2448 2449 2450 2451 2452 2453 2454 2455 2456 2457 2458 2459 2460 2461 2462 2463 2464 2465 2466 2467 2468 2469 2470 2471 2472 2473 2474 2475 2476 2477 2478 2479 2480 2481 2482 2483 2484 2485 2486 2487 2488 2489 2490 2491 2492 2493 2494 2495 2496 2497 2498 2499 2500 2501 2502 2503 2504 2505 2506 2507 2508 2509 2510 2511 2512 2513 2514 2515 2516 2517 2518 2519 2520 2521 2522 2523 2524 2525 2526 2527 2528 2529 2530 2531 2532 2533 2534 2535 2536 2537 2538 2539 2540 2541 2542 2543 2544 2545 2546 2547 2548 2549 2550 2551 2552 2553 2554 2555 2556 2557 2558 2559 2560 2561 2562 2563 2564 2565 2566 2567 2568 2569 2570 2571 2572 2573 2574 2575 2576 2577 2578 2579 2580 2581 2582 2583 2584 2585 2586 2587 2588 2589 2590 2591 2592 2593 2594 2595 2596 2597 2598 2599 2600 2601 2602 2603 2604 2605 2606 2607 2608 2609 2610 2611 2612 2613 2614 2615 2616 2617 2618 2619 2620 2621 2622 2623 2624 2625 2626 2627 2628 2629 2630 2631 2632 2633 2634 2635 2636 2637 2638 2639 2640 2641 2642 2643 2644 2645 2646 2647 2648 2649 2650 2651 2652 2653 2654 2655 2656 2657 2658 2659 2660 2661 2662 2663 2664 2665 2666 2667 2668 2669 2670 2671 2672 2673 2674 2675 2676 2677 2678 2679 2680 2681 2682 2683 2684 2685 2686 2687 2688 2689 2690 2691 2692 2693 2694 2695 2696 2697 2698 2699 2700 2701 2702 2703 2704 2705 2706 2707 2708 2709 2710 2711 2712 2713 2714 2715 2716 2717 2718 2719 2720 2721 2722 2723 2724 2725 2726 2727 2728 2729 2730 2731 2732 2733 2734 2735 2736 2737 2738 2739 2740 2741 2742 2743 2744 2745 2746 2747 2748 2749 2750 2751 2752 2753 2754 2755 2756 2757 2758 2759 2760 2761 2762 2763 2764 2765 2766 2767 2768 2769 2770 2771 2772 2773 2774 2775 2776 2777 2778 2779 2780 2781 2782 2783 2784 2785 2786 2787 2788 2789 2790 2791 2792 2793 2794 2795 2796 2797 2798 2799 2800 2801 2802 2803 2804 2805 2806 2807 2808 2809 2810 2811 2812 2813 2814 2815 2816 2817 2818 2819 2820 2821 2822 2823 2824 2825 2826 2827 2828 2829 2830 2831 2832 2833 2834 2835 2836 2837 2838 2839 2840 2841 2842 2843 2844 2845 2846 2847 2848 2849 2850 2851 2852 2853 2854 2855 2856 2857 2858 2859 2860 2861 2862 2863 2864 2865 2866 2867 2868 2869 2870 2871 2872 2873 2874 2875 2876 2877 2878 2879 2880 2881 2882 2883 2884 2885 2886 2887 2888 2889 2890 2891 2892 2893 2894 2895 2896 2897 2898 2899 2900 2901 2902 2903 2904 2905 2906 2907 2908 2909 2910 2911 2912 2913 2914 2915 2916 2917 2918 2919 2920 2921 2922 2923 2924 2925 2926 2927 2928 2929 2930 2931 2932 2933 2934 2935 2936 2937 2938 2939 2940 2941 2942 2943 2944 2945 2946 2947 2948 2949 2950 2951 2952 2953 2954 2955 2956 2957 2958 2959 2960 2961 2962 2963 2964 2965 2966 2967 2968 2969 2970 2971 2972 2973 2974 2975 2976 2977 2978 2979 2980 2981 2982 2983 2984 2985 2986 2987 2988 2989 2990 2991 2992 2993 2994 2995 2996 2997 2998 2999 3000 3001 3002 3003 3004 3005 3006 3007 3008 3009 3010 3011 3012 3013 3014 3015 3016 3017 3018 3019 3020 3021 3022 3023 3024 3025 3026 3027 3028 3029 3030 3031 3032 3033 3034 3035 3036 3037 3038 3039 3040 3041 3042 3043 3044 3045 3046 3047 3048 3049 3050 3051 3052 3053 3054 3055 3056 3057 3058 3059 3060 3061 3062 3063 3064 3065 3066 3067 3068 3069 3070 3071 3072 3073 3074 3075 3076 3077 3078 3079 3080 3081 3082 3083 3084 3085 3086 3087 3088 3089 3090 3091 3092 3093 3094 3095 3096 3097 3098 3099 3100 3101 3102 3103 3104 3105 3106 3107 3108 3109 3110 3111 3112 3113 3114 3115 3116 3117 3118 3119 3120 3121 3122 3123 3124 3125 3126 3127 3128 3129 3130 3131 3132 3133 3134 3135 3136 3137 3138 3139 3140 3141 3142 3143 3144 3145 3146 3147 3148 3149 3150 3151 3152 3153 3154 3155 3156 3157 3158 3159 3160 3161 3162 3163 3164 3165 3166 3167 3168 3169 3170 3171 3172 3173 3174 3175 3176 3177 3178 3179 3180 3181 3182 3183 3184 3185 3186 3187 3188 3189 3190 3191 3192 3193 3194 3195 3196 3197 3198 3199 3200 3201 3202 3203 3204 3205 3206 3207 3208 3209 3210 3211 3212 3213 3214 3215 3216 3217 3218 3219 3220 3221 3222 3223 3224 3225 3226 3227 3228 3229 3230 3231 3232 3233 3234 3235 3236 3237 3238 3239 3240 3241 3242 3243 3244 3245 3246 3247 3248 3249 3250 3251 3252 3253 3254 3255 3256 3257 3258 3259 3260 3261 3262 3263 3264 3265 3266 3267 3268 3269 3270 3271 3272 3273 3274 3275 3276 3277 3278 3279 3280 3281 3282 3283 3284 3285 3286 3287 3288 3289 3290 3291 3292 3293 3294 3295 3296 3297 3298 3299 3300 3301 3302 3303 3304 3305 3306 3307 3308 3309 3310 3311 3312 3313 3314 3315 3316 3317 3318 3319 3320 3321 3322 3323 3324 3325 3326 3327 3328 3329 3330 3331 3332 3333 3334 3335 3336 3337 3338 3339 3340 3341 3342 3343 3344 3345 3346 3347 3348 3349 3350 3351 3352 3353 3354 3355 3356 3357 3358 3359 3360 3361 3362 3363 3364 3365 3366 3367 3368 3369 3370 3371 3372 3373 3374 3375 3376 3377 3378 3379 3380 3381 3382 3383 3384 3385 3386 3387 3388 3389 3390 3391 3392 3393 3394 3395 3396 3397 3398 3399 3400 3401 3402 3403 3404 3405 3406 3407 3408 3409 3410 3411 3412 3413 3414 3415 3416 3417 3418 3419 3420 3421 3422 3423 3424 3425 3426 3427 3428 3429 3430 3431 3432 3433 3434 3435 3436 3437 3438 3439 3440 3441 3442 3443 3444 3445 3446 3447 3448 3449 3450 3451 3452 3453 3454 3455 3456 3457 3458 3459 3460 3461 3462 3463 3464 3465 3466 3467 3468 3469 3470 3471 3472 3473 3474 3475 3476 3477 3478 3479 3480 3481 3482 3483 3484 3485 3486 3487 3488 3489 3490 3491 3492 3493 3494 3495 3496 3497 3498 3499 3500 3501 3502 3503 3504 3505 3506 3507 3508 3509 3510 3511 3512 3513 3514 3515 3516 3517 3518 3519 3520 3521 3522 3523 3524 3525 3526 3527 3528 3529 3530 3534 3535 3536 3537 3538 3539 3540 3541 3545 3546 3547 3548 3549 3550 3551 3552 3556 3557 3558 3559 3560 3561 3562 3563 3567 3568 3569 3570 3571 3572 3573 3574 3578 3579 3580 3581 3582 3583 3584 3585 3589 3590 3591 3592 3593 3594 3595 3596 3600 3601 3602 3603 3604 3605 3606 3607 3611 3612 3613 3614 3615 3616 3617 3618 3622 3623 3624 3625 3626 3627 3628 3629 3633 3634 3635 3636 3637 3638 3639 3640 3644 3645 3646 3647 3648 3649 3650 3651 3655 3656 3657 3658 3659 3660 3661 3662 3666 3667 3668 3669 3670 3671 3672 3673 3677 3678 3679 3680 3681 3682 3683 3684 3688 3689 3690 3691 3692 3693 3694 3695 3699 3700 3701 3702 3703 3704 3705 3706 3710 3711 3712 3713 3714 3715 3716 3717 3721 3722 3723 3724 3725 3726 3727 3728 3732 3733 3734 3735 3736 3737 3738 3739 3743 3744 3745 3746 3747 3748 3749 3750 3754 3755 3756 3757 3758 3759 3760 3761 3765 3766 3767 3768 3769 3770 3771 3772 3776 3777 3778 3779 3780 3781 3782 3783 3787 3788 3789 3790 3791 3792 3793 3794 3798 3799 3800 3801 3802 3803 3804 3805 3809 3810 3811 3812 3813 3814 3815 3816 3820 3821 3822 3823 3824 3825 3826 3827 3831 3832 3833 3834 3835 3836 3837 3838 3842 3843 3844 3845 3846 3847 3848 3849 3853 3854 3855 3856 3857 3858 3859 3860 3864 3865 3866 3867 3868 3869 3870 3871 3875 3876 3877 3878 3879 3880 3881 3882 3883 3884 3885 3886 3887 3888 3889 3890 3891 3892 3893 3894 3895 3896 3897 3898 3899 3900 3901 3902 3903 3904 3905 3906 3907 3908 3909 3910 3911 3912 3913 3914 3915 3916 3917 3918 3919 3920 3921 3922 3923 3924 3925 3926 3927 3928 3929 3930 3931 3932 3933 3934 3935 3936 3937 3938 3939 3940 3941 3942 3943 3944 3945 3946 3947 3948 3949 3950 3951 3952 3953 3954 3955 3956 3957 3958 3959 3960 3961 3962 3963 3964 3965 3966 3967 3968 3969 3970 3971 3972 3973 3974 3975 3976 3977 3978 3979 3980 3981 3982 3983 3984 3985 3986 3987 3988 3989 3990 3991 3992 3993 3994 3995 3996 3997 3998 3999 4000 4001 4002 4003 4004 4005 4006 4007 4008 4009 4010 4011 4012 4013 4014 4015 4016 4017 4018 4019 4020 4021 4022 4023 4024 4025 4026 4027 4028 4029 4030 4031 4032 4033 4034 4035 4036 4037 4038 4039 4040 4041 4042 4043 4044 4045 4046 4047 4048 4049 4050 4051 4052 4053 4054 4055 4056 4057 4058 4059 4060 4061 4062 4063 4064 4065 4066 4067 4068 4069 4070 4071 4072 4073 4074 4075 4076 4077 4078 4079 4080 4081 4082 4083 4084 4085 4086 4087 4088 4089 4090 4091 4092 4093 4094 4095 4096 4097 4098 4099 4100 4101 4102 4103 4104 4105 4106 4107 4108 4109 4110 4111 4112 4113 4114 4115 4116 4117 4118 4119 4120 4121 4122 4123 4124 4125 4126 4127 4128 4129 4130 4131 4132 4133 4134 4135 4136 4137 4138 4139 4140 4141 4142 4143 4144 4145 4146 4147 4148 4149 4150 4151 4152 4153 4154 4155 4156 4157 4158 4159 4160 4161 4162 4163 4164 4165 4166 4167 4168 4169 4170 4171 4172 4173 4174 4175 4176 4177 4178 4179 4180 4181 4182 4183 4184 4185 4186 4187 4188 4189 4190 4191 4192 4193 4194 4195 4196 4197 4198 4199 4200 4201 4202 4203 4204 4205 4206 4207 4208 4209 4210 4211 4212 4213 4214 4215 4216 4217 4218 4219 4220 4221 4222 4223 4224 4225 4226 4227 4228 4229 4230 4231 4232 4233 4234 4235 4236 4237 4238 4239 4240 4241 4242 4243 4244 4245 4246 4247 4248 4249 4250 4251 4252 4253 4254 4255 4256 4257 4258 4259 4260 4261 4262 4263 4264 4265 4266 4267 4268 4269 4270 4271 4272 4273 4274 4275 4276 4277 4278 4279 4280 4281 4282 4283 4284 4285 4286 4287 4288 4289 4290 4291 4292 4293 4294 4295 4296 4297 4298 4299 4300 4301 4302 4303 4304 4305 4306 4307 4308 4309 4310 4311 4312 4313 4314 4315 4316 4317 4318 4319 4320 4321 4322 4323 4324 4325 4326 4327 4328 4329 4330 4331 4332 4333 4334 4335 4336 4337 4338 4339 4340 4341 4342 4343 4344 4345 4346 4347 4348 4349 4350 4351 4352 4353 4354 4355 4356 4357 4358 4359 4360 4361 4362 4363 4364 4365 4366 4367 4368 4369 4370 4371 4372 4373 4374 4375 4376 4377 4378 4379 4380 4381 4382 4383 4384 4385 4386 4387 4388 4389 4390 4391 4392 4393 4394 4395 4396 4397 4398 4399 4400 4401 4402 4403 4404 4405 4406 4407 4408 4409 4410 4411 4412 4413 4414 4415 4416 4417 4418 4419 4420 4421 4422 4423 4424 4425 4426 4427 4428 4429 4430 4431 4432 4433 4434 4435 4436 4437 4438 4439 4440 4441 4442 4443 4444 4445 4446 4447 4448 4449 4450 4451 4452 4453 4454 4455 4456 4457 4458 4459 4460 4461 4462 4463 4464 4465 4466 4467 4468 4469 4470 4471 4472 4473 4474 4475 4476 4477 4478 4479 4480 4481 4482 4483 4484 4485 4486 4487 4488 4489 4490 4491 4492 4493 4494 4495 4496 4497 4498 4499 4500 4501 4502 4503 4504 4505 4506 4507 4508 4509 4510 4511 4512 4513 4514 4515 4516 4517 4518 4519 4520 4521 4522 4523 4524 4525 4526 4527 4528 4529 4530 4531 4532 4533 4534 4535 4536 4537 4538 4539 4540 4541 4542 4543 4544 4545 4546 4547 4548 4549 4550 4551 4552 4553 4554 4555 4556 4557 4558 4559 4560 4561 4562 4563 4564 4565 4566 4567 4568 4569 4570 4571 4572 4573 4574 4575 4576 4577 4578 4579 4580 4581 4582 4583 4584 4585 4586 4587 4588 4589 4590 4591 4592 4593 4594 4595 4596 4597 4598 4599 4600 4601 4602 4603 4604 4605 4606 4607 4608 4609 4610 4611 4612 4613 4614 4615 4616 4617 4618 4619 4620 4621 4622 4623 4624 4625 4626 4627 4628 4629 4630 4631 4632 4633 4634 4635 4636 4637 4638 4639 4640 4641 4642 4643 4644 4645 4646 4647 4648 4649 4650 4651 4652 4653 4654 4655 4656 4657 4658 4659 4660 4661 4662 4663 4664 4665 4666 4667 4668 4669 4670 4671 4672 4673 4674 4675 4676 4677 4678 4679 4680 4681 4682 4683 4684 4685 4686 4687 4688 4689 4690 4691 4692 4693 4694 4695 4696 4697 4698 4699 4700 4701 4702 4703 4704 4705 4706 4707 4708 4709 4710 4711 4712 4713 4714 4715 4716 4717 4718 4719 4720 4721 4722 4723 4724 4725 4726 4727 4728 4729 4730 4731 4732 4733 4734 4735 4736 4737 4738 4739 4740 4741 4742 4743 4744 4745 4746 4747 4748 4749 4750 4751 4752 4753 4754 4755 4756 4757 4758 4759 4760 4761 4762 4763 4764 4765 4766 4767 4768 4769 4770 4771 4772 4773 4774 4775 4776 4777 4778 4779 4780 4781 4782 4783 4784 4785 4786 4787 4788 4789 4790 4791 4792 4793 4794 4795 4796 4797 4798 4799 4800 4801 4802 4803 4804 4805 4806 4807 4808 4809 4810 4811 4812 4813 4814 4815 4816 4817 4818 4819 4820 4821 4822 4823 4824 4825 4826 4827 4828 4829 4830 4831 4832 4833 4834 4835 4836 4837 4838 4839 4840 4841 4842 4843 4844 4845 4846 4847 4848 4849 4850 4851 4852 4853 4854 4855 4856 4857 4858 4859 4860 4861 4862 4863 4864 4865 4866 4867 4868 4869 4870 4871 4872 4873 4874 4875 4876 4877 4878 4879 4880 4881 4882 4883 4884 4885 4886 4887 4888 4889 4890 4891 4892 4893 4894 4895 4896 4897 4898 4899 4900 4901 4902 4903 4904 4905 4906 4907 4908 4909 4910 4911 4912 4913 4914 4915 4916 4917 4918 4919 4920 4921 4922 4923 4924 4925 4926 4927 4928 4929 4930 4931 4932 4933 4934 4935 4936 4937 4938 4939 4940 4941 4942 4943 4944 4945 4946 4947 4948 4949 4950 4951 4952 4953 4954 4955 4956 4957 4958 4959 4960 4961 4962 4963 4964 4965 4966 4967 4968 4969 4970 4971 4972 4973 4974 4975 4976 4977 4978 4979 4980 4981 4982 4983 4984 4985 4986 4987 4988 4989 4990 4991 4992 4993 4994 4995 4996 4997 4998 4999 5000 5001 5002 5003 5004 5005 5006 5007 5008 5009 5010 5011 5012 5013 5014 5015 5016 5017 5018 5019 5020 5021 5022 5023 5024 5025 5026 5027 5028 5029 5030 5031 5032 5033 5034 5035 5036 5037 5038 5039 5040 5041 5042 5043 5044 5045 5046 5047 5048 5049 5050 5051 5052 5053 5054 5055 5056 5057 5058 5059 5060 5061 5062 5063 5064 5065 5066 5067 5068 5069 5070 5071 5072 5073 5074 5075 5076 5077 5078 5079 5080 5081 5082 5083 5084 5085 5086 5087 5088 5089 5090 5091 5092 5093 5094 5095 5096 5097 5098 5099 5100 5101 5102 5103 5104 5105 5106 5107 5108 5109 5110 5111 5112 5113 5114 5115 5116 5117 5118 5119 5120 5121 5122 5123 5124 5125 5126 5127 5128 5129 5130 5131 5132 5133 5134 5135 5136 5137 5138 5139 5140 5141 5142 5143 5144 5145 5146 5147 5148 5149 5150 5151 5152 5153 5154 5155 5156 5157 5158 5159 5160 5161 5162 5163 5164 5165 5166 5167 5168 5169 5170 5171 5172 5173 5174 5175 5176 5177 5178 5179 5180 5181 5182 5183 5184 5185 5186 5187 5188 5189 5190 5191 5192 5193 5194 5195 5196 5197 5198 5199 5200 5201 5202 5203 5204 5205 5206 5207 5208 5209 5210 5211 5212 5213 5214 5215 5216 5217 5218 5219 5220 5221 5222 5223 5224 5225 5226 5227 5228 5229 5230 5231 5232 5233 5234 5235 5236 5237 5238 5239 5240 5241 5242 5243 5244 5245 5246 5247 5248 5249 5250 5251 5252 5253 5254 5255 5256 5257 5258 5259 5260 5261 5262 5263 5264 5265 5266 5267 5268 5269 5270 5271 5272 5273 5274 5275 5276 5277 5278 5279 5280 5281 5282 5283 5284 5285 5286 5287 5288 5289 5290 5291 5292 5293 5294 5295 5296 5297 5298 5299 5300 5301 5302 5303 5304 5305 5306 5307 5308 5309 5310 5311 5312 5313 5314 5315 5316 5317 5318 5319 5320 5321 5322 5323 5324 5325 5326 5327 5328 5329 5330 5331 5332 5333 5334 5335 5336 5337 5338 5339 5340 5341 5342 5343 5344 5345 5346 5347 5348 5349 5350 5351 5352 5353 5354 5355 5356 5357 5358 5359 5360 5361 5362 5363 5364 5365 5366 5367 5368 5369 5370 5371 5372 5373 5374 5375 5376 5377 5378 5379 5380 5381 5382 5383 5384 5385 5386 5387 5388 5389 5390 5391 5392 5393 5394 5395 5396 5397 5398 5399 5400 5401 5402 5403 5404 5405 5406 5407 5408 5409 5410 5411 5412 5413 5414 5415 5416 5417 5418 5419 5420 5421 5422 5423 5424 5425 5426 5427 5428 5429 5430 5431 5432 5433 5434 5435 5436 5437 5438 5439 5440 5441 5442 5443 5444 5445 5446 5447 5448 5449 5450 5451 5452 5453 5454 5455 5456 5457 5458 5459 5460 5461 5462 5463 5464 5465 5466 5467 5468 5469 5470 5471 5472 5473 5474 5475 5476 5477 5478 5479 5480 5481 5482 5483 5484 5485 5486 5487 5488 5489 5490 5491 5492 5493 5494 5495 5496 5497 5498 5499 5500 5501 5502 5503 5504 5505 5506 5507 5508 5509 5510 5511 5512 5513 5514 5515 5516 5520 5521 5522 5523 5524 5525 5526 5527 5531 5532 5533 5534 5535 5536 5537 5538 5542 5543 5544 5545 5546 5547 5548 5549 5553 5554 5555 5556 5557 5558 5559 5560 5564 5565 5566 5567 5568 5569 5570 5571 5575 5576 5577 5578 5579 5580 5581 5582 5586 5587 5588 5589 5590 5591 5592 5593 5597 5598 5599 5600 5601 5602 5603 5604 5608 5609 5610 5611 5612 5613 5614 5615 5619 5620 5621 5622 5623 5624 5625 5626 5630 5631 5632 5633 5634 5635 5636 5637 5641 5642 5643 5644 5645 5646 5647 5648 5652 5653 5654 5655 5656 5657 5658 5659 5663 5664 5665 5666 5667 5668 5669 5670 5674 5675 5676 5677 5678 5679 5680 5681 5685 5686 5687 5688 5689 5690 5691 5692 5696 5697 5698 5699 5700 5701 5702 5703 5707 5708 5709 5710 5711 5712 5713 5714 5718 5719 5720 5721 5722 5723 5724 5725 5729 5730 5731 5732 5733 5734 5735 5736 5740 5741 5742 5743 5744 5745 5746 5747 5751 5752 5753 5754 5755 5756 5757 5758 5762 5763 5764 5765 5766 5767 5768 5769 5773 5774 5775 5776 5777 5778 5779 5780 5784 5785 5786 5787 5788 5789 5790 5791 5795 5796 5797 5798 5799 5800 5801 5802 5806 5807 5808 5809 5810 5811 5812 5813 5817 5818 5819 5820 5821 5822 5823 5824 5828 5829 5830 5831 5832 5833 5834 5835 5839 5840 5841 5842 5843 5844 5845 5846 5850 5851 5852 5853 5854 5855 5856 5857 5861 5862 5863 5864 5865 5866 5867 5868 5869 5870 5871 5872 5873 5874 5875 5876 5877 5878 5879 5880 5881 5882 5883 5884 5885 5886 5887 5888 5889 5890 5891 5892 5893 5894 5895 5896 5897 5898 5899 5900 5901 5902 5903 5904 5905 5906 5907 5908 5909 5910 5911 5912 5913 5914 5915 5916 5917 5918 5919 5920 5921 5922 5923 5924 5925 5926 5927 5928 5929 5930 5931 5932 5933 5934 5935 5936 5937 5938 5939 5940 5941 5942 5943 5944 5945 5946 5947 5948 5949 5950 5951 5952 5953 5954 5955 5956 5957 5958 5959 5960 5961 5962 5963 5964 5965 5966 5967 5968 5969 5970 5971 5972 5973 5974 5975 5976 5977 5978 5979 5980 5981 5982 5983 5984 5985 5986 5987 5988 5989 5990 5991 5992 5993 5994 5995 5996 5997 5998 5999 6000 6001 6002 6003 6004 6005 6006 6007 6008 6009 6010 6011 6012 6013 6014 6015 6016 6017 6018 6019 6020 6021 6022 6023 6024 6025 6026 6027 6028 6029 6030 6031 6032 6033 6034 6035 6036 6037 6038 6039 6040 6041 6042 6043 6044 6045 6046 6047 6048 6049 6050 6051 6052 6053 6054 6055 6056 6057 6058 6059 6060 6061 6062 6063 6064 6065 6066 6067 6068 6069 6070 6071 6072 6073 6074 6075 6076 6077 6078 6079 6080 6081 6082 6083 6084 6085 6086 6087 6088 6089 6090 6091 6092 6093 6094 6095 6096 6097 6098 6099 6100 6101 6102 6103 6104 6105 6106 6107 6108 6109 6110 6111 6112 6113 6114 6115 6116 6117 6118 6119 6120 6121 6122 6123 6124 6125 6126 6127 6128 6129 6130 6131 6132 6133 6134 6135 6136 6137 6138 6139 6140 6141 6142 6143 6144 6145 6146 6147 6148 6149 6150 6151 6152 6153 6154 6155 6156 6157 6158 6159 6160 6161 6162 6163 6164 6165 6166 6167 6168 6169 6170 6171 6172 6173 6174 6175 6176 6177 6178 6179 6180 6181 6182 6183 6184 6185 6186 6187 6188 6189 6190 6191 6192 6193 6194 6195 6196 6197 6198 6199 6200 6201 6202 6203 6204 6205 6206 6207 6208 6209 6210 6211 6212 6213 6214 6215 6216 6217 6218 6219 6220 6221 6222 6223 6224 6225 6226 6227 6228 6229 6230 6231 6232 6233 6234 6235 6236 6237 6238 6239 6240 6241 6242 6243 6244 6245 6246 6247 6248 6249 6250 6251 6252 6253 6254 6255 6256 6257 6258 6259 6260 6261 6262 6263 6264 6265 6266 6267 6268 6269 6270 6271 6272 6273 6274 6275 6276 6277 6278 6279 6280 6281 6282 6283 6284 6285 6286 6287 6288 6289 6290 6291 6292 6293 6294 6295 6296 6297 6298 6299 6300 6301 6302 6303 6304 6305 6306 6307 6308 6309 6310 6311 6312 6313 6314 6315 6316 6317 6318 6319 6320 6321 6322 6323 6324 6325 6326 6327 6328 6329 6330 6331 6332 6333 6334 6335 6336 6337 6338 6339 6340 6341 6342 6343 6344 6345 6346 6347 6348 6349 6350 6351 6352 6353 6354 6355 6356 6357 6358 6359 6360 6361 6362 6363 6364 6365 6366 6367 6368 6369 6370 6371 6372 6373 6374 6375 6376 6377 6378 6379 6380 6381 6382 6383 6384 6385 6386 6387 6388 6389 6390 6391 6392 6393 6394 6395 6396 6397 6398 6399 6400 6401 6402 6403 6404 6405 6406 6407 6408 6409 6410 6411 6412 6413 6414 6415 6416 6417 6418 6419 6420 6421 6422 6423 6424 6425 6426 6427 6428 6429 6430 6431 6432 6433 6434 6435 6436 6437 6438 6439 6440 6441 6442 6443 6444 6445 6446 6447 6448 6449 6450 6451 6452 6453 6454 6455 6456 6457 6458 6459 6460 6461 6462 6463 6464 6465 6466 6467 6468 6469 6470 6471 6472 6473 6474 6475 6476 6477 6478 6479 6480 6481 6482 6483 6484 6485 6486 6487 6488 6489 6490 6491 6492 6493 6494 6495 6496 6497 6498 6499 6500 6501 6502 6503 6504 6505 6506 6507 6508 6509 6510 6511 6512 6513 6514 6515 6516 6517 6518 6519 6520 6521 6522 6523 6524 6525 6526 6527 6528 6529 6530 6531 6532 6533 6534 6535 6536 6537 6538 6539 6540 6541 6542 6543 6544 6545 6546 6547 6548 6549 6550 6551 6552 6553 6554 6555 6556 6557 6558 6559 6560 6561 6562 6563 6564 6565 6566 6567 6568 6569 6570 6571 6572 6573 6574 6575 6576 6577 6578 6579 6580 6581 6582 6583 6584 6585 6586 6587 6588 6589 6590 6591 6592 6593 6594 6595 6596 6597 6598 6599 6600 6601 6602 6603 6604 6605 6606 6607 6608 6609 6610 6611 6612 6613 6614 6615 6616 6617 6618 6619 6620 6621 6622 6623 6624 6625 6626 6627 6628 6629 6630 6631 6632 6633 6634 6635 6636 6637 6638 6639 6640 6641 6642 6643 6644 6645 6646 6647 6648 6649 6650 6651 6652 6653 6654 6655 6656 6657 6658 6659 6660 6661 6662 6663 6664 6665 6666 6667 6668 6669 6670 6671 6672 6673 6674 6675 6676 6677 6678 6679 6680 6681 6682 6683 6684 6685 6686 6687 6688 6689 6690 6691 6692 6693 6694 6695 6696 6697 6698 6699 6700 6701 6702 6703 6704 6705 6706 6707 6708 6709 6710 6711 6712 6713 6714 6715 6716 6717 6718 6719 6720 6721 6722 6723 6724 6725 6726 6727 6728 6729 6730 6731 6732 6733 6734 6735 6736 6737 6738 6739 6740 6741 6742 6743 6744 6745 6746 6747 6748 6749 6750 6751 6752 6753 6754 6755 6756 6757 6758 6759 6760 6761 6762 6763 6764 6765 6766 6767 6768 6769 6770 6771 6772 6773 6774 6775 6776 6777 6778 6779 6780 6781 6782 6783 6784 6785 6786 6787 6788 6789 6790 6791 6792 6793 6794 6795 6796 6797 6798 6799 6800 6801 6802 6803 6804 6805 6806 6807 6808 6809 6810 6811 6812 6813 6814 6815 6816 6817 6818 6819 6820 6821 6822 6823 6824 6825 6826 6827 6828 6829 6830 6831 6832 6833 6834 6835 6836 6837 6838 6839 6840 6841 6842 6843 6844 6845 6846 6847 6848 6849 6850 6851 6852 6853 6854 6855 6856 6857 6858 6859 6860 6861 6862 6863 6864 6865 6866 6867 6868 6869 6870 6871 6872 6873 6874 6875 6876 6877 6878 6879 6880 6881 6882 6883 6884 0
-1545 6885 0
-6886 0
-6887 0
-6888 0
-6889 0
-6890 0
-6891 0
-6892 0
-6893 0
-6894 0
-6895 0
-6896 0
-6897 0
-6898 0
-6899 0
-6900 0
-6901 0
-6902 0
-6903 0
-6904 0
-6905 0
-6906 0
-6907 0
-6908 0
-6909 0
-1545 6910 0
-6885 6910 0
-1545 -6885 6911 0
-6886 6911 0
-1545 -6886 6912 0
-6887 6912 0
-1545 -6887 6913 0
-6888 6913 0
-1545 -6888 6914 0
-6889 6914 0
-1545 -6889 6915 0
-6890 6915 0
-1545 -6890 6916 0
-6891 6916 0
-1545 -6891 6917 0
-6892 6917 0
-1545 -6892 6918 0
-6893 6918 0
-1545 -6893 6919 0
-6894 6919 0
-1545 -6894 6920 0
-6895 6920 0
-1545 -6895 6921 0
-6896 6921 0
-1545 -6896 6922 0
-6897 6922 0
-1545 -6897 6923 0
-6898 6923 0
-1545 -6898 6924 0
-6899 6924 0
-1545 -6899 6925 0
-6900 6925 0
-1545 -6900 6926 0
-6901 6926 0
-1545 -6901 6927 0
-6902 6927 0
-1545 -6902 6928 0
-6903 6928 0
-1545 -6903 6929 0
-6904 6929 0
-1545 -6904 6930 0
-6905 6930 0
-1545 -6905 6931 0
-6906 6931 0
-1545 -6906 6932 0
-6907 6932 0
-1545 -6907 6933 0
-6908 6933 0
-1545 -6908 6934 0
-6909 6934 0
-1545 -6909 0
-1545 6935 0
-6910 6935 0
-1545 -6910 6936 0
-6911 6936 0
-1545 -6911 6937 0
-6912 6937 0
-1545 -6912 6938 0
-6913 6938 0
-1545 -6913 6939 0
-6914 6939 0
-1545 -6914 6940 0
-6915 6940 0
-1545 -6915 6941 0
-6916 6941 0
-1545 -6916 6942 0
-6917 6942 0
-1545 -6917 6943 0
-6918 6943 0
-1545 -6918 6944 0
-6919 6944 0
-1545 -6919 6945 0
-6920 6945 0
-1545 -6920 6946 0
-6921 6946 0
-1545 -6921 6947 0
-6922 6947 0
-1545 -6922 6948 0
-6923 6948 0
-1545 -6923 6949 0
-6924 6949 0
-1545 -6924 6950 0
-6925 6950 0
-1545 -6925 6951 0
-6926 6951 0
-1545 -6926 6952 0
-6927 6952 0
-1545 -6927 6953 0
-6928 6953 0
-1545 -6928 6954 0
-6929 6954 0
-1545 -6929 6955 0
-6930 6955 0
-1545 -6930 6956 0
-6931 6956 0
-1545 -6931 6957 0
-6932 6957 0
-1545 -6932 6958 0
-6933 6958 0
-1545 -6933 6959 0
-6934 6959 0
-1545 -6934 0
-1546 6960 0
-6935 6960 0
-1546 -6935 6961 0
-6936 6961 0
-1546 -6936 6962 0
-6937 6962 0
-1546 -6937 6963 0
-6938 6963 0
-1546 -6938 6964 0
-6939 6964 0
-1546 -6939 6965 0
-6940 6965 0
-1546 -6940 6966 0
-6941 6966 0
-1546 -6941 6967 0
-6942 6967 0
-1546 -6942 6968 0
-6943 6968 0
-1546 -6943 6969 0
-6944 6969 0
-1546 -6944 6970 0
-6945 6970 0
-1546 -6945 6971 0
-6946 6971 0
-1546 -6946 6972 0
-6947 6972 0
-1546 -6947 6973 0
-6948 6973 0
-1546 -6948 6974 0
-6949 6974 0
-1546 -6949 6975 0
-6950 6975 0
-1546 -6950 6976 0
-6951 6976 0
-1546 -6951 6977 0
-6952 6977 0
-1546 -6952 6978 0
-6953 6978 0
-1546 -6953 6979 0
-6954 6979 0
-1546 -6954 6980 0
-6955 6980 0
-1546 -6955 6981 0
-6956 6981 0
-1546 -6956 6982 0
-6957 6982 0
-1546 -6957 6983 0
-6958 6983 0
-1546 -6958 6984 0
-6959 6984 0
-1546 -6959 0
-1546 6985 0
-6960 6985 0
-1546 -6960 6986 0
-6961 6986 0
-1546 -6961 6987 0
-6962 6987 0
-1546 -6962 6988 0
-6963 6988 0
-1546 -6963 6989 0
-6964 6989 0
-1546 -6964 6990 0
-6965 6990 0
-1546 -6965 6991 0
-6966 6991 0
-1546 -6966 6992 0
-6967 6992 0
-1546 -6967 6993 0
-6968 6993 0
-1546 -6968 6994 0
-6969 6994 0
-1546 -6969 6995 0
-6970 6995 0
-1546 -6970 6996 0
-6971 6996 0
-1546 -6971 6997 0
-6972 6997 0
-1546 -6972 6998 0
-6973 6998 0
-1546 -6973 6999 0
-6974 6999 0
-1546 -6974 7000 0
-6975 7000 0
-1546 -6975 7001 0
-6976 7001 0
-1546 -6976 7002 0
-6977 7002 0
-1546 -6977 7003 0
-6978 7003 0
-1546 -6978 7004 0
-6979 7004 0
-1546 -6979 7005 0
-6980 7005 0
-1546 -6980 7006 0
-6981 7006 0
-1546 -6981 7007 0
-6982 7007 0
-1546 -6982 7008 0
-6983 7008 0
-1546 -6983 7009 0
-6984 7009 0
-1546 -6984 0
-1556 7010 0
-6985 7010 0
-1556 -6985 7011 0
-6986 7011 0
-1556 -6986 7012 0
-6987 7012 0
-1556 -6987 7013 0
-6988 7013 0
-1556 -6988 7014 0
-6989 7014 0
-1556 -6989 7015 0
-6990 7015 0
-1556 -6990 7016 0
-6991 7016 0
-1556 -6991 7017 0
-6992 7017 0
-1556 -6992 7018 0
-6993 7018 0
-1556 -6993 7019 0
-6994 7019 0
-1556 -6994 7020 0
-6995 7020 0
-1556 -6995 7021 0
-6996 7021 0
-1556 -6996 7022 0
-6997 7022 0
-1556 -6997 7023 0
-6998 7023 0
-1556 -6998 7024 0
-6999 7024 0
-1556 -6999 7025 0
-7000 7025 0
-1556 -7000 7026 0
-7001 7026 0
-1556 -7001 7027 0
-7002 7027 0
-1556 -7002 7028 0
-7003 7028 0
-1556 -7003 7029 0
-7004 7029 0
-1556 -7004 7030 0
-7005 7030 0
-1556 -7005 7031 0
-7006 7031 0
-1556 -7006 7032 0
-7007 7032 0
-1556 -7007 7033 0
-7008 7033 0
-1556 -7008 7034 0
-7009 7034 0
-1556 -7009 0
-1556 7035 0
-7010 7035 0
-1556 -7010 7036 0
-7011 7036 0
-1556 -7011 7037 0
-7012 7037 0
-1556 -7012 7038 0
-7013 7038 0
-1556 -7013 7039 0
-7014 7039 0
-1556 -7014 7040 0
-7015 7040 0
-1556 -7015 7041 0
-7016 7041 0
-1556 -7016 7042 0
-7017 7042 0
-1556 -7017 7043 0
-7018 7043 0
-1556 -7018 7044 0
-7019 7044 0
-1556 -7019 7045 0
-7020 7045 0
-1556 -7020 7046 0
-7021 7046 0
-1556 -7021 7047 0
-7022 7047 0
-1556 -7022 7048 0
-7023 7048 0
-1556 -7023 7049 0
-7024 7049 0
-1556 -7024 7050 0
-7025 7050 0
-1556 -7025 7051 0
-7026 7051 0
-1556 -7026 7052 0
-7027 7052 0
-1556 -7027 7053 0
-7028 7053 0
-1556 -7028 7054 0
-7029 7054 0
-1556 -7029 7055 0
-7030 7055 0
-1556 -7030 7056 0
-7031 7056 0
-1556 -7031 7057 0
-7032 7057 0
-1556 -7032 7058 0
-7033 7058 0
-1556 -7033 7059 0
-7034 7059 0
-1556 -7034 0
-1556 7060 0
-7035 7060 0
-1556 -7035 7061 0
-7036 7061 0
-1556 -7036 7062 0
-7037 7062 0
-1556 -7037 7063 0
-7038 7063 0
-1556 -7038 7064 0
-7039 7064 0
-1556 -7039 7065 0
-7040 7065 0
-1556 -7040 7066 0
-7041 7066 0
-1556 -7041 7067 0
-7042 7067 0
-1556 -7042 7068 0
-7043 7068 0
-1556 -7043 7069 0
-7044 7069 0
-1556 -7044 7070 0
-7045 7070 0
-1556 -7045 7071 0
-7046 7071 0
-1556 -7046 7072 0
-7047 7072 0
-1556 -7047 7073 0
-7048 7073 0
-1556 -7048 7074 0
-7049 7074 0
-1556 -7049 7075 0
-7050 7075 0
-1556 -7050 7076 0
-7051 7076 0
-1556 -7051 7077 0
-7052 7077 0
-1556 -7052 7078 0
-7053 7078 0
-1556 -7053 7079 0
-7054 7079 0
-1556 -7054 7080 0
-7055 7080 0
-1556 -7055 7081 0
-7056 7081 0
-1556 -7056 7082 0
-7057 7082 0
-1556 -7057 7083 0
-7058 7083 0
-1556 -7058 7084 0
-7059 7084 0
-1556 -7059 0
-1557 7085 0
-7060 7085 0
-1557 -7060 7086 0
-7061 7086 0
-1557 -7061 7087 0
-7062 7087 0
-1557 -7062 7088 0
-7063 7088 0
-1557 -7063 7089 0
-7064 7089 0
-1557 -7064 7090 0
-7065 7090 0
-1557 -7065 7091 0
-7066 7091 0
-1557 -7066 7092 0
-7067 7092 0
-1557 -7067 7093 0
-7068 7093 0
-1557 -7068 7094 0
-7069 7094 0
-1557 -7069 7095 0
-7070 7095 0
-1557 -7070 7096 0
-7071 7096 0
-1557 -7071 7097 0
-7072 7097 0
-1557 -7072 7098 0
-7073 7098 0
-1557 -7073 7099 0
-7074 7099 0
-1557 -7074 7100 0
-7075 7100 0
-1557 -7075 7101 0
-7076 7101 0
-1557 -7076 7102 0
-7077 7102 0
-1557 -7077 7103 0
-7078 7103 0
-1557 -7078 7104 0
-7079 7104 0
-1557 -7079 7105 0
-7080 7105 0
-1557 -7080 7106 0
-7081 7106 0
-1557 -7081 7107 0
-7082 7107 0
-1557 -7082 7108 0
-7083 7108 0
-1557 -7083 7109 0
-7084 7109 0
-1557 -7084 0
-1557 7110 0
-7085 7110 0
-1557 -7085 7111 0
-7086 7111 0
-1557 -7086 7112 0
-7087 7112 0
-1557 -7087 7113 0
-7088 7113 0
-1557 -7088 7114 0
-7089 7114 0
-1557 -7089 7115 0
-7090 7115 0
-1557 -7090 7116 0
-7091 7116 0
-1557 -7091 7117 0
-7092 7117 0
-1557 -7092 7118 0
-7093 7118 0
-1557 -7093 7119 0
-7094 7119 0
-1557 -7094 7120 0
-7095 7120 0
-1557 -7095 7121 0
-7096 7121 0
-1557 -7096 7122 0
-7097 7122 0
-1557 -7097 7123 0
-7098 7123 0
-1557 -7098 7124 0
-7099 7124 0
-1557 -7099 7125 0
-7100 7125 0
-1557 -7100 7126 0
-7101 7126 0
-1557 -7101 7127 0
-7102 7127 0
-1557 -7102 7128 0
-7103 7128 0
-1557 -7103 7129 0
-7104 7129 0
-1557 -7104 7130 0
-7105 7130 0
-1557 -7105 7131 0
-7106 7131 0
-1557 -7106 7132 0
-7107 7132 0
-1557 -7107 7133 0
-7108 7133 0
-1557 -7108 7134 0
-7109 7134 0
-1557 -7109 0
-1567 7135 0
-7110 7135 0
-1567 -7110 7136 0
-7111 7136 0
-1567 -7111 7137 0
-7112 7137 0
-1567 -7112 7138 0
-7113 7138 0
-1567 -7113 7139 0
-7114 7139 0
-1567 -7114 7140 0
-7115 7140 0
-1567 -7115 7141 0
-7116 7141 0
-1567 -7116 7142 0
-7117 7142 0
-1567 -7117 7143 0
-7118 7143 0
-1567 -7118 7144 0
-7119 7144 0
-1567 -7119 7145 0
-7120 7145 0
-1567 -7120 7146 0
-7121 7146 0
-1567 -7121 7147 0
-7122 7147 0
-1567 -7122 7148 0
-7123 7148 0
-1567 -7123 7149 0
-7124 7149 0
-1567 -7124 7150 0
-7125 7150 0
-1567 -7125 7151 0
-7126 7151 0
-1567 -7126 7152 0
-7127 7152 0
-1567 -7127 7153 0
-7128 7153 0
-1567 -7128 7154 0
-7129 7154 0
-1567 -7129 7155 0
-7130 7155 0
-1567 -7130 7156 0
-7131 7156 0
-1567 -7131 7157 0
-7132 7157 0
-1567 -7132 7158 0
-7133 7158 0
-1567 -7133 7159 0
-7134 7159 0
-1567 -7134 0
-1567 7160 0
-7135 7160 0
-1567 -7135 7161 0
-7136 7161 0
-1567 -7136 7162 0
-7137 7162 0
-1567 -7137 7163 0
-7138 7163 0
-1567 -7138 7164 0
-7139 7164 0
-1567 -7139 7165 0
-7140 7165 0
-1567 -7140 7166 0
-7141 7166 0
-1567 -7141 7167 0
-7142 7167 0
-1567 -7142 7168 0
-7143 7168 0
-1567 -7143 7169 0
-7144 7169 0
-1567 -7144 7170 0
-7145 7170 0
-1567 -7145 7171 0
-7146 7171 0
-1567 -7146 7172 0
-7147 7172 0
-1567 -7147 7173 0
-7148 7173 0
-1567 -7148 7174 0
-7149 7174 0
-1567 -7149 7175 0
-7150 7175 0
-1567 -7150 7176 0
-7151 7176 0
-1567 -7151 7177 0
-7152 7177 0
-1567 -7152 7178 0
-7153 7178 0
-1567 -7153 7179 0
-7154 7179 0
-1567 -7154 7180 0
-7155 7180 0
-1567 -7155 7181 0
-7156 7181 0
-1567 -7156 7182 0
-7157 7182 0
-1567 -7157 7183 0
-7158 7183 0
-1567 -7158 7184 0
-7159 7184 0
-1567 -7159 0
-1567 7185 0
-7160 7185 0
-1567 -7160 7186 0
-7161 7186 0
-1567 -7161 7187 0
-7162 7187 0
-1567 -7162 7188 0
-7163 7188 0
-1567 -7163 7189 0
-7164 7189 0
-1567 -7164 7190 0
-7165 7190 0
-1567 -7165 7191 0
-7166 7191 0
-1567 -7166 7192 0
-7167 7192 0
-1567 -7167 7193 0
-7168 7193 0
-1567 -7168 7194 0
-7169 7194 0
-1567 -7169 7195 0
-7170 7195 0
-1567 -7170 7196 0
-7171 7196 0
-1567 -7171 7197 0
-7172 7197 0
-1567 -7172 7198 0
-7173 7198 0
-1567 -7173 7199 0
-7174 7199 0
-1567 -7174 7200 0
-7175 7200 0
-1567 -7175 7201 0
-7176 7201 0
-1567 -7176 7202 0
-7177 7202 0
-1567 -7177 7203 0
-7178 7203 0
-1567 -7178 7204 0
-7179 7204 0
-1567 -7179 7205 0
-7180 7205 0
-1567 -7180 7206 0
-7181 7206 0
-1567 -7181 7207 0
-7182 7207 0
-1567 -7182 7208 0
-7183 7208 0
-1567 -7183 7209 0
-7184 7209 0
-1567 -7184 0
-1568 7210 0
-7185 7210 0
-1568 -7185 7211 0
-7186 7211 0
-1568 -7186 7212 0
-7187 7212 0
-1568 -7187 7213 0
-7188 7213 0
-1568 -7188 7214 0
-7189 7214 0
-1568 -7189 7215 0
-7190 7215 0
-1568 -7190 7216 0
-7191 7216 0
-1568 -7191 7217 0
-7192 7217 0
-1568 -7192 7218 0
-7193 7218 0
-1568 -7193 7219 0
-7194 7219 0
-1568 -7194 7220 0
-7195 7220 0
-1568 -7195 7221 0
-7196 7221 0
-1568 -7196 7222 0
-7197 7222 0
-1568 -7197 7223 0
-7198 7223 0
-1568 -7198 7224 0
-7199 7224 0
-1568 -7199 7225 0
-7200 7225 0
-1568 -7200 7226 0
-7201 7226 0
-1568 -7201 7227 0
-7202 7227 0
-1568 -7202 7228 0
-7203 7228 0
-1568 -7203 7229 0
-7204 7229 0
-1568 -7204 7230 0
-7205 7230 0
-1568 -7205 7231 0
-7206 7231 0
-1568 -7206 7232 0
-7207 7232 0
-1568 -7207 7233 0
-7208 7233 0
-1568 -7208 7234 0
-7209 7234 0
-1568 -7209 0
-1568 7235 0
-7210 7235 0
-1568 -7210 7236 0
-7211 7236 0
-1568 -7211 7237 0
-7212 7237 0
-1568 -7212 7238 0
-7213 7238 0
-1568 -7213 7239 0
-7214 7239 0
-1568 -7214 7240 0
-7215 7240 0
-1568 -7215 7241 0
-7216 7241 0
-1568 -7216 7242 0
-7217 7242 0
-1568 -7217 7243 0
-7218 7243 0
-1568 -7218 7244 0
-7219 7244 0
-1568 -7219 7245 0
-7220 7245 0
-1568 -7220 7246 0
-7221 7246 0
-1568 -7221 7247 0
-7222 7247 0
-1568 -7222 7248 0
-7223 7248 0
-1568 -7223 7249 0
-7224 7249 0
-1568 -7224 7250 0
-7225 7250 0
-1568 -7225 7251 0
-7226 7251 0
-1568 -7226 7252 0
-7227 7252 0
-1568 -7227 7253 0
-7228 7253 0
-1568 -7228 7254 0
-7229 7254 0
-1568 -7229 7255 0
-7230 7255 0
-1568 -7230 7256 0
-7231 7256 0
-1568 -7231 7257 0
-7232 7257 0
-1568 -7232 7258 0
-7233 7258 0
-1568 -7233 7259 0
-7234 7259 0
-1568 -7234 0
-1578 7260 0
-7235 7260 0
-1578 -7235 7261 0
-7236 7261 0
-1578 -7236 7262 0
-7237 7262 0
-1578 -7237 7263 0
-7238 7263 0
-1578 -7238 7264 0
-7239 7264 0
-1578 -7239 7265 0
-7240 7265 0
-1578 -7240 7266 0
-7241 7266 0
-1578 -7241 7267 0
-7242 7267 0
-1578 -7242 7268 0
-7243 7268 0
-1578 -7243 7269 0
-7244 7269 0
-1578 -7244 7270 0
-7245 7270 0
-1578 -7245 7271 0
-7246 7271 0
-1578 -7246 7272 0
-7247 7272 0
-1578 -7247 7273 0
-7248 7273 0
-1578 -7248 7274 0
-7249 7274 0
-1578 -7249 7275 0
-7250 7275 0
-1578 -7250 7276 0
-7251 7276 0
-1578 -7251 7277 0
-7252 7277 0
-1578 -7252 7278 0
-7253 7278 0
-1578 -7253 7279 0
-7254 7279 0
-1578 -7254 7280 0
-7255 7280 0
-1578 -7255 7281 0
-7256 7281 0
-1578 -7256 7282 0
-7257 7282 0
-1578 -7257 7283 0
-7258 7283 0
-1578 -7258 7284 0
-7259 7284 0
-1578 -7259 0
-1578 7285 0
-7260 7285 0
-1578 -7260 7286 0
-7261 7286 0
-1578 -7261 7287 0
-7262 7287 0
-1578 -7262 7288 0
-7263 7288 0
-1578 -7263 7289 0
-7264 7289 0
-1578 -7264 7290 0
-7265 7290 0
-1578 -7265 7291 0
-7266 7291 0
-1578 -7266 7292 0
-7267 7292 0
-1578 -7267 7293 0
-7268 7293 0
-1578 -7268 7294 0
-7269 7294 0
-1578 -7269 7295 0
-7270 7295 0
-1578 -7270 7296 0
-7271 7296 0
-1578 -7271 7297 0
-7272 7297 0
-1578 -7272 7298 0
-7273 7298 0
-1578 -7273 7299 0
-7274 7299 0
-1578 -7274 7300 0
-7275 7300 0
-1578 -7275 7301 0
-7276 7301 0
-1578 -7276 7302 0
-7277 7302 0
-1578 -7277 7303 0
-7278 7303 0
-1578 -7278 7304 0
-7279 7304 0
-1578 -7279 7305 0
-7280 7305 0
-1578 -7280 7306 0
-7281 7306 0
-1578 -7281 7307 0
-7282 7307 0
-1578 -7282 7308 0
-7283 7308 0
-1578 -7283 7309 0
-7284 7309 0
-1578 -7284 0
-1578 7310 0
-7285 7310 0
-1578 -7285 7311 0
-7286 7311 0
-1578 -7286 7312 0
-7287 7312 0
-1578 -7287 7313 0
-7288 7313 0
-1578 -7288 7314 0
-7289 7314 0
-1578 -7289 7315 0
-7290 7315 0
-1578 -7290 7316 0
-7291 7316 0
-1578 -7291 7317 0
-7292 7317 0
-1578 -7292 7318 0
-7293 7318 0
-1578 -7293 7319 0
-7294 7319 0
-1578 -7294 7320 0
-7295 7320 0
-1578 -7295 7321 0
-7296 7321 0
-1578 -7296 7322 0
-7297 7322 0
-1578 -7297 7323 0
-7298 7323 0
-1578 -7298 7324 0
-7299 7324 0
-1578 -7299 7325 0
-7300 7325 0
-1578 -7300 7326 0
-7301 7326 0
-1578 -7301 7327 0
-7302 7327 0
-1578 -7302 7328 0
-7303 7328 0
-1578 -7303 7329 0
-7304 7329 0
-1578 -7304 7330 0
-7305 7330 0
-1578 -7305 7331 0
-7306 7331 0
-1578 -7306 7332 0
-7307 7332 0
-1578 -7307 7333 0
-7308 7333 0
-1578 -7308 7334 0
-7309 7334 0
-1578 -7309 0
-1579 7335 0
-7310 7335 0
-1579 -7310 7336 0
-7311 7336 0
-1579 -7311 7337 0
-7312 7337 0
-1579 -7312 7338 0
-7313 7338 0
-1579 -7313 7339 0
-7314 7339 0
-1579 -7314 7340 0
-7315 7340 0
-1579 -7315 7341 0
-7316 7341 0
-1579 -7316 7342 0
-7317 7342 0
-1579 -7317 7343 0
-7318 7343 0
-1579 -7318 7344 0
-7319 7344 0
-1579 -7319 7345 0
-7320 7345 0
-1579 -7320 7346 0
-7321 7346 0
-1579 -7321 7347 0
-7322 7347 0
-1579 -7322 7348 0
-7323 7348 0
-1579 -7323 7349 0
-7324 7349 0
-1579 -7324 7350 0
-7325 7350 0
-1579 -7325 7351 0
-7326 7351 0
-1579 -7326 7352 0
-7327 7352 0
-1579 -7327 7353 0
-7328 7353 0
-1579 -7328 7354 0
-7329 7354 0
-1579 -7329 7355 0
-7330 7355 0
-1579 -7330 7356 0
-7331 7356 0
-1579 -7331 7357 0
-7332 7357 0
-1579 -7332 7358 0
-7333 7358 0
-1579 -7333 7359 0
-7334 7359 0
-1579 -7334 0
-1579 7360 0
-7335 7360 0
-1579 -7335 7361 0
-7336 7361 0
-1579 -7336 7362 0
-7337 7362 0
-1579 -7337 7363 0
-7338 7363 0
-1579 -7338 7364 0
-7339 7364 0
-1579 -7339 7365 0
-7340 7365 0
-1579 -7340 7366 0
-7341 7366 0
-1579 -7341 7367 0
-7342 7367 0
-1579 -7342 7368 0
-7343 7368 0
-1579 -7343 7369 0
-7344 7369 0
-1579 -7344 7370 0
-7345 7370 0
-1579 -7345 7371 0
-7346 7371 0
-1579 -7346 7372 0
-7347 7372 0
-1579 -7347 7373 0
-7348 7373 0
-1579 -7348 7374 0
-7349 7374 0
-1579 -7349 7375 0
-7350 7375 0
-1579 -7350 7376 0
-7351 7376 0
-1579 -7351 7377 0
-7352 7377 0
-1579 -7352 7378 0
-7353 7378 0
-1579 -7353 7379 0
-7354 7379 0
-1579 -7354 7380 0
-7355 7380 0
-1579 -7355 7381 0
-7356 7381 0
-1579 -7356 7382 0
-7357 7382 0
-1579 -7357 7383 0
-7358 7383 0
-1579 -7358 7384 0
-7359 7384 0
-1579 -7359 0
-1589 7385 0
-7360 7385 0
-1589 -7360 7386 0
-7361 7386 0
-1589 -7361 7387 0
-7362 7387 0
-1589 -7362 7388 0
-7363 7388 0
-1589 -7363 7389 0
-7364 7389 0
-1589 -7364 7390 0
-7365 7390 0
-1589 -7365 7391 0
-7366 7391 0
-1589 -7366 7392 0
-7367 7392 0
-1589 -7367 7393 0
-7368 7393 0
-1589 -7368 7394 0
-7369 7394 0
-1589 -7369 7395 0
-7370 7395 0
-1589 -7370 7396 0
-7371 7396 0
-1589 -7371 7397 0
-7372 7397 0
-1589 -7372 7398 0
-7373 7398 0
-1589 -7373 7399 0
-7374 7399 0
-1589 -7374 7400 0
-7375 7400 0
-1589 -7375 7401 0
-7376 7401 0
-1589 -7376 7402 0
-7377 7402 0
-1589 -7377 7403 0
-7378 7403 0
-1589 -7378 7404 0
-7379 7404 0
-1589 -7379 7405 0
-7380 7405 0
-1589 -7380 7406 0
-7381 7406 0
-1589 -7381 7407 0
-7382 7407 0
-1589 -7382 7408 0
-7383 7408 0
-1589 -7383 7409 0
-7384 7409 0
-1589 -7384 0
-1589 7410 0
-7385 7410 0
-1589 -7385 7411 0
-7386 7411 0
-1589 -7386 7412 0
-7387 7412 0
-1589 -7387 7413 0
-7388 7413 0
-1589 -7388 7414 0
-7389 7414 0
-1589 -7389 7415 0
-7390 7415 0
-1589 -7390 7416 0
-7391 7416 0
-1589 -7391 7417 0
-7392 7417 0
-1589 -7392 7418 0
-7393 7418 0
-1589 -7393 7419 0
-7394 7419 0
-1589 -7394 7420 0
-7395 7420 0
-1589 -7395 7421 0
-7396 7421 0
-1589 -7396 7422 0
-7397 7422 0
-1589 -7397 7423 0
-7398 7423 0
-1589 -7398 7424 0
-7399 7424 0
-1589 -7399 7425 0
-7400 7425 0
-1589 -7400 7426 0
-7401 7426 0
-1589 -7401 7427 0
-7402 7427 0
-1589 -7402 7428 0
-7403 7428 0
-1589 -7403 7429 0
-7404 7429 0
-1589 -7404 7430 0
-7405 7430 0
-1589 -7405 7431 0
-7406 7431 0
-1589 -7406 7432 0
-7407 7432 0
-1589 -7407 7433 0
-7408 7433 0
-1589 -7408 7434 0
-7409 7434 0
-1589 -7409 0
-1589 7435 0
-7410 7435 0
-1589 -7410 7436 0
-7411 7436 0
-1589 -7411 7437 0
-7412 7437 0
-1589 -7412 7438 0
-7413 7438 0
-1589 -7413 7439 0
-7414 7439 0
-1589 -7414 7440 0
-7415 7440 0
-1589 -7415 7441 0
-7416 7441 0
-1589 -7416 7442 0
-7417 7442 0
-1589 -7417 7443 0
-7418 7443 0
-1589 -7418 7444 0
-7419 7444 0
-1589 -7419 7445 0
-7420 7445 0
-1589 -7420 7446 0
-7421 7446 0
-1589 -7421 7447 0
-7422 7447 0
-1589 -7422 7448 0
-7423 7448 0
-1589 -7423 7449 0
-7424 7449 0
-1589 -7424 7450 0
-7425 7450 0
-1589 -7425 7451 0
-7426 7451 0
-1589 -7426 7452 0
-7427 7452 0
-1589 -7427 7453 0
-7428 7453 0
-1589 -7428 7454 0
-7429 7454 0
-1589 -7429 7455 0
-7430 7455 0
-1589 -7430 7456 0
-7431 7456 0
-1589 -7431 7457 0
-7432 7457 0
-1589 -7432 7458 0
-7433 7458 0
-1589 -7433 7459 0
-7434 7459 0
-1589 -7434 0
-1590 7460 0
-7435 7460 0
-1590 -7435 7461 0
-7436 7461 0
-1590 -7436 7462 0
-7437 7462 0
-1590 -7437 7463 0
-7438 7463 0
-1590 -7438 7464 0
-7439 7464 0
-1590 -7439 7465 0
-7440 7465 0
-1590 -7440 7466 0
-7441 7466 0
-1590 -7441 7467 0
-7442 7467 0
-1590 -7442 7468 0
-7443 7468 0
-1590 -7443 7469 0
-7444 7469 0
-1590 -7444 7470 0
-7445 7470 0
-1590 -7445 7471 0
-7446 7471 0
-1590 -7446 7472 0
-7447 7472 0
-1590 -7447 7473 0
-7448 7473 0
-1590 -7448 7474 0
-7449 7474 0
-1590 -7449 7475 0
-7450 7475 0
-1590 -7450 7476 0
-7451 7476 0
-1590 -7451 7477 0
-7452 7477 0
-1590 -7452 7478 0
-7453 7478 0
-1590 -7453 7479 0
-7454 7479 0
-1590 -7454 7480 0
-7455 7480 0
-1590 -7455 7481 0
-7456 7481 0
-1590 -7456 7482 0
-7457 7482 0
-1590 -7457 7483 0
-7458 7483 0
-1590 -7458 7484 0
-7459 7484 0
-1590 -7459 0
-1590 7485 0
-7460 7485 0
-1590 -7460 7486 0
-7461 7486 0
-1590 -7461 7487 0
-7462 7487 0
-1590 -7462 7488 0
-7463 7488 0
-1590 -7463 7489 0
-7464 7489 0
-1590 -7464 7490 0
-7465 7490 0
-1590 -7465 7491 0
-7466 7491 0
-1590 -7466 7492 0
-7467 7492 0
-1590 -7467 7493 0
-7468 7493 0
-1590 -7468 7494 0
-7469 7494 0
-1590 -7469 7495 0
-7470 7495 0
-1590 -7470 7496 0
-7471 7496 0
-1590 -7471 7497 0
-7472 7497 0
-1590 -7472 7498 0
-7473 7498 0
-1590 -7473 7499 0
-7474 7499 0
-1590 -7474 7500 0
-7475 7500 0
-1590 -7475 7501 0
-7476 7501 0
-1590 -7476 7502 0
-7477 7502 0
-1590 -7477 7503 0
-7478 7503 0
-1590 -7478 7504 0
-7479 7504 0
-1590 -7479 7505 0
-7480 7505 0
-1590 -7480 7506 0
-7481 7506 0
-1590 -7481 7507 0
-7482 7507 0
-1590 -7482 7508 0
-7483 7508 0
-1590 -7483 7509 0
-7484 7509 0
-1590 -7484 0
-1600 7510 0
-7485 7510 0
-1600 -7485 7511 0
-7486 7511 0
-1600 -7486 7512 0
-7487 7512 0
-1600 -7487 7513 0
-7488 7513 0
-1600 -7488 7514 0
-7489 7514 0
-1600 -7489 7515 0
-7490 7515 0
-1600 -7490 7516 0
-7491 7516 0
-1600 -7491 7517 0
-7492 7517 0
-1600 -7492 7518 0
-7493 7518 0
-1600 -7493 7519 0
-7494 7519 0
-1600 -7494 7520 0
-7495 7520 0
-1600 -7495 7521 0
-7496 7521 0
-1600 -7496 7522 0
-7497 7522 0
-1600 -7497 7523 0
-7498 7523 0
-1600 -7498 7524 0
-7499 7524 0
-1600 -7499 7525 0
-7500 7525 0
-1600 -7500 7526 0
-7501 7526 0
-1600 -7501 7527 0
-7502 7527 0
-1600 -7502 7528 0
-7503 7528 0
-1600 -7503 7529 0
-7504 7529 0
-1600 -7504 7530 0
-7505 7530 0
-1600 -7505 7531 0
-7506 7531 0
-1600 -7506 7532 0
-7507 7532 0
-1600 -7507 7533 0
-7508 7533 0
-1600 -7508 7534 0
-7509 7534 0
-1600 -7509 0
-1600 7535 0
-7510 7535 0
-1600 -7510 7536 0
-7511 7536 0
-1600 -7511 7537 0
-7512 7537 0
-1600 -7512 7538 0
-7513 7538 0
-1600 -7513 7539 0
-7514 7539 0
-1600 -7514 7540 0
-7515 7540 0
-1600 -7515 7541 0
-7516 7541 0
-1600 -7516 7542 0
-7517 7542 0
-1600 -7517 7543 0
-7518 7543 0
-1600 -7518 7544 0
-7519 7544 0
-1600 -7519 7545 0
-7520 7545 0
-1600 -7520 7546 0
-7521 7546 0
-1600 -7521 7547 0
-7522 7547 0
-1600 -7522 7548 0
-7523 7548 0
-1600 -7523 7549 0
-7524 7549 0
-1600 -7524 7550 0
-7525 7550 0
-1600 -7525 7551 0
-7526 7551 0
-1600 -7526 7552 0
-7527 7552 0
-1600 -7527 7553 0
-7528 7553 0
-1600 -7528 7554 0
-7529 7554 0
-1600 -7529 7555 0
-7530 7555 0
-1600 -7530 7556 0
-7531 7556 0
-1600 -7531 7557 0
-7532 7557 0
-1600 -7532 7558 0
-7533 7558 0
-1600 -7533 7559 0
-7534 7559 0
-1600 -7534 0
-1600 7560 0
-7535 7560 0
-1600 -7535 7561 0
-7536 7561 0
-1600 -7536 7562 0
-7537 7562 0
-1600 -7537 7563 0
-7538 7563 0
-1600 -7538 7564 0
-7539 7564 0
-1600 -7539 7565 0
-7540 7565 0
-1600 -7540 7566 0
-7541 7566 0
-1600 -7541 7567 0
-7542 7567 0
-1600 -7542 7568 0
-7543 7568 0
-1600 -7543 7569 0
-7544 7569 0
-1600 -7544 7570 0
-7545 7570 0
-1600 -7545 7571 0
-7546 7571 0
-1600 -7546 7572 0
-7547 7572 0
-1600 -7547 7573 0
-7548 7573 0
-1600 -7548 7574 0
-7549 7574 0
-1600 -7549 7575 0
-7550 7575 0
-1600 -7550 7576 0
-7551 7576 0
-1600 -7551 7577 0
-7552 7577 0
-1600 -7552 7578 0
-7553 7578 0
-1600 -7553 7579 0
-7554 7579 0
-1600 -7554 7580 0
-7555 7580 0
-1600 -7555 7581 0
-7556 7581 0
-1600 -7556 7582 0
-7557 7582 0
-1600 -7557 7583 0
-7558 7583 0
-1600 -7558 7584 0
-7559 7584 0
-1600 -7559 0
-1601 7585 0
-7560 7585 0
-1601 -7560 7586 0
-7561 7586 0
-1601 -7561 7587 0
-7562 7587 0
-1601 -7562 7588 0
-7563 7588 0
-1601 -7563 7589 0
-7564 7589 0
-1601 -7564 7590 0
-7565 7590 0
-1601 -7565 7591 0
-7566 7591 0
-1601 -7566 7592 0
-7567 7592 0
-1601 -7567 7593 0
-7568 7593 0
-1601 -7568 7594 0
-7569 7594 0
-1601 -7569 7595 0
-7570 7595 0
-1601 -7570 7596 0
-7571 7596 0
-1601 -7571 7597 0
-7572 7597 0
-1601 -7572 7598 0
-7573 7598 0
-1601 -7573 7599 0
-7574 7599 0
-1601 -7574 7600 0
-7575 7600 0
-1601 -7575 7601 0
-7576 7601 0
-1601 -7576 7602 0
-7577 7602 0
-1601 -7577 7603 0
-7578 7603 0
-1601 -7578 7604 0
-7579 7604 0
-1601 -7579 7605 0
-7580 7605 0
-1601 -7580 7606 0
-7581 7606 0
-1601 -7581 7607 0
-7582 7607 0
-1601 -7582 7608 0
-7583 7608 0
-1601 -7583 7609 0
-7584 7609 0
-1601 -7584 0
-1601 7610 0
-7585 7610 0
-1601 -7585 7611 0
-7586 7611 0
-1601 -7586 7612 0
-7587 7612 0
-1601 -7587 7613 0
-7588 7613 0
-1601 -7588 7614 0
-7589 7614 0
-1601 -7589 7615 0
-7590 7615 0
-1601 -7590 7616 0
-7591 7616 0
-1601 -7591 7617 0
-7592 7617 0
-1601 -7592 7618 0
-7593 7618 0
-1601 -7593 7619 0
-7594 7619 0
-1601 -7594 7620 0
-7595 7620 0
-1601 -7595 7621 0
-7596 7621 0
-1601 -7596 7622 0
-7597 7622 0
-1601 -7597 7623 0
-7598 7623 0
-1601 -7598 7624 0
-7599 7624 0
-1601 -7599 7625 0
-7600 7625 0
-1601 -7600 7626 0
-7601 7626 0
-1601 -7601 7627 0
-7602 7627 0
-1601 -7602 7628 0
-7603 7628 0
-1601 -7603 7629 0
-7604 7629 0
-1601 -7604 7630 0
-7605 7630 0
-1601 -7605 7631 0
-7606 7631 0
-1601 -7606 7632 0
-7607 7632 0
-1601 -7607 7633 0
-7608 7633 0
-1601 -7608 7634 0
-7609 7634 0
-1601 -7609 0
-1611 7635 0
-7610 7635 0
-1611 -7610 7636 0
-7611 7636 0
-1611 -7611 7637 0
-7612 7637 0
-1611 -7612 7638 0
-7613 7638 0
-1611 -7613 7639 0
-7614 7639 0
-1611 -7614 7640 0
-7615 7640 0
-1611 -7615 7641 0
-7616 7641 0
-1611 -7616 7642 0
-7617 7642 0
-1611 -7617 7643 0
-7618 7643 0
-1611 -7618 7644 0
-7619 7644 0
-1611 -7619 7645 0
-7620 7645 0
-1611 -7620 7646 0
-7621 7646 0
-1611 -7621 7647 0
-7622 7647 0
-1611 -7622 7648 0
-7623 7648 0
-1611 -7623 7649 0
-7624 7649 0
-1611 -7624 7650 0
-7625 7650 0
-1611 -7625 7651 0
-7626 7651 0
-1611 -7626 7652 0
-7627 7652 0
-1611 -7627 7653 0
-7628 7653 0
-1611 -7628 7654 0
-7629 7654 0
-1611 -7629 7655 0
-7630 7655 0
-1611 -7630 7656 0
-7631 7656 0
-1611 -7631 7657 0
-7632 7657 0
-1611 -7632 7658 0
-7633 7658 0
-1611 -7633 7659 0
-7634 7659 0
-1611 -7634 0
-1611 7660 0
-7635 7660 0
-1611 -7635 7661 0
-7636 7661 0
-1611 -7636 7662 0
-7637 7662 0
-1611 -7637 7663 0
-7638 7663 0
-1611 -7638 7664 0
-7639 7664 0
-1611 -7639 7665 0
-7640 7665 0
-1611 -7640 7666 0
-7641 7666 0
-1611 -7641 7667 0
-7642 7667 0
-1611 -7642 7668 0
-7643 7668 0
-1611 -7643 7669 0
-7644 7669 0
-1611 -7644 7670 0
-7645 7670 0
-1611 -7645 7671 0
-7646 7671 0
-1611 -7646 7672 0
-7647 7672 0
-1611 -7647 7673 0
-7648 7673 0
-1611 -7648 7674 0
-7649 7674 0
-1611 -7649 7675 0
-7650 7675 0
-1611 -7650 7676 0
-7651 7676 0
-1611 -7651 7677 0
-7652 7677 0
-1611 -7652 7678 0
-7653 7678 0
-1611 -7653 7679 0
-7654 7679 0
-1611 -7654 7680 0
-7655 7680 0
-1611 -7655 7681 0
-7656 7681 0
-1611 -7656 7682 0
-7657 7682 0
-1611 -7657 7683 0
-7658 7683 0
-1611 -7658 7684 0
-7659 7684 0
-1611 -7659 0
-1611 7685 0
-7660 7685 0
-1611 -7660 7686 0
-7661 7686 0
-1611 -7661 7687 0
-7662 7687 0
-1611 -7662 7688 0
-7663 7688 0
-1611 -7663 7689 0
-7664 7689 0
-1611 -7664 7690 0
-7665 7690 0
-1611 -7665 7691 0
-7666 7691 0
-1611 -7666 7692 0
-7667 7692 0
-1611 -7667 7693 0
-7668 7693 0
-1611 -7668 7694 0
-7669 7694 0
-1611 -7669 7695 0
-7670 7695 0
-1611 -7670 7696 0
-7671 7696 0
-1611 -7671 7697 0
-7672 7697 0
-1611 -7672 7698 0
-7673 7698 0
-1611 -7673 7699 0
-7674 7699 0
-1611 -7674 7700 0
-7675 7700 0
-1611 -7675 7701 0
-7676 7701 0
-1611 -7676 7702 0
-7677 7702 0
-1611 -7677 7703 0
-7678 7703 0
-1611 -7678 7704 0
-7679 7704 0
-1611 -7679 7705 0
-7680 7705 0
-1611 -7680 7706 0
-7681 7706 0
-1611 -7681 7707 0
-7682 7707 0
-1611 -7682 7708 0
-7683 7708 0
-1611 -7683 7709 0
-7684 7709 0
-1611 -7684 0
-1612 7710 0
-7685 7710 0
-1612 -7685 7711 0
-7686 7711 0
-1612 -7686 7712 0
-7687 7712 0
-1612 -7687 7713 0
-7688 7713 0
-1612 -7688 7714 0
-7689 7714 0
-1612 -7689 7715 0
-7690 7715 0
-1612 -7690 7716 0
-7691 7716 0
-1612 -7691 7717 0
-7692 7717 0
-1612 -7692 7718 0
-7693 7718 0
-1612 -7693 7719 0
-7694 7719 0
-1612 -7694 7720 0
-7695 7720 0
-1612 -7695 7721 0
-7696 7721 0
-1612 -7696 7722 0
-7697 7722 0
-1612 -7697 7723 0
-7698 7723 0
-1612 -7698 7724 0
-7699 7724 0
-1612 -7699 7725 0
-7700 7725 0
-1612 -7700 7726 0
-7701 7726 0
-1612 -7701 7727 0
-7702 7727 0
-1612 -7702 7728 0
-7703 7728 0
-1612 -7703 7729 0
-7704 7729 0
-1612 -7704 7730 0
-7705 7730 0
-1612 -7705 7731 0
-7706 7731 0
-1612 -7706 7732 0
-7707 7732 0
-1612 -7707 7733 0
-7708 7733 0
-1612 -7708 7734 0
-7709 7734 0
-1612 -7709 0
-1612 7735 0
-7710 7735 0
-1612 -7710 7736 0
-7711 7736 0
-1612 -7711 7737 0
-7712 7737 0
-1612 -7712 7738 0
-7713 7738 0
-1612 -7713 7739 0
-7714 7739 0
-1612 -7714 7740 0
-7715 7740 0
-1612 -7715 7741 0
-7716 7741 0
-1612 -7716 7742 0
-7717 7742 0
-1612 -7717 7743 0
-7718 7743 0
-1612 -7718 7744 0
-7719 7744 0
-1612 -7719 7745 0
-7720 7745 0
-1612 -7720 7746 0
-7721 7746 0
-1612 -7721 7747 0
-7722 7747 0
-1612 -7722 7748 0
-7723 7748 0
-1612 -7723 7749 0
-7724 7749 0
-1612 -7724 7750 0
-7725 7750 0
-1612 -7725 7751 0
-7726 7751 0
-1612 -7726 7752 0
-7727 7752 0
-1612 -7727 7753 0
-7728 7753 0
-1612 -7728 7754 0
-7729 7754 0
-1612 -7729 7755 0
-7730 7755 0
-1612 -7730 7756 0
-7731 7756 0
-1612 -7731 7757 0
-7732 7757 0
-1612 -7732 7758 0
-7733 7758 0
-1612 -7733 7759 0
-7734 7759 0
-1612 -7734 0
-1622 7760 0
-7735 7760 0
-1622 -7735 7761 0
-7736 7761 0
-1622 -7736 7762 0
-7737 7762 0
-1622 -7737 7763 0
-7738 7763 0
-1622 -7738 7764 0
-7739 7764 0
-1622 -7739 7765 0
-7740 7765 0
-1622 -7740 7766 0
-7741 7766 0
-1622 -7741 7767 0
-7742 7767 0
-1622 -7742 7768 0
-7743 7768 0
-1622 -7743 7769 0
-7744 7769 0
-1622 -7744 7770 0
-7745 7770 0
-1622 -7745 7771 0
-7746 7771 0
-1622 -7746 7772 0
-7747 7772 0
-1622 -7747 7773 0
-7748 7773 0
-1622 -7748 7774 0
-7749 7774 0
-1622 -7749 7775 0
-7750 7775 0
-1622 -7750 7776 0
-7751 7776 0
-1622 -7751 7777 0
-7752 7777 0
-1622 -7752 7778 0
-7753 7778 0
-1622 -7753 7779 0
-7754 7779 0
-1622 -7754 7780 0
-7755 7780 0
-1622 -7755 7781 0
-7756 7781 0
-1622 -7756 7782 0
-7757 7782 0
-1622 -7757 7783 0
-7758 7783 0
-1622 -7758 7784 0
-7759 7784 0
-1622 -7759 0
-1622 7785 0
-7760 7785 0
-1622 -7760 7786 0
-7761 7786 0
-1622 -7761 7787 0
-7762 7787 0
-1622 -7762 7788 0
-7763 7788 0
-1622 -7763 7789 0
-7764 7789 0
-1622 -7764 7790 0
-7765 7790 0
-1622 -7765 7791 0
-7766 7791 0
-1622 -7766 7792 0
-7767 7792 0
-1622 -7767 7793 0
-7768 7793 0
-1622 -7768 7794 0
-7769 7794 0
-1622 -7769 7795 0
-7770 7795 0
-1622 -7770 7796 0
-7771 7796 0
-1622 -7771 7797 0
-7772 7797 0
-1622 -7772 7798 0
-7773 7798 0
-1622 -7773 7799 0
-7774 7799 0
-1622 -7774 7800 0
-7775 7800 0
-1622 -7775 7801 0
-7776 7801 0
-1622 -7776 7802 0
-7777 7802 0
-1622 -7777 7803 0
-7778 7803 0
-1622 -7778 7804 0
-7779 7804 0
-1622 -7779 7805 0
-7780 7805 0
-1622 -7780 7806 0
-7781 7806 0
-1622 -7781 7807 0
-7782 7807 0
-1622 -7782 7808 0
-7783 7808 0
-1622 -7783 7809 0
-7784 7809 0
-1622 -7784 0
-1622 7810 0
-7785 7810 0
-1622 -7785 7811 0
-7786 7811 0
-1622 -7786 7812 0
-7787 7812 0
-1622 -7787 7813 0
-7788 7813 0
-1622 -7788 7814 0
-7789 7814 0
-1622 -7789 7815 0
-7790 7815 0
-1622 -7790 7816 0
-7791 7816 0
-1622 -7791 7817 0
-7792 7817 0
-1622 -7792 7818 0
-7793 7818 0
-1622 -7793 7819 0
-7794 7819 0
-1622 -7794 7820 0
-7795 7820 0
-1622 -7795 7821 0
-7796 7821 0
-1622 -7796 7822 0
-7797 7822 0
-1622 -7797 7823 0
-7798 7823 0
-1622 -7798 7824 0
-7799 7824 0
-1622 -7799 7825 0
-7800 7825 0
-1622 -7800 7826 0
-7801 7826 0
-1622 -7801 7827 0
-7802 7827 0
-1622 -7802 7828 0
-7803 7828 0
-1622 -7803 7829 0
-7804 7829 0
-1622 -7804 7830 0
-7805 7830 0
-1622 -7805 7831 0
-7806 7831 0
-1622 -7806 7832 0
-7807 7832 0
-1622 -7807 7833 0
-7808 7833 0
-1622 -7808 7834 0
-7809 7834 0
-1622 -7809 0
-1623 7835 0
-7810 7835 0
-1623 -7810 7836 0
-7811 7836 0
-1623 -7811 7837 0
-7812 7837 0
-1623 -7812 7838 0
-7813 7838 0
-1623 -7813 7839 0
-7814 7839 0
-1623 -7814 7840 0
-7815 7840 0
-1623 -7815 7841 0
-7816 7841 0
-1623 -7816 7842 0
-7817 7842 0
-1623 -7817 7843 0
-7818 7843 0
-1623 -7818 7844 0
-7819 7844 0
-1623 -7819 7845 0
-7820 7845 0
-1623 -7820 7846 0
-7821 7846 0
-1623 -7821 7847 0
-7822 7847 0
-1623 -7822 7848 0
-7823 7848 0
-1623 -7823 7849 0
-7824 7849 0
-1623 -7824 7850 0
-7825 7850 0
-1623 -7825 7851 0
-7826 7851 0
-1623 -7826 7852 0
-7827 7852 0
-1623 -7827 7853 0
-7828 7853 0
-1623 -7828 7854 0
-7829 7854 0
-1623 -7829 7855 0
-7830 7855 0
-1623 -7830 7856 0
-7831 7856 0
-1623 -7831 7857 0
-7832 7857 0
-1623 -7832 7858 0
-7833 7858 0
-1623 -7833 7859 0
-7834 7859 0
-1623 -7834 0
-1623 7860 0
-7835 7860 0
-1623 -7835 7861 0
-7836 7861 0
-1623 -7836 7862 0
-7837 7862 0
-1623 -7837 7863 0
-7838 7863 0
-1623 -7838 7864 0
-7839 7864 0
-1623 -7839 7865 0
-7840 7865 0
-1623 -7840 7866 0
-7841 7866 0
-1623 -7841 7867 0
-7842 7867 0
-1623 -7842 7868 0
-7843 7868 0
-1623 -7843 7869 0
-7844 7869 0
-1623 -7844 7870 0
-7845 7870 0
-1623 -7845 7871 0
-7846 7871 0
-1623 -7846 7872 0
-7847 7872 0
-1623 -7847 7873 0
-7848 7873 0
-1623 -7848 7874 0
-7849 7874 0
-1623 -7849 7875 0
-7850 7875 0
-1623 -7850 7876 0
-7851 7876 0
-1623 -7851 7877 0
-7852 7877 0
-1623 -7852 7878 0
-7853 7878 0
-1623 -7853 7879 0
-7854 7879 0
-1623 -7854 7880 0
-7855 7880 0
-1623 -7855 7881 0
-7856 7881 0
-1623 -7856 7882 0
-7857 7882 0
-1623 -7857 7883 0
-7858 7883 0
-1623 -7858 7884 0
-7859 7884 0
-1623 -7859 0
-1633 7885 0
-7860 7885 0
-1633 -7860 7886 0
-7861 7886 0
-1633 -7861 7887 0
-7862 7887 0
-1633 -7862 7888 0
-7863 7888 0
-1633 -7863 7889 0
-7864 7889 0
-1633 -7864 7890 0
-7865 7890 0
-1633 -7865 7891 0
-7866 7891 0
-1633 -7866 7892 0
-7867 7892 0
-1633 -7867 7893 0
-7868 7893 0
-1633 -7868 7894 0
-7869 7894 0
-1633 -7869 7895 0
-7870 7895 0
-1633 -7870 7896 0
-7871 7896 0
-1633 -7871 7897 0
-7872 7897 0
-1633 -7872 7898 0
-7873 7898 0
-1633 -7873 7899 0
-7874 7899 0
-1633 -7874 7900 0
-7875 7900 0
-1633 -7875 7901 0
-7876 7901 0
-1633 -7876 7902 0
-7877 7902 0
-1633 -7877 7903 0
-7878 7903 0
-1633 -7878 7904 0
-7879 7904 0
-1633 -7879 7905 0
-7880 7905 0
-1633 -7880 7906 0
-7881 7906 0
-1633 -7881 7907 0
-7882 7907 0
-1633 -7882 7908 0
-7883 7908 0
-1633 -7883 7909 0
-7884 7909 0
-1633 -7884 0
-1633 7910 0
-7885 7910 0
-1633 -7885 7911 0
-7886 7911 0
-1633 -7886 7912 0
-7887 7912 0
-1633 -7887 7913 0
-7888 7913 0
-1633 -7888 7914 0
-7889 7914 0
-1633 -7889 7915 0
-7890 7915 0
-1633 -7890 7916 0
-7891 7916 0
-1633 -7891 7917 0
-7892 7917 0
-1633 -7892 7918 0
-7893 7918 0
-1633 -7893 7919 0
-7894 7919 0
-1633 -7894 7920 0
-7895 7920 0
-1633 -7895 7921 0
-7896 7921 0
-1633 -7896 7922 0
-7897 7922 0
-1633 -7897 7923 0
-7898 7923 0
-1633 -7898 7924 0
-7899 7924 0
-1633 -7899 7925 0
-7900 7925 0
-1633 -7900 7926 0
-7901 7926 0
-1633 -7901 7927 0
-7902 7927 0
-1633 -7902 7928 0
-7903 7928 0
-1633 -7903 7929 0
-7904 7929 0
-1633 -7904 7930 0
-7905 7930 0
-1633 -7905 7931 0
-7906 7931 0
-1633 -7906 7932 0
-7907 7932 0
-1633 -7907 7933 0
-7908 7933 0
-1633 -7908 7934 0
-7909 7934 0
-1633 -7909 0
-1633 7935 0
-7910 7935 0
-1633 -7910 7936 0
-7911 7936 0
-1633 -7911 7937 0
-7912 7937 0
-1633 -7912 7938 0
-7913 7938 0
-1633 -7913 7939 0
-7914 7939 0
-1633 -7914 7940 0
-7915 7940 0
-1633 -7915 7941 0
-7916 7941 0
-1633 -7916 7942 0
-7917 7942 0
-1633 -7917 7943 0
-7918 7943 0
-1633 -7918 7944 0
-7919 7944 0
-1633 -7919 7945 0
-7920 7945 0
-1633 -7920 7946 0
-7921 7946 0
-1633 -7921 7947 0
-7922 7947 0
-1633 -7922 7948 0
-7923 7948 0
-1633 -7923 7949 0
-7924 7949 0
-1633 -7924 7950 0
-7925 7950 0
-1633 -7925 7951 0
-7926 7951 0
-1633 -7926 7952 0
-7927 7952 0
-1633 -7927 7953 0
-7928 7953 0
-1633 -7928 7954 0
-7929 7954 0
-1633 -7929 7955 0
-7930 7955 0
-1633 -7930 7956 0
-7931 7956 0
-1633 -7931 7957 0
-7932 7957 0
-1633 -7932 7958 0
-7933 7958 0
-1633 -7933 7959 0
-7934 7959 0
-1633 -7934 0
-1634 7960 0
-7935 7960 0
-1634 -7935 7961 0
-7936 7961 0
-1634 -7936 7962 0
-7937 7962 0
-1634 -7937 7963 0
-7938 7963 0
-1634 -7938 7964 0
-7939 7964 0
-1634 -7939 7965 0
-7940 7965 0
-1634 -7940 7966 0
-7941 7966 0
-1634 -7941 7967 0
-7942 7967 0
-1634 -7942 7968 0
-7943 7968 0
-1634 -7943 7969 0
-7944 7969 0
-1634 -7944 7970 0
-7945 7970 0
-1634 -7945 7971 0
-7946 7971 0
-1634 -7946 7972 0
-7947 7972 0
-1634 -7947 7973 0
-7948 7973 0
-1634 -7948 7974 0
-7949 7974 0
-1634 -7949 7975 0
-7950 7975 0
-1634 -7950 7976 0
-7951 7976 0
-1634 -7951 7977 0
-7952 7977 0
-1634 -7952 7978 0
-7953 7978 0
-1634 -7953 7979 0
-7954 7979 0
-1634 -7954 7980 0
-7955 7980 0
-1634 -7955 7981 0
-7956 7981 0
-1634 -7956 7982 0
-7957 7982 0
-1634 -7957 7983 0
-7958 7983 0
-1634 -7958 7984 0
-7959 7984 0
-1634 -7959 0
-1634 7985 0
-7960 7985 0
-1634 -7960 7986 0
-7961 7986 0
-1634 -7961 7987 0
-7962 7987 0
-1634 -7962 7988 0
-7963 7988 0
-1634 -7963 7989 0
-7964 7989 0
-1634 -7964 7990 0
-7965 7990 0
-1634 -7965 7991 0
-7966 7991 0
-1634 -7966 7992 0
-7967 7992 0
-1634 -7967 7993 0
-7968 7993 0
-1634 -7968 7994 0
-7969 7994 0
-1634 -7969 7995 0
-7970 7995 0
-1634 -7970 7996 0
-7971 7996 0
-1634 -7971 7997 0
-7972 7997 0
-1634 -7972 7998 0
-7973 7998 0
-1634 -7973 7999 0
-7974 7999 0
-1634 -7974 8000 0
-7975 8000 0
-1634 -7975 8001 0
-7976 8001 0
-1634 -7976 8002 0
-7977 8002 0
-1634 -7977 8003 0
-7978 8003 0
-1634 -7978 8004 0
-7979 8004 0
-1634 -7979 8005 0
-7980 8005 0
-1634 -7980 8006 0
-7981 8006 0
-1634 -7981 8007 0
-7982 8007 0
-1634 -7982 8008 0
-7983 8008 0
-1634 -7983 8009 0
-7984 8009 0
-1634 -7984 0
-1644 8010 0
-7985 8010 0
-1644 -7985 8011 0
-7986 8011 0
-1644 -7986 8012 0
-7987 8012 0
-1644 -7987 8013 0
-7988 8013 0
-1644 -7988 8014 0
-7989 8014 0
-1644 -7989 8015 0
-7990 8015 0
-1644 -7990 8016 0
-7991 8016 0
-1644 -7991 8017 0
-7992 8017 0
-1644 -7992 8018 0
-7993 8018 0
-1644 -7993 8019 0
-7994 8019 0
-1644 -7994 8020 0
-7995 8020 0
-1644 -7995 8021 0
-7996 8021 0
-1644 -7996 8022 0
-7997 8022 0
-1644 -7997 8023 0
-7998 8023 0
-1644 -7998 8024 0
-7999 8024 0
-1644 -7999 8025 0
-8000 8025 0
-1644 -8000 8026 0
-8001 8026 0
-1644 -8001 8027 0
-8002 8027 0
-1644 -8002 8028 0
-8003 8028 0
-1644 -8003 8029 0
-8004 8029 0
-1644 -8004 8030 0
-8005 8030 0
-1644 -8005 8031 0
-8006 8031 0
-1644 -8006 8032 0
-8007 8032 0
-1644 -8007 8033 0
-8008 8033 0
-1644 -8008 8034 0
-8009 8034 0
-1644 -8009 0
-1644 8035 0
-8010 8035 0
-1644 -8010 8036 0
-8011 8036 0
-1644 -8011 8037 0
-8012 8037 0
-1644 -8012 8038 0
-8013 8038 0
-1644 -8013 8039 0
-8014 8039 0
-1644 -8014 8040 0
-8015 8040 0
-1644 -8015 8041 0
-8016 8041 0
-1644 -8016 8042 0
-8017 8042 0
-1644 -8017 8043 0
-8018 8043 0
-1644 -8018 8044 0
-8019 8044 0
-1644 -8019 8045 0
-8020 8045 0
-1644 -8020 8046 0
-8021 8046 0
-1644 -8021 8047 0
-8022 8047 0
-1644 -8022 8048 0
-8023 8048 0
-1644 -8023 8049 0
-8024 8049 0
-1644 -8024 8050 0
-8025 8050 0
-1644 -8025 8051 0
-8026 8051 0
-1644 -8026 8052 0
-8027 8052 0
-1644 -8027 8053 0
-8028 8053 0
-1644 -8028 8054 0
-8029 8054 0
-1644 -8029 8055 0
-8030 8055 0
-1644 -8030 8056 0
-8031 8056 0
-1644 -8031 8057 0
-8032 8057 0
-1644 -8032 8058 0
-8033 8058 0
-1644 -8033 8059 0
-8034 8059 0
-1644 -8034 0
-1644 8060 0
-8035 8060 0
-1644 -8035 8061 0
-8036 8061 0
-1644 -8036 8062 0
-8037 8062 0
-1644 -8037 8063 0
-8038 8063 0
-1644 -8038 8064 0
-8039 8064 0
-1644 -8039 8065 0
-8040 8065 0
-1644 -8040 8066 0
-8041 8066 0
-1644 -8041 8067 0
-8042 8067 0
-1644 -8042 8068 0
-8043 8068 0
-1644 -8043 8069 0
-8044 8069 0
-1644 -8044 8070 0
-8045 8070 0
-1644 -8045 8071 0
-8046 8071 0
-1644 -8046 8072 0
-8047 8072 0
-1644 -8047 8073 0
-8048 8073 0
-1644 -8048 8074 0
-8049 8074 0
-1644 -8049 8075 0
-8050 8075 0
-1644 -8050 8076 0
-8051 8076 0
-1644 -8051 8077 0
-8052 8077 0
-1644 -8052 8078 0
-8053 8078 0
-1644 -8053 8079 0
-8054 8079 0
-1644 -8054 8080 0
-8055 8080 0
-1644 -8055 8081 0
-8056 8081 0
-1644 -8056 8082 0
-8057 8082 0
-1644 -8057 8083 0
-8058 8083 0
-1644 -8058 8084 0
-8059 8084 0
-1644 -8059 0
-1645 8085 0
-8060 8085 0
-1645 -8060 8086 0
-8061 8086 0
-1645 -8061 8087 0
-8062 8087 0
-1645 -8062 8088 0
-8063 8088 0
-1645 -8063 8089 0
-8064 8089 0
-1645 -8064 8090 0
-8065 8090 0
-1645 -8065 8091 0
-8066 8091 0
-1645 -8066 8092 0
-8067 8092 0
-1645 -8067 8093 0
-8068 8093 0
-1645 -8068 8094 0
-8069 8094 0
-1645 -8069 8095 0
-8070 8095 0
-1645 -8070 8096 0
-8071 8096 0
-1645 -8071 8097 0
-8072 8097 0
-1645 -8072 8098 0
-8073 8098 0
-1645 -8073 8099 0
-8074 8099 0
-1645 -8074 8100 0
-8075 8100 0
-1645 -8075 8101 0
-8076 8101 0
-1645 -8076 8102 0
-8077 8102 0
-1645 -8077 8103 0
-8078 8103 0
-1645 -8078 8104 0
-8079 8104 0
-1645 -8079 8105 0
-8080 8105 0
-1645 -8080 8106 0
-8081 8106 0
-1645 -8081 8107 0
-8082 8107 0
-1645 -8082 8108 0
-8083 8108 0
-1645 -8083 8109 0
-8084 8109 0
-1645 -8084 0
-1645 8110 0
-8085 8110 0
-1645 -8085 8111 0
-8086 8111 0
-1645 -8086 8112 0
-8087 8112 0
-1645 -8087 8113 0
-8088 8113 0
-1645 -8088 8114 0
-8089 8114 0
-1645 -8089 8115 0
-8090 8115 0
-1645 -8090 8116 0
-8091 8116 0
-1645 -8091 8117 0
-8092 8117 0
-1645 -8092 8118 0
-8093 8118 0
-1645 -8093 8119 0
-8094 8119 0
-1645 -8094 8120 0
-8095 8120 0
-1645 -8095 8121 0
-8096 8121 0
-1645 -8096 8122 0
-8097 8122 0
-1645 -8097 8123 0
-8098 8123 0
-1645 -8098 8124 0
-8099 8124 0
-1645 -8099 8125 0
-8100 8125 0
-1645 -8100 8126 0
-8101 8126 0
-1645 -8101 8127 0
-8102 8127 0
-1645 -8102 8128 0
-8103 8128 0
-1645 -8103 8129 0
-8104 8129 0
-1645 -8104 8130 0
-8105 8130 0
-1645 -8105 8131 0
-8106 8131 0
-1645 -8106 8132 0
-8107 8132 0
-1645 -8107 8133 0
-8108 8133 0
-1645 -8108 8134 0
-8109 8134 0
-1645 -8109 0
-1655 8135 0
-8110 8135 0
-1655 -8110 8136 0
-8111 8136 0
-1655 -8111 8137 0
-8112 8137 0
-1655 -8112 8138 0
-8113 8138 0
-1655 -8113 8139 0
-8114 8139 0
-1655 -8114 8140 0
-8115 8140 0
-1655 -8115 8141 0
-8116 8141 0
-1655 -8116 8142 0
-8117 8142 0
-1655 -8117 8143 0
-8118 8143 0
-1655 -8118 8144 0
-8119 8144 0
-1655 -8119 8145 0
-8120 8145 0
-1655 -8120 8146 0
-8121 8146 0
-1655 -8121 8147 0
-8122 8147 0
-1655 -8122 8148 0
-8123 8148 0
-1655 -8123 8149 0
-8124 8149 0
-1655 -8124 8150 0
-8125 8150 0
-1655 -8125 8151 0
-8126 8151 0
-1655 -8126 8152 0
-8127 8152 0
-1655 -8127 8153 0
-8128 8153 0
-1655 -8128 8154 0
-8129 8154 0
-1655 -8129 8155 0
-8130 8155 0
-1655 -8130 8156 0
-8131 8156 0
-1655 -8131 8157 0
-8132 8157 0
-1655 -8132 8158 0
-8133 8158 0
-1655 -8133 8159 0
-8134 8159 0
-1655 -8134 0
-1655 8160 0
-8135 8160 0
-1655 -8135 8161 0
-8136 8161 0
-1655 -8136 8162 0
-8137 8162 0
-1655 -8137 8163 0
-8138 8163 0
-1655 -8138 8164 0
-8139 8164 0
-1655 -8139 8165 0
-8140 8165 0
-1655 -8140 8166 0
-8141 8166 0
-1655 -8141 8167 0
-8142 8167 0
-1655 -8142 8168 0
-8143 8168 0
-1655 -8143 8169 0
-8144 8169 0
-1655 -8144 8170 0
-8145 8170 0
-1655 -8145 8171 0
-8146 8171 0
-1655 -8146 8172 0
-8147 8172 0
-1655 -8147 8173 0
-8148 8173 0
-1655 -8148 8174 0
-8149 8174 0
-1655 -8149 8175 0
-8150 8175 0
-1655 -8150 8176 0
-8151 8176 0
-1655 -8151 8177 0
-8152 8177 0
-1655 -8152 8178 0
-8153 8178 0
-1655 -8153 8179 0
-8154 8179 0
-1655 -8154 8180 0
-8155 8180 0
-1655 -8155 8181 0
-8156 8181 0
-1655 -8156 8182 0
-8157 8182 0
-1655 -8157 8183 0
-8158 8183 0
-1655 -8158 8184 0
-8159 8184 0
-1655 -8159 0
-1655 8185 0
-8160 8185 0
-1655 -8160 8186 0
-8161 8186 0
-1655 -8161 8187 0
-8162 8187 0
-1655 -8162 8188 0
-8163 8188 0
-1655 -8163 8189 0
-8164 8189 0
-1655 -8164 8190 0
-8165 8190 0
-1655 -8165 8191 0
-8166 8191 0
-1655 -8166 8192 0
-8167 8192 0
-1655 -8167 8193 0
-8168 8193 0
-1655 -8168 8194 0
-8169 8194 0
-1655 -8169 8195 0
-8170 8195 0
-1655 -8170 8196 0
-8171 8196 0
-1655 -8171 8197 0
-8172 8197 0
-1655 -8172 8198 0
-8173 8198 0
-1655 -8173 8199 0
-8174 8199 0
-1655 -8174 8200 0
-8175 8200 0
-1655 -8175 8201 0
-8176 8201 0
-1655 -8176 8202 0
-8177 8202 0
-1655 -8177 8203 0
-8178 8203 0
-1655 -8178 8204 0
-8179 8204 0
-1655 -8179 8205 0
-8180 8205 0
-1655 -8180 8206 0
-8181 8206 0
-1655 -8181 8207 0
-8182 8207 0
-1655 -8182 8208 0
-8183 8208 0
-1655 -8183 8209 0
-8184 8209 0
-1655 -8184 0
-1656 8210 0
-8185 8210 0
-1656 -8185 8211 0
-8186 8211 0
-1656 -8186 8212 0
-8187 8212 0
-1656 -8187 8213 0
-8188 8213 0
-1656 -8188 8214 0
-8189 8214 0
-1656 -8189 8215 0
-8190 8215 0
-1656 -8190 8216 0
-8191 8216 0
-1656 -8191 8217 0
-8192 8217 0
-1656 -8192 8218 0
-8193 8218 0
-1656 -8193 8219 0
-8194 8219 0
-1656 -8194 8220 0
-8195 8220 0
-1656 -8195 8221 0
-8196 8221 0
-1656 -8196 8222 0
-8197 8222 0
-1656 -8197 8223 0
-8198 8223 0
-1656 -8198 8224 0
-8199 8224 0
-1656 -8199 8225 0
-8200 8225 0
-1656 -8200 8226 0
-8201 8226 0
-1656 -8201 8227 0
-8202 8227 0
-1656 -8202 8228 0
-8203 8228 0
-1656 -8203 8229 0
-8204 8229 0
-1656 -8204 8230 0
-8205 8230 0
-1656 -8205 8231 0
-8206 8231 0
-1656 -8206 8232 0
-8207 8232 0
-1656 -8207 8233 0
-8208 8233 0
-1656 -8208 8234 0
-8209 8234 0
-1656 -8209 0
-1656 8235 0
-8210 8235 0
-1656 -8210 8236 0
-8211 8236 0
-1656 -8211 8237 0
-8212 8237 0
-1656 -8212 8238 0
-8213 8238 0
-1656 -8213 8239 0
-8214 8239 0
-1656 -8214 8240 0
-8215 8240 0
-1656 -8215 8241 0
-8216 8241 0
-1656 -8216 8242 0
-8217 8242 0
-1656 -8217 8243 0
-8218 8243 0
-1656 -8218 8244 0
-8219 8244 0
-1656 -8219 8245 0
-8220 8245 0
-1656 -8220 8246 0
-8221 8246 0
-1656 -8221 8247 0
-8222 8247 0
-1656 -8222 8248 0
-8223 8248 0
-1656 -8223 8249 0
-8224 8249 0
-1656 -8224 8250 0
-8225 8250 0
-1656 -8225 8251 0
-8226 8251 0
-1656 -8226 8252 0
-8227 8252 0
-1656 -8227 8253 0
-8228 8253 0
-1656 -8228 8254 0
-8229 8254 0
-1656 -8229 8255 0
-8230 8255 0
-1656 -8230 8256 0
-8231 8256 0
-1656 -8231 8257 0
-8232 8257 0
-1656 -8232 8258 0
-8233 8258 0
-1656 -8233 8259 0
-8234 8259 0
-1656 -8234 0
-1666 8260 0
-8235 8260 0
-1666 -8235 8261 0
-8236 8261 0
-1666 -8236 8262 0
-8237 8262 0
-1666 -8237 8263 0
-8238 8263 0
-1666 -8238 8264 0
-8239 8264 0
-1666 -8239 8265 0
-8240 8265 0
-1666 -8240 8266 0
-8241 8266 0
-1666 -8241 8267 0
-8242 8267 0
-1666 -8242 8268 0
-8243 8268 0
-1666 -8243 8269 0
-8244 8269 0
-1666 -8244 8270 0
-8245 8270 0
-1666 -8245 8271 0
-8246 8271 0
-1666 -8246 8272 0
-8247 8272 0
-1666 -8247 8273 0
-8248 8273 0
-1666 -8248 8274 0
-8249 8274 0
-1666 -8249 8275 0
-8250 8275 0
-1666 -8250 8276 0
-8251 8276 0
-1666 -8251 8277 0
-8252 8277 0
-1666 -8252 8278 0
-8253 8278 0
-1666 -8253 8279 0
-8254 8279 0
-1666 -8254 8280 0
-8255 8280 0
-1666 -8255 8281 0
-8256 8281 0
-1666 -8256 8282 0
-8257 8282 0
-1666 -8257 8283 0
-8258 8283 0
-1666 -8258 8284 0
-8259 8284 0
-1666 -8259 0
-1666 8285 0
-8260 8285 0
-1666 -8260 8286 0
-8261 8286 0
-1666 -8261 8287 0
-8262 8287 0
-1666 -8262 8288 0
-8263 8288 0
-1666 -8263 8289 0
-8264 8289 0
-1666 -8264 8290 0
-8265 8290 0
-1666 -8265 8291 0
-8266 8291 0
-1666 -8266 8292 0
-8267 8292 0
-1666 -8267 8293 0
-8268 8293 0
-1666 -8268 8294 0
-8269 8294 0
-1666 -8269 8295 0
-8270 8295 0
-1666 -8270 8296 0
-8271 8296 0
-1666 -8271 8297 0
-8272 8297 0
-1666 -8272 8298 0
-8273 8298 0
-1666 -8273 8299 0
-8274 8299 0
-1666 -8274 8300 0
-8275 8300 0
-1666 -8275 8301 0
-8276 8301 0
-1666 -8276 8302 0
-8277 8302 0
-1666 -8277 8303 0
-8278 8303 0
-1666 -8278 8304 0
-8279 8304 0
-1666 -8279 8305 0
-8280 8305 0
-1666 -8280 8306 0
-8281 8306 0
-1666 -8281 8307 0
-8282 8307 0
-1666 -8282 8308 0
-8283 8308 0
-1666 -8283 8309 0
-8284 8309 0
-1666 -8284 0
-1666 8310 0
-8285 8310 0
-1666 -8285 8311 0
-8286 8311 0
-1666 -8286 8312 0
-8287 8312 0
-1666 -8287 8313 0
-8288 8313 0
-1666 -8288 8314 0
-8289 8314 0
-1666 -8289 8315 0
-8290 8315 0
-1666 -8290 8316 0
-8291 8316 0
-1666 -8291 8317 0
-8292 8317 0
-1666 -8292 8318 0
-8293 8318 0
-1666 -8293 8319 0
-8294 8319 0
-1666 -8294 8320 0
-8295 8320 0
-1666 -8295 8321 0
-8296 8321 0
-1666 -8296 8322 0
-8297 8322 0
-1666 -8297 8323 0
-8298 8323 0
-1666 -8298 8324 0
-8299 8324 0
-1666 -8299 8325 0
-8300 8325 0
-1666 -8300 8326 0
-8301 8326 0
-1666 -8301 8327 0
-8302 8327 0
-1666 -8302 8328 0
-8303 8328 0
-1666 -8303 8329 0
-8304 8329 0
-1666 -8304 8330 0
-8305 8330 0
-1666 -8305 8331 0
-8306 8331 0
-1666 -8306 8332 0
-8307 8332 0
-1666 -8307 8333 0
-8308 8333 0
-1666 -8308 8334 0
-8309 8334 0
-1666 -8309 0
-1667 8335 0
-8310 8335 0
-1667 -8310 8336 0
-8311 8336 0
-1667 -8311 8337 0
-8312 8337 0
-1667 -8312 8338 0
-8313 8338 0
-1667 -8313 8339 0
-8314 8339 0
-1667 -8314 8340 0
-8315 8340 0
-1667 -8315 8341 0
-8316 8341 0
-1667 -8316 8342 0
-8317 8342 0
-1667 -8317 8343 0
-8318 8343 0
-1667 -8318 8344 0
-8319 8344 0
-1667 -8319 8345 0
-8320 8345 0
-1667 -8320 8346 0
-8321 8346 0
-1667 -8321 8347 0
-8322 8347 0
-1667 -8322 8348 0
-8323 8348 0
-1667 -8323 8349 0
-8324 8349 0
-1667 -8324 8350 0
-8325 8350 0
-1667 -8325 8351 0
-8326 8351 0
-1667 -8326 8352 0
-8327 8352 0
-1667 -8327 8353 0
-8328 8353 0
-1667 -8328 8354 0
-8329 8354 0
-1667 -8329 8355 0
-8330 8355 0
-1667 -8330 8356 0
-8331 8356 0
-1667 -8331 8357 0
-8332 8357 0
-1667 -8332 8358 0
-8333 8358 0
-1667 -8333 8359 0
-8334 8359 0
-1667 -8334 0
-1667 8360 0
-8335 8360 0
-1667 -8335 8361 0
-8336 8361 0
-1667 -8336 8362 0
-8337 8362 0
-1667 -8337 8363 0
-8338 8363 0
-1667 -8338 8364 0
-8339 8364 0
-1667 -8339 8365 0
-8340 8365 0
-1667 -8340 8366 0
-8341 8366 0
-1667 -8341 8367 0
-8342 8367 0
-1667 -8342 8368 0
-8343 8368 0
-1667 -8343 8369 0
-8344 8369 0
-1667 -8344 8370 0
-8345 8370 0
-1667 -8345 8371 0
-8346 8371 0
-1667 -8346 8372 0
-8347 8372 0
-1667 -8347 8373 0
-8348 8373 0
-1667 -8348 8374 0
-8349 8374 0
-1667 -8349 8375 0
-8350 8375 0
-1667 -8350 8376 0
-8351 8376 0
-1667 -8351 8377 0
-8352 8377 0
-1667 -8352 8378 0
-8353 8378 0
-1667 -8353 8379 0
-8354 8379 0
-1667 -8354 8380 0
-8355 8380 0
-1667 -8355 8381 0
-8356 8381 0
-1667 -8356 8382 0
-8357 8382 0
-1667 -8357 8383 0
-8358 8383 0
-1667 -8358 8384 0
-8359 8384 0
-1667 -8359 0
-1677 8385 0
-8360 8385 0
-1677 -8360 8386 0
-8361 8386 0
-1677 -8361 8387 0
-8362 8387 0
-1677 -8362 8388 0
-8363 8388 0
-1677 -8363 8389 0
-8364 8389 0
-1677 -8364 8390 0
-8365 8390 0
-1677 -8365 8391 0
-8366 8391 0
-1677 -8366 8392 0
-8367 8392 0
-1677 -8367 8393 0
-8368 8393 0
-1677 -8368 8394 0
-8369 8394 0
-1677 -8369 8395 0
-8370 8395 0
-1677 -8370 8396 0
-8371 8396 0
-1677 -8371 8397 0
-8372 8397 0
-1677 -8372 8398 0
-8373 8398 0
-1677 -8373 8399 0
-8374 8399 0
-1677 -8374 8400 0
-8375 8400 0
-1677 -8375 8401 0
-8376 8401 0
-1677 -8376 8402 0
-8377 8402 0
-1677 -8377 8403 0
-8378 8403 0
-1677 -8378 8404 0
-8379 8404 0
-1677 -8379 8405 0
-8380 8405 0
-1677 -8380 8406 0
-8381 8406 0
-1677 -8381 8407 0
-8382 8407 0
-1677 -8382 8408 0
-8383 8408 0
-1677 -8383 8409 0
-8384 8409 0
-1677 -8384 0
-1677 8410 0
-8385 8410 0
-1677 -8385 8411 0
-8386 8411 0
-1677 -8386 8412 0
-8387 8412 0
-1677 -8387 8413 0
-8388 8413 0
-1677 -8388 8414 0
-8389 8414 0
-1677 -8389 8415 0
-8390 8415 0
-1677 -8390 8416 0
-8391 8416 0
-1677 -8391 8417 0
-8392 8417 0
-1677 -8392 8418 0
-8393 8418 0
-1677 -8393 8419 0
-8394 8419 0
-1677 -8394 8420 0
-8395 8420 0
-1677 -8395 8421 0
-8396 8421 0
-1677 -8396 8422 0
-8397 8422 0
-1677 -8397 8423 0
-8398 8423 0
-1677 -8398 8424 0
-8399 8424 0
-1677 -8399 8425 0
-8400 8425 0
-1677 -8400 8426 0
-8401 8426 0
-1677 -8401 8427 0
-8402 8427 0
-1677 -8402 8428 0
-8403 8428 0
-1677 -8403 8429 0
-8404 8429 0
-1677 -8404 8430 0
-8405 8430 0
-1677 -8405 8431 0
-8406 8431 0
-1677 -8406 8432 0
-8407 8432 0
-1677 -8407 8433 0
-8408 8433 0
-1677 -8408 8434 0
-8409 8434 0
-1677 -8409 0
-1677 8435 0
-8410 8435 0
-1677 -8410 8436 0
-8411 8436 0
-1677 -8411 8437 0
-8412 8437 0
-1677 -8412 8438 0
-8413 8438 0
-1677 -8413 8439 0
-8414 8439 0
-1677 -8414 8440 0
-8415 8440 0
-1677 -8415 8441 0
-8416 8441 0
-1677 -8416 8442 0
-8417 8442 0
-1677 -8417 8443 0
-8418 8443 0
-1677 -8418 8444 0
-8419 8444 0
-1677 -8419 8445 0
-8420 8445 0
-1677 -8420 8446 0
-8421 8446 0
-1677 -8421 8447 0
-8422 8447 0
-1677 -8422 8448 0
-8423 8448 0
-1677 -8423 8449 0
-8424 8449 0
-1677 -8424 8450 0
-8425 8450 0
-1677 -8425 8451 0
-8426 8451 0
-1677 -8426 8452 0
-8427 8452 0
-1677 -8427 8453 0
-8428 8453 0
-1677 -8428 8454 0
-8429 8454 0
-1677 -8429 8455 0
-8430 8455 0
-1677 -8430 8456 0
-8431 8456 0
-1677 -8431 8457 0
-8432 8457 0
-1677 -8432 8458 0
-8433 8458 0
-1677 -8433 8459 0
-8434 8459 0
-1677 -8434 0
-1678 8460 0
-8435 8460 0
-1678 -8435 8461 0
-8436 8461 0
-1678 -8436 8462 0
-8437 8462 0
-1678 -8437 8463 0
-8438 8463 0
-1678 -8438 8464 0
-8439 8464 0
-1678 -8439 8465 0
-8440 8465 0
-1678 -8440 8466 0
-8441 8466 0
-1678 -8441 8467 0
-8442 8467 0
-1678 -8442 8468 0
-8443 8468 0
-1678 -8443 8469 0
-8444 8469 0
-1678 -8444 8470 0
-8445 8470 0
-1678 -8445 8471 0
-8446 8471 0
-1678 -8446 8472 0
-8447 8472 0
-1678 -8447 8473 0
-8448 8473 0
-1678 -8448 8474 0
-8449 8474 0
-1678 -8449 8475 0
-8450 8475 0
-1678 -8450 8476 0
-8451 8476 0
-1678 -8451 8477 0
-8452 8477 0
-1678 -8452 8478 0
-8453 8478 0
-1678 -8453 8479 0
-8454 8479 0
-1678 -8454 8480 0
-8455 8480 0
-1678 -8455 8481 0
-8456 8481 0
-1678 -8456 8482 0
-8457 8482 0
-1678 -8457 8483 0
-8458 8483 0
-1678 -8458 8484 0
-8459 8484 0
-1678 -8459 0
-1678 8485 0
-8460 8485 0
-1678 -8460 8486 0
-8461 8486 0
-1678 -8461 8487 0
-8462 8487 0
-1678 -8462 8488 0
-8463 8488 0
-1678 -8463 8489 0
-8464 8489 0
-1678 -8464 8490 0
-8465 8490 0
-1678 -8465 8491 0
-8466 8491 0
-1678 -8466 8492 0
-8467 8492 0
-1678 -8467 8493 0
-8468 8493 0
-1678 -8468 8494 0
-8469 8494 0
-1678 -8469 8495 0
-8470 8495 0
-1678 -8470 8496 0
-8471 8496 0
-1678 -8471 8497 0
-8472 8497 0
-1678 -8472 8498 0
-8473 8498 0
-1678 -8473 8499 0
-8474 8499 0
-1678 -8474 8500 0
-8475 8500 0
-1678 -8475 8501 0
-8476 8501 0
-1678 -8476 8502 0
-8477 8502 0
-1678 -8477 8503 0
-8478 8503 0
-1678 -8478 8504 0
-8479 8504 0
-1678 -8479 8505 0
-8480 8505 0
-1678 -8480 8506 0
-8481 8506 0
-1678 -8481 8507 0
-8482 8507 0
-1678 -8482 8508 0
-8483 8508 0
-1678 -8483 8509 0
-8484 8509 0
-1678 -8484 0
-1688 8510 0
-8485 8510 0
-1688 -8485 8511 0
-8486 8511 0
-1688 -8486 8512 0
-8487 8512 0
-1688 -8487 8513 0
-8488 8513 0
-1688 -8488 8514 0
-8489 8514 0
-1688 -8489 8515 0
-8490 8515 0
-1688 -8490 8516 0
-8491 8516 0
-1688 -8491 8517 0
-8492 8517 0
-1688 -8492 8518 0
-8493 8518 0
-1688 -8493 8519 0
-8494 8519 0
-1688 -8494 8520 0
-8495 8520 0
-1688 -8495 8521 0
-8496 8521 0
-1688 -8496 8522 0
-8497 8522 0
-1688 -8497 8523 0
-8498 8523 0
-1688 -8498 8524 0
-8499 8524 0
-1688 -8499 8525 0
-8500 8525 0
-1688 -8500 8526 0
-8501 8526 0
-1688 -8501 8527 0
-8502 8527 0
-1688 -8502 8528 0
-8503 8528 0
-1688 -8503 8529 0
-8504 8529 0
-1688 -8504 8530 0
-8505 8530 0
-1688 -8505 8531 0
-8506 8531 0
-1688 -8506 8532 0
-8507 8532 0
-1688 -8507 8533 0
-8508 8533 0
-1688 -8508 8534 0
-8509 8534 0
-1688 -8509 0
-1688 8535 0
-8510 8535 0
-1688 -8510 8536 0
-8511 8536 0
-1688 -8511 8537 0
-8512 8537 0
-1688 -8512 8538 0
-8513 8538 0
-1688 -8513 8539 0
-8514 8539 0
-1688 -8514 8540 0
-8515 8540 0
-1688 -8515 8541 0
-8516 8541 0
-1688 -8516 8542 0
-8517 8542 0
-1688 -8517 8543 0
-8518 8543 0
-1688 -8518 8544 0
-8519 8544 0
-1688 -8519 8545 0
-8520 8545 0
-1688 -8520 8546 0
-8521 8546 0
-1688 -8521 8547 0
-8522 8547 0
-1688 -8522 8548 0
-8523 8548 0
-1688 -8523 8549 0
-8524 8549 0
-1688 -8524 8550 0
-8525 8550 0
-1688 -8525 8551 0
-8526 8551 0
-1688 -8526 8552 0
-8527 8552 0
-1688 -8527 8553 0
-8528 8553 0
-1688 -8528 8554 0
-8529 8554 0
-1688 -8529 8555 0
-8530 8555 0
-1688 -8530 8556 0
-8531 8556 0
-1688 -8531 8557 0
-8532 8557 0
-1688 -8532 8558 0
-8533 8558 0
-1688 -8533 8559 0
-8534 8559 0
-1688 -8534 0
-1688 8560 0
-8535 8560 0
-1688 -8535 8561 0
-8536 8561 0
-1688 -8536 8562 0
-8537 8562 0
-1688 -8537 8563 0
-8538 8563 0
-1688 -8538 8564 0
-8539 8564 0
-1688 -8539 8565 0
-8540 8565 0
-1688 -8540 8566 0
-8541 8566 0
-1688 -8541 8567 0
-8542 8567 0
-1688 -8542 8568 0
-8543 8568 0
-1688 -8543 8569 0
-8544 8569 0
-1688 -8544 8570 0
-8545 8570 0
-1688 -8545 8571 0
-8546 8571 0
-1688 -8546 8572 0
-8547 8572 0
-1688 -8547 8573 0
-8548 8573 0
-1688 -8548 8574 0
-8549 8574 0
-1688 -8549 8575 0
-8550 8575 0
-1688 -8550 8576 0
-8551 8576 0
-1688 -8551 8577 0
-8552 8577 0
-1688 -8552 8578 0
-8553 8578 0
-1688 -8553 8579 0
-8554 8579 0
-1688 -8554 8580 0
-8555 8580 0
-1688 -8555 8581 0
-8556 8581 0
-1688 -8556 8582 0
-8557 8582 0
-1688 -8557 8583 0
-8558 8583 0
-1688 -8558 8584 0
-8559 8584 0
-1688 -8559 0
-1689 8585 0
-8560 8585 0
-1689 -8560 8586 0
-8561 8586 0
-1689 -8561 8587 0
-8562 8587 0
-1689 -8562 8588 0
-8563 8588 0
-1689 -8563 8589 0
-8564 8589 0
-1689 -8564 8590 0
-8565 8590 0
-1689 -8565 8591 0
-8566 8591 0
-1689 -8566 8592 0
-8567 8592 0
-1689 -8567 8593 0
-8568 8593 0
-1689 -8568 8594 0
-8569 8594 0
-1689 -8569 8595 0
-8570 8595 0
-1689 -8570 8596 0
-8571 8596 0
-1689 -8571 8597 0
-8572 8597 0
-1689 -8572 8598 0
-8573 8598 0
-1689 -8573 8599 0
-8574 8599 0
-1689 -8574 8600 0
-8575 8600 0
-1689 -8575 8601 0
-8576 8601 0
-1689 -8576 8602 0
-8577 8602 0
-1689 -8577 8603 0
-8578 8603 0
-1689 -8578 8604 0
-8579 8604 0
-1689 -8579 8605 0
-8580 8605 0
-1689 -8580 8606 0
-8581 8606 0
-1689 -8581 8607 0
-8582 8607 0
-1689 -8582 8608 0
-8583 8608 0
-1689 -8583 8609 0
-8584 8609 0
-1689 -8584 0
-1689 8610 0
-8585 8610 0
-1689 -8585 8611 0
-8586 8611 0
-1689 -8586 8612 0
-8587 8612 0
-1689 -8587 8613 0
-8588 8613 0
-1689 -8588 8614 0
-8589 8614 0
-1689 -8589 8615 0
-8590 8615 0
-1689 -8590 8616 0
-8591 8616 0
-1689 -8591 8617 0
-8592 8617 0
-1689 -8592 8618 0
-8593 8618 0
-1689 -8593 8619 0
-8594 8619 0
-1689 -8594 8620 0
-8595 8620 0
-1689 -8595 8621 0
-8596 8621 0
-1689 -8596 8622 0
-8597 8622 0
-1689 -8597 8623 0
-8598 8623 0
-1689 -8598 8624 0
-8599 8624 0
-1689 -8599 8625 0
-8600 8625 0
-1689 -8600 8626 0
-8601 8626 0
-1689 -8601 8627 0
-8602 8627 0
-1689 -8602 8628 0
-8603 8628 0
-1689 -8603 8629 0
-8604 8629 0
-1689 -8604 8630 0
-8605 8630 0
-1689 -8605 8631 0
-8606 8631 0
-1689 -8606 8632 0
-8607 8632 0
-1689 -8607 8633 0
-8608 8633 0
-1689 -8608 8634 0
-8609 8634 0
-1689 -8609 0
-1699 8635 0
-8610 8635 0
-1699 -8610 8636 0
-8611 8636 0
-1699 -8611 8637 0
-8612 8637 0
-1699 -8612 8638 0
-8613 8638 0
-1699 -8613 8639 0
-8614 8639 0
-1699 -8614 8640 0
-8615 8640 0
-1699 -8615 8641 0
-8616 8641 0
-1699 -8616 8642 0
-8617 8642 0
-1699 -8617 8643 0
-8618 8643 0
-1699 -8618 8644 0
-8619 8644 0
-1699 -8619 8645 0
-8620 8645 0
-1699 -8620 8646 0
-8621 8646 0
-1699 -8621 8647 0
-8622 8647 0
-1699 -8622 8648 0
-8623 8648 0
-1699 -8623 8649 0
-8624 8649 0
-1699 -8624 8650 0
-8625 8650 0
-1699 -8625 8651 0
-8626 8651 0
-1699 -8626 8652 0
-8627 8652 0
-1699 -8627 8653 0
-8628 8653 0
-1699 -8628 8654 0
-8629 8654 0
-1699 -8629 8655 0
-8630 8655 0
-1699 -8630 8656 0
-8631 8656 0
-1699 -8631 8657 0
-8632 8657 0
-1699 -8632 8658 0
-8633 8658 0
-1699 -8633 8659 0
-8634 8659 0
-1699 -8634 0
-1699 8660 0
-8635 8660 0
-1699 -8635 8661 0
-8636 8661 0
-1699 -8636 8662 0
-8637 8662 0
-1699 -8637 8663 0
-8638 8663 0
-1699 -8638 8664 0
-8639 8664 0
-1699 -8639 8665 0
-8640 8665 0
-1699 -8640 8666 0
-8641 8666 0
-1699 -8641 8667 0
-8642 8667 0
-1699 -8642 8668 0
-8643 8668 0
-1699 -8643 8669 0
-8644 8669 0
-1699 -8644 8670 0
-8645 8670 0
-1699 -8645 8671 0
-8646 8671 0
-1699 -8646 8672 0
-8647 8672 0
-1699 -8647 8673 0
-8648 8673 0
-1699 -8648 8674 0
-8649 8674 0
-1699 -8649 8675 0
-8650 8675 0
-1699 -8650 8676 0
-8651 8676 0
-1699 -8651 8677 0
-8652 8677 0
-1699 -8652 8678 0
-8653 8678 0
-1699 -8653 8679 0
-8654 8679 0
-1699 -8654 8680 0
-8655 8680 0
-1699 -8655 8681 0
-8656 8681 0
-1699 -8656 8682 0
-8657 8682 0
-1699 -8657 8683 0
-8658 8683 0
-1699 -8658 8684 0
-8659 8684 0
-1699 -8659 0
-1699 8685 0
-8660 8685 0
-1699 -8660 8686 0
-8661 8686 0
-1699 -8661 8687 0
-8662 8687 0
-1699 -8662 8688 0
-8663 8688 0
-1699 -8663 8689 0
-8664 8689 0
-1699 -8664 8690 0
-8665 8690 0
-1699 -8665 8691 0
-8666 8691 0
-1699 -8666 8692 0
-8667 8692 0
-1699 -8667 8693 0
-8668 8693 0
-1699 -8668 8694 0
-8669 8694 0
-1699 -8669 8695 0
-8670 8695 0
-1699 -8670 8696 0
-8671 8696 0
-1699 -8671 8697 0
-8672 8697 0
-1699 -8672 8698 0
-8673 8698 0
-1699 -8673 8699 0
-8674 8699 0
-1699 -8674 8700 0
-8675 8700 0
-1699 -8675 8701 0
-8676 8701 0
-1699 -8676 8702 0
-8677 8702 0
-1699 -8677 8703 0
-8678 8703 0
-1699 -8678 8704 0
-8679 8704 0
-1699 -8679 8705 0
-8680 8705 0
-1699 -8680 8706 0
-8681 8706 0
-1699 -8681 8707 0
-8682 8707 0
-1699 -8682 8708 0
-8683 8708 0
-1699 -8683 8709 0
-8684 8709 0
-1699 -8684 0
-1700 8710 0
-8685 8710 0
-1700 -8685 8711 0
-8686 8711 0
-1700 -8686 8712 0
-8687 8712 0
-1700 -8687 8713 0
-8688 8713 0
-1700 -8688 8714 0
-8689 8714 0
-1700 -8689 8715 0
-8690 8715 0
-1700 -8690 8716 0
-8691 8716 0
-1700 -8691 8717 0
-8692 8717 0
-1700 -8692 8718 0
-8693 8718 0
-1700 -8693 8719 0
-8694 8719 0
-1700 -8694 8720 0
-8695 8720 0
-1700 -8695 8721 0
-8696 8721 0
-1700 -8696 8722 0
-8697 8722 0
-1700 -8697 8723 0
-8698 8723 0
-1700 -8698 8724 0
-8699 8724 0
-1700 -8699 8725 0
-8700 8725 0
-1700 -8700 8726 0
-8701 8726 0
-1700 -8701 8727 0
-8702 8727 0
-1700 -8702 8728 0
-8703 8728 0
-1700 -8703 8729 0
-8704 8729 0
-1700 -8704 8730 0
-8705 8730 0
-1700 -8705 8731 0
-8706 8731 0
-1700 -8706 8732 0
-8707 8732 0
-1700 -8707 8733 0
-8708 8733 0
-1700 -8708 8734 0
-8709 8734 0
-1700 -8709 0
-1700 8735 0
-8710 8735 0
-1700 -8710 8736 0
-8711 8736 0
-1700 -8711 8737 0
-8712 8737 0
-1700 -8712 8738 0
-8713 8738 0
-1700 -8713 8739 0
-8714 8739 0
-1700 -8714 8740 0
-8715 8740 0
-1700 -8715 8741 0
-8716 8741 0
-1700 -8716 8742 0
-8717 8742 0
-1700 -8717 8743 0
-8718 8743 0
-1700 -8718 8744 0
-8719 8744 0
-1700 -8719 8745 0
-8720 8745 0
-1700 -8720 8746 0
-8721 8746 0
-1700 -8721 8747 0
-8722 8747 0
-1700 -8722 8748 0
-8723 8748 0
-1700 -8723 8749 0
-8724 8749 0
-1700 -8724 8750 0
-8725 8750 0
-1700 -8725 8751 0
-8726 8751 0
-1700 -8726 8752 0
-8727 8752 0
-1700 -8727 8753 0
-8728 8753 0
-1700 -8728 8754 0
-8729 8754 0
-1700 -8729 8755 0
-8730 8755 0
-1700 -8730 8756 0
-8731 8756 0
-1700 -8731 8757 0
-8732 8757 0
-1700 -8732 8758 0
-8733 8758 0
-1700 -8733 8759 0
-8734 8759 0
-1700 -8734 0
-1710 8760 0
-8735 8760 0
-1710 -8735 8761 0
-8736 8761 0
-1710 -8736 8762 0
-8737 8762 0
-1710 -8737 8763 0
-8738 8763 0
-1710 -8738 8764 0
-8739 8764 0
-1710 -8739 8765 0
-8740 8765 0
-1710 -8740 8766 0
-8741 8766 0
-1710 -8741 8767 0
-8742 8767 0
-1710 -8742 8768 0
-8743 8768 0
-1710 -8743 8769 0
-8744 8769 0
-1710 -8744 8770 0
-8745 8770 0
-1710 -8745 8771 0
-8746 8771 0
-1710 -8746 8772 0
-8747 8772 0
-1710 -8747 8773 0
-8748 8773 0
-1710 -8748 8774 0
-8749 8774 0
-1710 -8749 8775 0
-8750 8775 0
-1710 -8750 8776 0
-8751 8776 0
-1710 -8751 8777 0
-8752 8777 0
-1710 -8752 8778 0
-8753 8778 0
-1710 -8753 8779 0
-8754 8779 0
-1710 -8754 8780 0
-8755 8780 0
-1710 -8755 8781 0
-8756 8781 0
-1710 -8756 8782 0
-8757 8782 0
-1710 -8757 8783 0
-8758 8783 0
-1710 -8758 8784 0
-8759 8784 0
-1710 -8759 0
-1710 8785 0
-8760 8785 0
-1710 -8760 8786 0
-8761 8786 0
-1710 -8761 8787 0
-8762 8787 0
-1710 -8762 8788 0
-8763 8788 0
-1710 -8763 8789 0
-8764 8789 0
-1710 -8764 8790 0
-8765 8790 0
-1710 -8765 8791 0
-8766 8791 0
-1710 -8766 8792 0
-8767 8792 0
-1710 -8767 8793 0
-8768 8793 0
-1710 -8768 8794 0
-8769 8794 0
-1710 -8769 8795 0
-8770 8795 0
-1710 -8770 8796 0
-8771 8796 0
-1710 -8771 8797 0
-8772 8797 0
-1710 -8772 8798 0
-8773 8798 0
-1710 -8773 8799 0
-8774 8799 0
-1710 -8774 8800 0
-8775 8800 0
-1710 -8775 8801 0
-8776 8801 0
-1710 -8776 8802 0
-8777 8802 0
-1710 -8777 8803 0
-8778 8803 0
-1710 -8778 8804 0
-8779 8804 0
-1710 -8779 8805 0
-8780 8805 0
-1710 -8780 8806 0
-8781 8806 0
-1710 -8781 8807 0
-8782 8807 0
-1710 -8782 8808 0
-8783 8808 0
-1710 -8783 8809 0
-8784 8809 0
-1710 -8784 0
-1710 8810 0
-8785 8810 0
-1710 -8785 8811 0
-8786 8811 0
-1710 -8786 8812 0
-8787 8812 0
-1710 -8787 8813 0
-8788 8813 0
-1710 -8788 8814 0
-8789 8814 0
-1710 -8789 8815 0
-8790 8815 0
-1710 -8790 8816 0
-8791 8816 0
-1710 -8791 8817 0
-8792 8817 0
-1710 -8792 8818 0
-8793 8818 0
-1710 -8793 8819 0
-8794 8819 0
-1710 -8794 8820 0
-8795 8820 0
-1710 -8795 8821 0
-8796 8821 0
-1710 -8796 8822 0
-8797 8822 0
-1710 -8797 8823 0
-8798 8823 0
-1710 -8798 8824 0
-8799 8824 0
-1710 -8799 8825 0
-8800 8825 0
-1710 -8800 8826 0
-8801 8826 0
-1710 -8801 8827 0
-8802 8827 0
-1710 -8802 8828 0
-8803 8828 0
-1710 -8803 8829 0
-8804 8829 0
-1710 -8804 8830 0
-8805 8830 0
-1710 -8805 8831 0
-8806 8831 0
-1710 -8806 8832 0
-8807 8832 0
-1710 -8807 8833 0
-8808 8833 0
-1710 -8808 8834 0
-8809 8834 0
-1710 -8809 0
-1711 8835 0
-8810 8835 0
-1711 -8810 8836 0
-8811 8836 0
-1711 -8811 8837 0
-8812 8837 0
-1711 -8812 8838 0
-8813 8838 0
-1711 -8813 8839 0
-8814 8839 0
-1711 -8814 8840 0
-8815 8840 0
-1711 -8815 8841 0
-8816 8841 0
-1711 -8816 8842 0
-8817 8842 0
-1711 -8817 8843 0
-8818 8843 0
-1711 -8818 8844 0
-8819 8844 0
-1711 -8819 8845 0
-8820 8845 0
-1711 -8820 8846 0
-8821 8846 0
-1711 -8821 8847 0
-8822 8847 0
-1711 -8822 8848 0
-8823 8848 0
-1711 -8823 8849 0
-8824 8849 0
-1711 -8824 8850 0
-8825 8850 0
-1711 -8825 8851 0
-8826 8851 0
-1711 -8826 8852 0
-8827 8852 0
-1711 -8827 8853 0
-8828 8853 0
-1711 -8828 8854 0
-8829 8854 0
-1711 -8829 8855 0
-8830 8855 0
-1711 -8830 8856 0
-8831 8856 0
-1711 -8831 8857 0
-8832 8857 0
-1711 -8832 8858 0
-8833 8858 0
-1711 -8833 8859 0
-8834 8859 0
-1711 -8834 0
-1711 8860 0
-8835 8860 0
-1711 -8835 8861 0
-8836 8861 0
-1711 -8836 8862 0
-8837 8862 0
-1711 -8837 8863 0
-8838 8863 0
-1711 -8838 8864 0
-8839 8864 0
-1711 -8839 8865 0
-8840 8865 0
-1711 -8840 8866 0
-8841 8866 0
-1711 -8841 8867 0
-8842 8867 0
-1711 -8842 8868 0
-8843 8868 0
-1711 -8843 8869 0
-8844 8869 0
-1711 -8844 8870 0
-8845 8870 0
-1711 -8845 8871 0
-8846 8871 0
-1711 -8846 8872 0
-8847 8872 0
-1711 -8847 8873 0
-8848 8873 0
-1711 -8848 8874 0
-8849 8874 0
-1711 -8849 8875 0
-8850 8875 0
-1711 -8850 8876 0
-8851 8876 0
-1711 -8851 8877 0
-8852 8877 0
-1711 -8852 8878 0
-8853 8878 0
-1711 -8853 8879 0
-8854 8879 0
-1711 -8854 8880 0
-8855 8880 0
-1711 -8855 8881 0
-8856 8881 0
-1711 -8856 8882 0
-8857 8882 0
-1711 -8857 8883 0
-8858 8883 0
-1711 -8858 8884 0
-8859 8884 0
-1711 -8859 0
-1721 8885 0
-8860 8885 0
-1721 -8860 8886 0
-8861 8886 0
-1721 -8861 8887 0
-8862 8887 0
-1721 -8862 8888 0
-8863 8888 0
-1721 -8863 8889 0
-8864 8889 0
-1721 -8864 8890 0
-8865 8890 0
-1721 -8865 8891 0
-8866 8891 0
-1721 -8866 8892 0
-8867 8892 0
-1721 -8867 8893 0
-8868 8893 0
-1721 -8868 8894 0
-8869 8894 0
-1721 -8869 8895 0
-8870 8895 0
-1721 -8870 8896 0
-8871 8896 0
-1721 -8871 8897 0
-8872 8897 0
-1721 -8872 8898 0
-8873 8898 0
-1721 -8873 8899 0
-8874 8899 0
-1721 -8874 8900 0
-8875 8900 0
-1721 -8875 8901 0
-8876 8901 0
-1721 -8876 8902 0
-8877 8902 0
-1721 -8877 8903 0
-8878 8903 0
-1721 -8878 8904 0
-8879 8904 0
-1721 -8879 8905 0
-8880 8905 0
-1721 -8880 8906 0
-8881 8906 0
-1721 -8881 8907 0
-8882 8907 0
-1721 -8882 8908 0
-8883 8908 0
-1721 -8883 8909 0
-8884 8909 0
-1721 -8884 0
-1721 8910 0
-8885 8910 0
-1721 -8885 8911 0
-8886 8911 0
-1721 -8886 8912 0
-8887 8912 0
-1721 -8887 8913 0
-8888 8913 0
-1721 -8888 8914 0
-8889 8914 0
-1721 -8889 8915 0
-8890 8915 0
-1721 -8890 8916 0
-8891 8916 0
-1721 -8891 8917 0
-8892 8917 0
-1721 -8892 8918 0
-8893 8918 0
-1721 -8893 8919 0
-8894 8919 0
-1721 -8894 8920 0
-8895 8920 0
-1721 -8895 8921 0
-8896 8921 0
-1721 -8896 8922 0
-8897 8922 0
-1721 -8897 8923 0
-8898 8923 0
-1721 -8898 8924 0
-8899 8924 0
-1721 -8899 8925 0
-8900 8925 0
-1721 -8900 8926 0
-8901 8926 0
-1721 -8901 8927 0
-8902 8927 0
-1721 -8902 8928 0
-8903 8928 0
-1721 -8903 8929 0
-8904 8929 0
-1721 -8904 8930 0
-8905 8930 0
-1721 -8905 8931 0
-8906 8931 0
-1721 -8906 8932 0
-8907 8932 0
-1721 -8907 8933 0
-8908 8933 0
-1721 -8908 8934 0
-8909 8934 0
-1721 -8909 0
-1721 8935 0
-8910 8935 0
-1721 -8910 8936 0
-8911 8936 0
-1721 -8911 8937 0
-8912 8937 0
-1721 -8912 8938 0
-8913 8938 0
-1721 -8913 8939 0
-8914 8939 0
-1721 -8914 8940 0
-8915 8940 0
-1721 -8915 8941 0
-8916 8941 0
-1721 -8916 8942 0
-8917 8942 0
-1721 -8917 8943 0
-8918 8943 0
-1721 -8918 8944 0
-8919 8944 0
-1721 -8919 8945 0
-8920 8945 0
-1721 -8920 8946 0
-8921 8946 0
-1721 -8921 8947 0
-8922 8947 0
-1721 -8922 8948 0
-8923 8948 0
-1721 -8923 8949 0
-8924 8949 0
-1721 -8924 8950 0
-8925 8950 0
-1721 -8925 8951 0
-8926 8951 0
-1721 -8926 8952 0
-8927 8952 0
-1721 -8927 8953 0
-8928 8953 0
-1721 -8928 8954 0
-8929 8954 0
-1721 -8929 8955 0
-8930 8955 0
-1721 -8930 8956 0
-8931 8956 0
-1721 -8931 8957 0
-8932 8957 0
-1721 -8932 8958 0
-8933 8958 0
-1721 -8933 8959 0
-8934 8959 0
-1721 -8934 0
-1722 8960 0
-8935 8960 0
-1722 -8935 8961 0
-8936 8961 0
-1722 -8936 8962 0
-8937 8962 0
-1722 -8937 8963 0
-8938 8963 0
-1722 -8938 8964 0
-8939 8964 0
-1722 -8939 8965 0
-8940 8965 0
-1722 -8940 8966 0
-8941 8966 0
-1722 -8941 8967 0
-8942 8967 0
-1722 -8942 8968 0
-8943 8968 0
-1722 -8943 8969 0
-8944 8969 0
-1722 -8944 8970 0
-8945 8970 0
-1722 -8945 8971 0
-8946 8971 0
-1722 -8946 8972 0
-8947 8972 0
-1722 -8947 8973 0
-8948 8973 0
-1722 -8948 8974 0
-8949 8974 0
-1722 -8949 8975 0
-8950 8975 0
-1722 -8950 8976 0
-8951 8976 0
-1722 -8951 8977 0
-8952 8977 0
-1722 -8952 8978 0
-8953 8978 0
-1722 -8953 8979 0
-8954 8979 0
-1722 -8954 8980 0
-8955 8980 0
-1722 -8955 8981 0
-8956 8981 0
-1722 -8956 8982 0
-8957 8982 0
-1722 -8957 8983 0
-8958 8983 0
-1722 -8958 8984 0
-8959 8984 0
-1722 -8959 0
-1722 8985 0
-8960 8985 0
-1722 -8960 8986 0
-8961 8986 0
-1722 -8961 8987 0
-8962 8987 0
-1722 -8962 8988 0
-8963 8988 0
-1722 -8963 8989 0
-8964 8989 0
-1722 -8964 8990 0
-8965 8990 0
-1722 -8965 8991 0
-8966 8991 0
-1722 -8966 8992 0
-8967 8992 0
-1722 -8967 8993 0
-8968 8993 0
-1722 -8968 8994 0
-8969 8994 0
-1722 -8969 8995 0
-8970 8995 0
-1722 -8970 8996 0
-8971 8996 0
-1722 -8971 8997 0
-8972 8997 0
-1722 -8972 8998 0
-8973 8998 0
-1722 -8973 8999 0
-8974 8999 0
-1722 -8974 9000 0
-8975 9000 0
-1722 -8975 9001 0
-8976 9001 0
-1722 -8976 9002 0
-8977 9002 0
-1722 -8977 9003 0
-8978 9003 0
-1722 -8978 9004 0
-8979 9004 0
-1722 -8979 9005 0
-8980 9005 0
-1722 -8980 9006 0
-8981 9006 0
-1722 -8981 9007 0
-8982 9007 0
-1722 -8982 9008 0
-8983 9008 0
-1722 -8983 9009 0
-8984 9009 0
-1722 -8984 0
-1732 9010 0
-8985 9010 0
-1732 -8985 9011 0
-8986 9011 0
-1732 -8986 9012 0
-8987 9012 0
-1732 -8987 9013 0
-8988 9013 0
-1732 -8988 9014 0
-8989 9014 0
-1732 -8989 9015 0
-8990 9015 0
-1732 -8990 9016 0
-8991 9016 0
-1732 -8991 9017 0
-8992 9017 0
-1732 -8992 9018 0
-8993 9018 0
-1732 -8993 9019 0
-8994 9019 0
-1732 -8994 9020 0
-8995 9020 0
-1732 -8995 9021 0
-8996 9021 0
-1732 -8996 9022 0
-8997 9022 0
-1732 -8997 9023 0
-8998 9023 0
-1732 -8998 9024 0
-8999 9024 0
-1732 -8999 9025 0
-9000 9025 0
-1732 -9000 9026 0
-9001 9026 0
-1732 -9001 9027 0
-9002 9027 0
-1732 -9002 9028 0
-9003 9028 0
-1732 -9003 9029 0
-9004 9029 0
-1732 -9004 9030 0
-9005 9030 0
-1732 -9005 9031 0
-9006 9031 0
-1732 -9006 9032 0
-9007 9032 0
-1732 -9007 9033 0
-9008 9033 0
-1732 -9008 9034 0
-9009 9034 0
-1732 -9009 0
-1732 9035 0
-9010 9035 0
-1732 -9010 9036 0
-9011 9036 0
-1732 -9011 9037 0
-9012 9037 0
-1732 -9012 9038 0
-9013 9038 0
-1732 -9013 9039 0
-9014 9039 0
-1732 -9014 9040 0
-9015 9040 0
-1732 -9015 9041 0
-9016 9041 0
-1732 -9016 9042 0
-9017 9042 0
-1732 -9017 9043 0
-9018 9043 0
-1732 -9018 9044 0
-9019 9044 0
-1732 -9019 9045 0
-9020 9045 0
-1732 -9020 9046 0
-9021 9046 0
-1732 -9021 9047 0
-9022 9047 0
-1732 -9022 9048 0
-9023 9048 0
-1732 -9023 9049 0
-9024 9049 0
-1732 -9024 9050 0
-9025 9050 0
-1732 -9025 9051 0
-9026 9051 0
-1732 -9026 9052 0
-9027 9052 0
-1732 -9027 9053 0
-9028 9053 0
-1732 -9028 9054 0
-9029 9054 0
-1732 -9029 9055 0
-9030 9055 0
-1732 -9030 9056 0
-9031 9056 0
-1732 -9031 9057 0
-9032 9057 0
-1732 -9032 9058 0
-9033 9058 0
-1732 -9033 9059 0
-9034 9059 0
-1732 -9034 0
-1732 9060 0
-9035 9060 0
-1732 -9035 9061 0
-9036 9061 0
-1732 -9036 9062 0
-9037 9062 0
-1732 -9037 9063 0
-9038 9063 0
-1732 -9038 9064 0
-9039 9064 0
-1732 -9039 9065 0
-9040 9065 0
-1732 -9040 9066 0
-9041 9066 0
-1732 -9041 9067 0
-9042 9067 0
-1732 -9042 9068 0
-9043 9068 0
-1732 -9043 9069 0
-9044 9069 0
-1732 -9044 9070 0
-9045 9070 0
-1732 -9045 9071 0
-9046 9071 0
-1732 -9046 9072 0
-9047 9072 0
-1732 -9047 9073 0
-9048 9073 0
-1732 -9048 9074 0
-9049 9074 0
-1732 -9049 9075 0
-9050 9075 0
-1732 -9050 9076 0
-9051 9076 0
-1732 -9051 9077 0
-9052 9077 0
-1732 -9052 9078 0
-9053 9078 0
-1732 -9053 9079 0
-9054 9079 0
-1732 -9054 9080 0
-9055 9080 0
-1732 -9055 9081 0
-9056 9081 0
-1732 -9056 9082 0
-9057 9082 0
-1732 -9057 9083 0
-9058 9083 0
-1732 -9058 9084 0
-9059 9084 0
-1732 -9059 0
-1733 9085 0
-9060 9085 0
-1733 -9060 9086 0
-9061 9086 0
-1733 -9061 9087 0
-9062 9087 0
-1733 -9062 9088 0
-9063 9088 0
-1733 -9063 9089 0
-9064 9089 0
-1733 -9064 9090 0
-9065 9090 0
-1733 -9065 9091 0
-9066 9091 0
-1733 -9066 9092 0
-9067 9092 0
-1733 -9067 9093 0
-9068 9093 0
-1733 -9068 9094 0
-9069 9094 0
-1733 -9069 9095 0
-9070 9095 0
-1733 -9070 9096 0
-9071 9096 0
-1733 -9071 9097 0
-9072 9097 0
-1733 -9072 9098 0
-9073 9098 0
-1733 -9073 9099 0
-9074 9099 0
-1733 -9074 9100 0
-9075 9100 0
-1733 -9075 9101 0
-9076 9101 0
-1733 -9076 9102 0
-9077 9102 0
-1733 -9077 9103 0
-9078 9103 0
-1733 -9078 9104 0
-9079 9104 0
-1733 -9079 9105 0
-9080 9105 0
-1733 -9080 9106 0
-9081 9106 0
-1733 -9081 9107 0
-9082 9107 0
-1733 -9082 9108 0
-9083 9108 0
-1733 -9083 9109 0
-9084 9109 0
-1733 -9084 0
-1733 9110 0
-9085 9110 0
-1733 -9085 9111 0
-9086 9111 0
-1733 -9086 9112 0
-9087 9112 0
-1733 -9087 9113 0
-9088 9113 0
-1733 -9088 9114 0
-9089 9114 0
-1733 -9089 9115 0
-9090 9115 0
-1733 -9090 9116 0
-9091 9116 0
-1733 -9091 9117 0
-9092 9117 0
-1733 -9092 9118 0
-9093 9118 0
-1733 -9093 9119 0
-9094 9119 0
-1733 -9094 9120 0
-9095 9120 0
-1733 -9095 9121 0
-9096 9121 0
-1733 -9096 9122 0
-9097 9122 0
-1733 -9097 9123 0
-9098 9123 0
-1733 -9098 9124 0
-9099 9124 0
-1733 -9099 9125 0
-9100 9125 0
-1733 -9100 9126 0
-9101 9126 0
-1733 -9101 9127 0
-9102 9127 0
-1733 -9102 9128 0
-9103 9128 0
-1733 -9103 9129 0
-9104 9129 0
-1733 -9104 9130 0
-9105 9130 0
-1733 -9105 9131 0
-9106 9131 0
-1733 -9106 9132 0
-9107 9132 0
-1733 -9107 9133 0
-9108 9133 0
-1733 -9108 9134 0
-9109 9134 0
-1733 -9109 0
-1743 9135 0
-9110 9135 0
-1743 -9110 9136 0
-9111 9136 0
-1743 -9111 9137 0
-9112 9137 0
-1743 -9112 9138 0
-9113 9138 0
-1743 -9113 9139 0
-9114 9139 0
-1743 -9114 9140 0
-9115 9140 0
-1743 -9115 9141 0
-9116 9141 0
-1743 -9116 9142 0
-9117 9142 0
-1743 -9117 9143 0
-9118 9143 0
-1743 -9118 9144 0
-9119 9144 0
-1743 -9119 9145 0
-9120 9145 0
-1743 -9120 9146 0
-9121 9146 0
-1743 -9121 9147 0
-9122 9147 0
-1743 -9122 9148 0
-9123 9148 0
-1743 -9123 9149 0
-9124 9149 0
-1743 -9124 9150 0
-9125 9150 0
-1743 -9125 9151 0
-9126 9151 0
-1743 -9126 9152 0
-9127 9152 0
-1743 -9127 9153 0
-9128 9153 0
-1743 -9128 9154 0
-9129 9154 0
-1743 -9129 9155 0
-9130 9155 0
-1743 -9130 9156 0
-9131 9156 0
-1743 -9131 9157 0
-9132 9157 0
-1743 -9132 9158 0
-9133 9158 0
-1743 -9133 9159 0
-9134 9159 0
-1743 -9134 0
-1743 9160 0
-9135 9160 0
-1743 -9135 9161 0
-9136 9161 0
-1743 -9136 9162 0
-9137 9162 0
-1743 -9137 9163 0
-9138 9163 0
-1743 -9138 9164 0
-9139 9164 0
-1743 -9139 9165 0
-9140 9165 0
-1743 -9140 9166 0
-9141 9166 0
-1743 -9141 9167 0
-9142 9167 0
-1743 -9142 9168 0
-9143 9168 0
-1743 -9143 9169 0
-9144 9169 0
-1743 -9144 9170 0
-9145 9170 0
-1743 -9145 9171 0
-9146 9171 0
-1743 -9146 9172 0
-9147 9172 0
-1743 -9147 9173 0
-9148 9173 0
-1743 -9148 9174 0
-9149 9174 0
-1743 -9149 9175 0
-9150 9175 0
-1743 -9150 9176 0
-9151 9176 0
-1743 -9151 9177 0
-9152 9177 0
-1743 -9152 9178 0
-9153 9178 0
-1743 -9153 9179 0
-9154 9179 0
-1743 -9154 9180 0
-9155 9180 0
-1743 -9155 9181 0
-9156 9181 0
-1743 -9156 9182 0
-9157 9182 0
-1743 -9157 9183 0
-9158 9183 0
-1743 -9158 9184 0
-9159 9184 0
-1743 -9159 0
-1743 9185 0
-9160 9185 0
-1743 -9160 9186 0
-9161 9186 0
-1743 -9161 9187 0
-9162 9187 0
-1743 -9162 9188 0
-9163 9188 0
-1743 -9163 9189 0
-9164 9189 0
-1743 -9164 9190 0
-9165 9190 0
-1743 -9165 9191 0
-9166 9191 0
-1743 -9166 9192 0
-9167 9192 0
-1743 -9167 9193 0
-9168 9193 0
-1743 -9168 9194 0
-9169 9194 0
-1743 -9169 9195 0
-9170 9195 0
-1743 -9170 9196 0
-9171 9196 0
-1743 -9171 9197 0
-9172 9197 0
-1743 -9172 9198 0
-9173 9198 0
-1743 -9173 9199 0
-9174 9199 0
-1743 -9174 9200 0
-9175 9200 0
-1743 -9175 9201 0
-9176 9201 0
-1743 -9176 9202 0
-9177 9202 0
-1743 -9177 9203 0
-9178 9203 0
-1743 -9178 9204 0
-9179 9204 0
-1743 -9179 9205 0
-9180 9205 0
-1743 -9180 9206 0
-9181 9206 0
-1743 -9181 9207 0
-9182 9207 0
-1743 -9182 9208 0
-9183 9208 0
-1743 -9183 9209 0
-9184 9209 0
-1743 -9184 0
-1744 9210 0
-9185 9210 0
-1744 -9185 9211 0
-9186 9211 0
-1744 -9186 9212 0
-9187 9212 0
-1744 -9187 9213 0
-9188 9213 0
-1744 -9188 9214 0
-9189 9214 0
-1744 -9189 9215 0
-9190 9215 0
-1744 -9190 9216 0
-9191 9216 0
-1744 -9191 9217 0
-9192 9217 0
-1744 -9192 9218 0
-9193 9218 0
-1744 -9193 9219 0
-9194 9219 0
-1744 -9194 9220 0
-9195 9220 0
-1744 -9195 9221 0
-9196 9221 0
-1744 -9196 9222 0
-9197 9222 0
-1744 -9197 9223 0
-9198 9223 0
-1744 -9198 9224 0
-9199 9224 0
-1744 -9199 9225 0
-9200 9225 0
-1744 -9200 9226 0
-9201 9226 0
-1744 -9201 9227 0
-9202 9227 0
-1744 -9202 9228 0
-9203 9228 0
-1744 -9203 9229 0
-9204 9229 0
-1744 -9204 9230 0
-9205 9230 0
-1744 -9205 9231 0
-9206 9231 0
-1744 -9206 9232 0
-9207 9232 0
-1744 -9207 9233 0
-9208 9233 0
-1744 -9208 9234 0
-9209 9234 0
-1744 -9209 0
-1744 9235 0
-9210 9235 0
-1744 -9210 9236 0
-9211 9236 0
-1744 -9211 9237 0
-9212 9237 0
-1744 -9212 9238 0
-9213 9238 0
-1744 -9213 9239 0
-9214 9239 0
-1744 -9214 9240 0
-9215 9240 0
-1744 -9215 9241 0
-9216 9241 0
-1744 -9216 9242 0
-9217 9242 0
-1744 -9217 9243 0
-9218 9243 0
-1744 -9218 9244 0
-9219 9244 0
-1744 -9219 9245 0
-9220 9245 0
-1744 -9220 9246 0
-9221 9246 0
-1744 -9221 9247 0
-9222 9247 0
-1744 -9222 9248 0
-9223 9248 0
-1744 -9223 9249 0
-9224 9249 0
-1744 -9224 9250 0
-9225 9250 0
-1744 -9225 9251 0
-9226 9251 0
-1744 -9226 9252 0
-9227 9252 0
-1744 -9227 9253 0
-9228 9253 0
-1744 -9228 9254 0
-9229 9254 0
-1744 -9229 9255 0
-9230 9255 0
-1744 -9230 9256 0
-9231 9256 0
-1744 -9231 9257 0
-9232 9257 0
-1744 -9232 9258 0
-9233 9258 0
-1744 -9233 9259 0
-9234 9259 0
-1744 -9234 0
-1754 9260 0
-9235 9260 0
-1754 -9235 9261 0
-9236 9261 0
-1754 -9236 9262 0
-9237 9262 0
-1754 -9237 9263 0
-9238 9263 0
-1754 -9238 9264 0
-9239 9264 0
-1754 -9239 9265 0
-9240 9265 0
-1754 -9240 9266 0
-9241 9266 0
-1754 -9241 9267 0
-9242 9267 0
-1754 -9242 9268 0
-9243 9268 0
-1754 -9243 9269 0
-9244 9269 0
-1754 -9244 9270 0
-9245 9270 0
-1754 -9245 9271 0
-9246 9271 0
-1754 -9246 9272 0
-9247 9272 0
-1754 -9247 9273 0
-9248 9273 0
-1754 -9248 9274 0
-9249 9274 0
-1754 -9249 9275 0
-9250 9275 0
-1754 -9250 9276 0
-9251 9276 0
-1754 -9251 9277 0
-9252 9277 0
-1754 -9252 9278 0
-9253 9278 0
-1754 -9253 9279 0
-9254 9279 0
-1754 -9254 9280 0
-9255 9280 0
-1754 -9255 9281 0
-9256 9281 0
-1754 -9256 9282 0
-9257 9282 0
-1754 -9257 9283 0
-9258 9283 0
-1754 -9258 9284 0
-9259 9284 0
-1754 -9259 0
-1754 9285 0
-9260 9285 0
-1754 -9260 9286 0
-9261 9286 0
-1754 -9261 9287 0
-9262 9287 0
-1754 -9262 9288 0
-9263 9288 0
-1754 -9263 9289 0
-9264 9289 0
-1754 -9264 9290 0
-9265 9290 0
-1754 -9265 9291 0
-9266 9291 0
-1754 -9266 9292 0
-9267 9292 0
-1754 -9267 9293 0
-9268 9293 0
-1754 -9268 9294 0
-9269 9294 0
-1754 -9269 9295 0
-9270 9295 0
-1754 -9270 9296 0
-9271 9296 0
-1754 -9271 9297 0
-9272 9297 0
-1754 -9272 9298 0
-9273 9298 0
-1754 -9273 9299 0
-9274 9299 0
-1754 -9274 9300 0
-9275 9300 0
-1754 -9275 9301 0
-9276 9301 0
-1754 -9276 9302 0
-9277 9302 0
-1754 -9277 9303 0
-9278 9303 0
-1754 -9278 9304 0
-9279 9304 0
-1754 -9279 9305 0
-9280 9305 0
-1754 -9280 9306 0
-9281 9306 0
-1754 -9281 9307 0
-9282 9307 0
-1754 -9282 9308 0
-9283 9308 0
-1754 -9283 9309 0
-9284 9309 0
-1754 -9284 0
-1754 9310 0
-9285 9310 0
-1754 -9285 9311 0
-9286 9311 0
-1754 -9286 9312 0
-9287 9312 0
-1754 -9287 9313 0
-9288 9313 0
-1754 -9288 9314 0
-9289 9314 0
-1754 -9289 9315 0
-9290 9315 0
-1754 -9290 9316 0
-9291 9316 0
-1754 -9291 9317 0
-9292 9317 0
-1754 -9292 9318 0
-9293 9318 0
-1754 -9293 9319 0
-9294 9319 0
-1754 -9294 9320 0
-9295 9320 0
-1754 -9295 9321 0
-9296 9321 0
-1754 -9296 9322 0
-9297 9322 0
-1754 -9297 9323 0
-9298 9323 0
-1754 -9298 9324 0
-9299 9324 0
-1754 -9299 9325 0
-9300 9325 0
-1754 -9300 9326 0
-9301 9326 0
-1754 -9301 9327 0
-9302 9327 0
-1754 -9302 9328 0
-9303 9328 0
-1754 -9303 9329 0
-9304 9329 0
-1754 -9304 9330 0
-9305 9330 0
-1754 -9305 9331 0
-9306 9331 0
-1754 -9306 9332 0
-9307 9332 0
-1754 -9307 9333 0
-9308 9333 0
-1754 -9308 9334 0
-9309 9334 0
-1754 -9309 0
-1755 9335 0
-9310 9335 0
-1755 -9310 9336 0
-9311 9336 0
-1755 -9311 9337 0
-9312 9337 0
-1755 -9312 9338 0
-9313 9338 0
-1755 -9313 9339 0
-9314 9339 0
-1755 -9314 9340 0
-9315 9340 0
-1755 -9315 9341 0
-9316 9341 0
-1755 -9316 9342 0
-9317 9342 0
-1755 -9317 9343 0
-9318 9343 0
-1755 -9318 9344 0
-9319 9344 0
-1755 -9319 9345 0
-9320 9345 0
-1755 -9320 9346 0
-9321 9346 0
-1755 -9321 9347 0
-9322 9347 0
-1755 -9322 9348 0
-9323 9348 0
-1755 -9323 9349 0
-9324 9349 0
-1755 -9324 9350 0
-9325 9350 0
-1755 -9325 9351 0
-9326 9351 0
-1755 -9326 9352 0
-9327 9352 0
-1755 -9327 9353 0
-9328 9353 0
-1755 -9328 9354 0
-9329 9354 0
-1755 -9329 9355 0
-9330 9355 0
-1755 -9330 9356 0
-9331 9356 0
-1755 -9331 9357 0
-9332 9357 0
-1755 -9332 9358 0
-9333 9358 0
-1755 -9333 9359 0
-9334 9359 0
-1755 -9334 0
-1755 9360 0
-9335 9360 0
-1755 -9335 9361 0
-9336 9361 0
-1755 -9336 9362 0
-9337 9362 0
-1755 -9337 9363 0
-9338 9363 0
-1755 -9338 9364 0
-9339 9364 0
-1755 -9339 9365 0
-9340 9365 0
-1755 -9340 9366 0
-9341 9366 0
-1755 -9341 9367 0
-9342 9367 0
-1755 -9342 9368 0
-9343 9368 0
-1755 -9343 9369 0
-9344 9369 0
-1755 -9344 9370 0
-9345 9370 0
-1755 -9345 9371 0
-9346 9371 0
-1755 -9346 9372 0
-9347 9372 0
-1755 -9347 9373 0
-9348 9373 0
-1755 -9348 9374 0
-9349 9374 0
-1755 -9349 9375 0
-9350 9375 0
-1755 -9350 9376 0
-9351 9376 0
-1755 -9351 9377 0
-9352 9377 0
-1755 -9352 9378 0
-9353 9378 0
-1755 -9353 9379 0
-9354 9379 0
-1755 -9354 9380 0
-9355 9380 0
-1755 -9355 9381 0
-9356 9381 0
-1755 -9356 9382 0
-9357 9382 0
-1755 -9357 9383 0
-9358 9383 0
-1755 -9358 9384 0
-9359 9384 0
-1755 -9359 0
-1765 9385 0
-9360 9385 0
-1765 -9360 9386 0
-9361 9386 0
-1765 -9361 9387 0
-9362 9387 0
-1765 -9362 9388 0
-9363 9388 0
-1765 -9363 9389 0
-9364 9389 0
-1765 -9364 9390 0
-9365 9390 0
-1765 -9365 9391 0
-9366 9391 0
-1765 -9366 9392 0
-9367 9392 0
-1765 -9367 9393 0
-9368 9393 0
-1765 -9368 9394 0
-9369 9394 0
-1765 -9369 9395 0
-9370 9395 0
-1765 -9370 9396 0
-9371 9396 0
-1765 -9371 9397 0
-9372 9397 0
-1765 -9372 9398 0
-9373 9398 0
-1765 -9373 9399 0
-9374 9399 0
-1765 -9374 9400 0
-9375 9400 0
-1765 -9375 9401 0
-9376 9401 0
-1765 -9376 9402 0
-9377 9402 0
-1765 -9377 9403 0
-9378 9403 0
-1765 -9378 9404 0
-9379 9404 0
-1765 -9379 9405 0
-9380 9405 0
-1765 -9380 9406 0
-9381 9406 0
-1765 -9381 9407 0
-9382 9407 0
-1765 -9382 9408 0
-9383 9408 0
-1765 -9383 9409 0
-9384 9409 0
-1765 -9384 0
-1765 9410 0
-9385 9410 0
-1765 -9385 9411 0
-9386 9411 0
-1765 -9386 9412 0
-9387 9412 0
-1765 -9387 9413 0
-9388 9413 0
-1765 -9388 9414 0
-9389 9414 0
-1765 -9389 9415 0
-9390 9415 0
-1765 -9390 9416 0
-9391 9416 0
-1765 -9391 9417 0
-9392 9417 0
-1765 -9392 9418 0
-9393 9418 0
-1765 -9393 9419 0
-9394 9419 0
-1765 -9394 9420 0
-9395 9420 0
-1765 -9395 9421 0
-9396 9421 0
-1765 -9396 9422 0
-9397 9422 0
-1765 -9397 9423 0
-9398 9423 0
-1765 -9398 9424 0
-9399 9424 0
-1765 -9399 9425 0
-9400 9425 0
-1765 -9400 9426 0
-9401 9426 0
-1765 -9401 9427 0
-9402 9427 0
-1765 -9402 9428 0
-9403 9428 0
-1765 -9403 9429 0
-9404 9429 0
-1765 -9404 9430 0
-9405 9430 0
-1765 -9405 9431 0
-9406 9431 0
-1765 -9406 9432 0
-9407 9432 0
-1765 -9407 9433 0
-9408 9433 0
-1765 -9408 9434 0
-9409 9434 0
-1765 -9409 0
-1765 9435 0
-9410 9435 0
-1765 -9410 9436 0
-9411 9436 0
-1765 -9411 9437 0
-9412 9437 0
-1765 -9412 9438 0
-9413 9438 0
-1765 -9413 9439 0
-9414 9439 0
-1765 -9414 9440 0
-9415 9440 0
-1765 -9415 9441 0
-9416 9441 0
-1765 -9416 9442 0
-9417 9442 0
-1765 -9417 9443 0
-9418 9443 0
-1765 -9418 9444 0
-9419 9444 0
-1765 -9419 9445 0
-9420 9445 0
-1765 -9420 9446 0
-9421 9446 0
-1765 -9421 9447 0
-9422 9447 0
-1765 -9422 9448 0
-9423 9448 0
-1765 -9423 9449 0
-9424 9449 0
-1765 -9424 9450 0
-9425 9450 0
-1765 -9425 9451 0
-9426 9451 0
-1765 -9426 9452 0
-9427 9452 0
-1765 -9427 9453 0
-9428 9453 0
-1765 -9428 9454 0
-9429 9454 0
-1765 -9429 9455 0
-9430 9455 0
-1765 -9430 9456 0
-9431 9456 0
-1765 -9431 9457 0
-9432 9457 0
-1765 -9432 9458 0
-9433 9458 0
-1765 -9433 9459 0
-9434 9459 0
-1765 -9434 0
-1766 9460 0
-9435 9460 0
-1766 -9435 9461 0
-9436 9461 0
-1766 -9436 9462 0
-9437 9462 0
-1766 -9437 9463 0
-9438 9463 0
-1766 -9438 9464 0
-9439 9464 0
-1766 -9439 9465 0
-9440 9465 0
-1766 -9440 9466 0
-9441 9466 0
-1766 -9441 9467 0
-9442 9467 0
-1766 -9442 9468 0
-9443 9468 0
-1766 -9443 9469 0
-9444 9469 0
-1766 -9444 9470 0
-9445 9470 0
-1766 -9445 9471 0
-9446 9471 0
-1766 -9446 9472 0
-9447 9472 0
-1766 -9447 9473 0
-9448 9473 0
-1766 -9448 9474 0
-9449 9474 0
-1766 -9449 9475 0
-9450 9475 0
-1766 -9450 9476 0
-9451 9476 0
-1766 -9451 9477 0
-9452 9477 0
-1766 -9452 9478 0
-9453 9478 0
-1766 -9453 9479 0
-9454 9479 0
-1766 -9454 9480 0
-9455 9480 0
-1766 -9455 9481 0
-9456 9481 0
-1766 -9456 9482 0
-9457 9482 0
-1766 -9457 9483 0
-9458 9483 0
-1766 -9458 9484 0
-9459 9484 0
-1766 -9459 0
-1766 9485 0
-9460 9485 0
-1766 -9460 9486 0
-9461 9486 0
-1766 -9461 9487 0
-9462 9487 0
-1766 -9462 9488 0
-9463 9488 0
-1766 -9463 9489 0
-9464 9489 0
-1766 -9464 9490 0
-9465 9490 0
-1766 -9465 9491 0
-9466 9491 0
-1766 -9466 9492 0
-9467 9492 0
-1766 -9467 9493 0
-9468 9493 0
-1766 -9468 9494 0
-9469 9494 0
-1766 -9469 9495 0
-9470 9495 0
-1766 -9470 9496 0
-9471 9496 0
-1766 -9471 9497 0
-9472 9497 0
-1766 -9472 9498 0
-9473 9498 0
-1766 -9473 9499 0
-9474 9499 0
-1766 -9474 9500 0
-9475 9500 0
-1766 -9475 9501 0
-9476 9501 0
-1766 -9476 9502 0
-9477 9502 0
-1766 -9477 9503 0
-9478 9503 0
-1766 -9478 9504 0
-9479 9504 0
-1766 -9479 9505 0
-9480 9505 0
-1766 -9480 9506 0
-9481 9506 0
-1766 -9481 9507 0
-9482 9507 0
-1766 -9482 9508 0
-9483 9508 0
-1766 -9483 9509 0
-9484 9509 0
-1766 -9484 0
-1776 9510 0
-9485 9510 0
-1776 -9485 9511 0
-9486 9511 0
-1776 -9486 9512 0
-9487 9512 0
-1776 -9487 9513 0
-9488 9513 0
-1776 -9488 9514 0
-9489 9514 0
-1776 -9489 9515 0
-9490 9515 0
-1776 -9490 9516 0
-9491 9516 0
-1776 -9491 9517 0
-9492 9517 0
-1776 -9492 9518 0
-9493 9518 0
-1776 -9493 9519 0
-9494 9519 0
-1776 -9494 9520 0
-9495 9520 0
-1776 -9495 9521 0
-9496 9521 0
-1776 -9496 9522 0
-9497 9522 0
-1776 -9497 9523 0
-9498 9523 0
-1776 -9498 9524 0
-9499 9524 0
-1776 -9499 9525 0
-9500 9525 0
-1776 -9500 9526 0
-9501 9526 0
-1776 -9501 9527 0
-9502 9527 0
-1776 -9502 9528 0
-9503 9528 0
-1776 -9503 9529 0
-9504 9529 0
-1776 -9504 9530 0
-9505 9530 0
-1776 -9505 9531 0
-9506 9531 0
-1776 -9506 9532 0
-9507 9532 0
-1776 -9507 9533 0
-9508 9533 0
-1776 -9508 9534 0
-9509 9534 0
-1776 -9509 0
-1776 9535 0
-9510 9535 0
-1776 -9510 9536 0
-9511 9536 0
-1776 -9511 9537 0
-9512 9537 0
-1776 -9512 9538 0
-9513 9538 0
-1776 -9513 9539 0
-9514 9539 0
-1776 -9514 9540 0
-9515 9540 0
-1776 -9515 9541 0
-9516 9541 0
-1776 -9516 9542 0
-9517 9542 0
-1776 -9517 9543 0
-9518 9543 0
-1776 -9518 9544 0
-9519 9544 0
-1776 -9519 9545 0
-9520 9545 0
-1776 -9520 9546 0
-9521 9546 0
-1776 -9521 9547 0
-9522 9547 0
-1776 -9522 9548 0
-9523 9548 0
-1776 -9523 9549 0
-9524 9549 0
-1776 -9524 9550 0
-9525 9550 0
-1776 -9525 9551 0
-9526 9551 0
-1776 -9526 9552 0
-9527 9552 0
-1776 -9527 9553 0
-9528 9553 0
-1776 -9528 9554 0
-9529 9554 0
-1776 -9529 9555 0
-9530 9555 0
-1776 -9530 9556 0
-9531 9556 0
-1776 -9531 9557 0
-9532 9557 0
-1776 -9532 9558 0
-9533 9558 0
-1776 -9533 9559 0
-9534 9559 0
-1776 -9534 0
-1776 9560 0
-9535 9560 0
-1776 -9535 9561 0
-9536 9561 0
-1776 -9536 9562 0
-9537 9562 0
-1776 -9537 9563 0
-9538 9563 0
-1776 -9538 9564 0
-9539 9564 0
-1776 -9539 9565 0
-9540 9565 0
-1776 -9540 9566 0
-9541 9566 0
-1776 -9541 9567 0
-9542 9567 0
-1776 -9542 9568 0
-9543 9568 0
-1776 -9543 9569 0
-9544 9569 0
-1776 -9544 9570 0
-9545 9570 0
-1776 -9545 9571 0
-9546 9571 0
-1776 -9546 9572 0
-9547 9572 0
-1776 -9547 9573 0
-9548 9573 0
-1776 -9548 9574 0
-9549 9574 0
-1776 -9549 9575 0
-9550 9575 0
-1776 -9550 9576 0
-9551 9576 0
-1776 -9551 9577 0
-9552 9577 0
-1776 -9552 9578 0
-9553 9578 0
-1776 -9553 9579 0
-9554 9579 0
-1776 -9554 9580 0
-9555 9580 0
-1776 -9555 9581 0
-9556 9581 0
-1776 -9556 9582 0
-9557 9582 0
-1776 -9557 9583 0
-9558 9583 0
-1776 -9558 9584 0
-9559 9584 0
-1776 -9559 0
-1777 9585 0
-9560 9585 0
-1777 -9560 9586 0
-9561 9586 0
-1777 -9561 9587 0
-9562 9587 0
-1777 -9562 9588 0
-9563 9588 0
-1777 -9563 9589 0
-9564 9589 0
-1777 -9564 9590 0
-9565 9590 0
-1777 -9565 9591 0
-9566 9591 0
-1777 -9566 9592 0
-9567 9592 0
-1777 -9567 9593 0
-9568 9593 0
-1777 -9568 9594 0
-9569 9594 0
-1777 -9569 9595 0
-9570 9595 0
-1777 -9570 9596 0
-9571 9596 0
-1777 -9571 9597 0
-9572 9597 0
-1777 -9572 9598 0
-9573 9598 0
-1777 -9573 9599 0
-9574 9599 0
-1777 -9574 9600 0
-9575 9600 0
-1777 -9575 9601 0
-9576 9601 0
-1777 -9576 9602 0
-9577 9602 0
-1777 -9577 9603 0
-9578 9603 0
-1777 -9578 9604 0
-9579 9604 0
-1777 -9579 9605 0
-9580 9605 0
-1777 -9580 9606 0
-9581 9606 0
-1777 -9581 9607 0
-9582 9607 0
-1777 -9582 9608 0
-9583 9608 0
-1777 -9583 9609 0
-9584 9609 0
-1777 -9584 0
-1777 9610 0
-9585 9610 0
-1777 -9585 9611 0
-9586 9611 0
-1777 -9586 9612 0
-9587 9612 0
-1777 -9587 9613 0
-9588 9613 0
-1777 -9588 9614 0
-9589 9614 0
-1777 -9589 9615 0
-9590 9615 0
-1777 -9590 9616 0
-9591 9616 0
-1777 -9591 9617 0
-9592 9617 0
-1777 -9592 9618 0
-9593 9618 0
-1777 -9593 9619 0
-9594 9619 0
-1777 -9594 9620 0
-9595 9620 0
-1777 -9595 9621 0
-9596 9621 0
-1777 -9596 9622 0
-9597 9622 0
-1777 -9597 9623 0
-9598 9623 0
-1777 -9598 9624 0
-9599 9624 0
-1777 -9599 9625 0
-9600 9625 0
-1777 -9600 9626 0
-9601 9626 0
-1777 -9601 9627 0
-9602 9627 0
-1777 -9602 9628 0
-9603 9628 0
-1777 -9603 9629 0
-9604 9629 0
-1777 -9604 9630 0
-9605 9630 0
-1777 -9605 9631 0
-9606 9631 0
-1777 -9606 9632 0
-9607 9632 0
-1777 -9607 9633 0
-9608 9633 0
-1777 -9608 9634 0
-9609 9634 0
-1777 -9609 0
-1787 9635 0
-9610 9635 0
-1787 -9610 9636 0
-9611 9636 0
-1787 -9611 9637 0
-9612 9637 0
-1787 -9612 9638 0
-9613 9638 0
-1787 -9613 9639 0
-9614 9639 0
-1787 -9614 9640 0
-9615 9640 0
-1787 -9615 9641 0
-9616 9641 0
-1787 -9616 9642 0
-9617 9642 0
-1787 -9617 9643 0
-9618 9643 0
-1787 -9618 9644 0
-9619 9644 0
-1787 -9619 9645 0
-9620 9645 0
-1787 -9620 9646 0
-9621 9646 0
-1787 -9621 9647 0
-9622 9647 0
-1787 -9622 9648 0
-9623 9648 0
-1787 -9623 9649 0
-9624 9649 0
-1787 -9624 9650 0
-9625 9650 0
-1787 -9625 9651 0
-9626 9651 0
-1787 -9626 9652 0
-9627 9652 0
-1787 -9627 9653 0
-9628 9653 0
-1787 -9628 9654 0
-9629 9654 0
-1787 -9629 9655 0
-9630 9655 0
-1787 -9630 9656 0
-9631 9656 0
-1787 -9631 9657 0
-9632 9657 0
-1787 -9632 9658 0
-9633 9658 0
-1787 -9633 9659 0
-9634 9659 0
-1787 -9634 0
-1787 9660 0
-9635 9660 0
-1787 -9635 9661 0
-9636 9661 0
-1787 -9636 9662 0
-9637 9662 0
-1787 -9637 9663 0
-9638 9663 0
-1787 -9638 9664 0
-9639 9664 0
-1787 -9639 9665 0
-9640 9665 0
-1787 -9640 9666 0
-9641 9666 0
-1787 -9641 9667 0
-9642 9667 0
-1787 -9642 9668 0
-9643 9668 0
-1787 -9643 9669 0
-9644 9669 0
-1787 -9644 9670 0
-9645 9670 0
-1787 -9645 9671 0
-9646 9671 0
-1787 -9646 9672 0
-9647 9672 0
-1787 -9647 9673 0
-9648 9673 0
-1787 -9648 9674 0
-9649 9674 0
-1787 -9649 9675 0
-9650 9675 0
-1787 -9650 9676 0
-9651 9676 0
-1787 -9651 9677 0
-9652 9677 0
-1787 -9652 9678 0
-9653 9678 0
-1787 -9653 9679 0
-9654 9679 0
-1787 -9654 9680 0
-9655 9680 0
-1787 -9655 9681 0
-9656 9681 0
-1787 -9656 9682 0
-9657 9682 0
-1787 -9657 9683 0
-9658 9683 0
-1787 -9658 9684 0
-9659 9684 0
-1787 -9659 0
-1787 9685 0
-9660 9685 0
-1787 -9660 9686 0
-9661 9686 0
-1787 -9661 9687 0
-9662 9687 0
-1787 -9662 9688 0
-9663 9688 0
-1787 -9663 9689 0
-9664 9689 0
-1787 -9664 9690 0
-9665 9690 0
-1787 -9665 9691 0
-9666 9691 0
-1787 -9666 9692 0
-9667 9692 0
-1787 -9667 9693 0
-9668 9693 0
-1787 -9668 9694 0
-9669 9694 0
-1787 -9669 9695 0
-9670 9695 0
-1787 -9670 9696 0
-9671 9696 0
-1787 -9671 9697 0
-9672 9697 0
-1787 -9672 9698 0
-9673 9698 0
-1787 -9673 9699 0
-9674 9699 0
-1787 -9674 9700 0
-9675 9700 0
-1787 -9675 9701 0
-9676 9701 0
-1787 -9676 9702 0
-9677 9702 0
-1787 -9677 9703 0
-9678 9703 0
-1787 -9678 9704 0
-9679 9704 0
-1787 -9679 9705 0
-9680 9705 0
-1787 -9680 9706 0
-9681 9706 0
-1787 -9681 9707 0
-9682 9707 0
-1787 -9682 9708 0
-9683 9708 0
-1787 -9683 9709 0
-9684 9709 0
-1787 -9684 0
-1788 9710 0
-9685 9710 0
-1788 -9685 9711 0
-9686 9711 0
-1788 -9686 9712 0
-9687 9712 0
-1788 -9687 9713 0
-9688 9713 0
-1788 -9688 9714 0
-9689 9714 0
-1788 -9689 9715 0
-9690 9715 0
-1788 -9690 9716 0
-9691 9716 0
-1788 -9691 9717 0
-9692 9717 0
-1788 -9692 9718 0
-9693 9718 0
-1788 -9693 9719 0
-9694 9719 0
-1788 -9694 9720 0
-9695 9720 0
-1788 -9695 9721 0
-9696 9721 0
-1788 -9696 9722 0
-9697 9722 0
-1788 -9697 9723 0
-9698 9723 0
-1788 -9698 9724 0
-9699 9724 0
-1788 -9699 9725 0
-9700 9725 0
-1788 -9700 9726 0
-9701 9726 0
-1788 -9701 9727 0
-9702 9727 0
-1788 -9702 9728 0
-9703 9728 0
-1788 -9703 9729 0
-9704 9729 0
-1788 -9704 9730 0
-9705 9730 0
-1788 -9705 9731 0
-9706 9731 0
-1788 -9706 9732 0
-9707 9732 0
-1788 -9707 9733 0
-9708 9733 0
-1788 -9708 9734 0
-9709 9734 0
-1788 -9709 0
-1788 9735 0
-9710 9735 0
-1788 -9710 9736 0
-9711 9736 0
-1788 -9711 9737 0
-9712 9737 0
-1788 -9712 9738 0
-9713 9738 0
-1788 -9713 9739 0
-9714 9739 0
-1788 -9714 9740 0
-9715 9740 0
-1788 -9715 9741 0
-9716 9741 0
-1788 -9716 9742 0
-9717 9742 0
-1788 -9717 9743 0
-9718 9743 0
-1788 -9718 9744 0
-9719 9744 0
-1788 -9719 9745 0
-9720 9745 0
-1788 -9720 9746 0
-9721 9746 0
-1788 -9721 9747 0
-9722 9747 0
-1788 -9722 9748 0
-9723 9748 0
-1788 -9723 9749 0
-9724 9749 0
-1788 -9724 9750 0
-9725 9750 0
-1788 -9725 9751 0
-9726 9751 0
-1788 -9726 9752 0
-9727 9752 0
-1788 -9727 9753 0
-9728 9753 0
-1788 -9728 9754 0
-9729 9754 0
-1788 -9729 9755 0
-9730 9755 0
-1788 -9730 9756 0
-9731 9756 0
-1788 -9731 9757 0
-9732 9757 0
-1788 -9732 9758 0
-9733 9758 0
-1788 -9733 9759 0
-9734 9759 0
-1788 -9734 0
-1798 9760 0
-9735 9760 0
-1798 -9735 9761 0
-9736 9761 0
-1798 -9736 9762 0
-9737 9762 0
-1798 -9737 9763 0
-9738 9763 0
-1798 -9738 9764 0
-9739 9764 0
-1798 -9739 9765 0
-9740 9765 0
-1798 -9740 9766 0
-9741 9766 0
-1798 -9741 9767 0
-9742 9767 0
-1798 -9742 9768 0
-9743 9768 0
-1798 -9743 9769 0
-9744 9769 0
-1798 -9744 9770 0
-9745 9770 0
-1798 -9745 9771 0
-9746 9771 0
-1798 -9746 9772 0
-9747 9772 0
-1798 -9747 9773 0
-9748 9773 0
-1798 -9748 9774 0
-9749 9774 0
-1798 -9749 9775 0
-9750 9775 0
-1798 -9750 9776 0
-9751 9776 0
-1798 -9751 9777 0
-9752 9777 0
-1798 -9752 9778 0
-9753 9778 0
-1798 -9753 9779 0
-9754 9779 0
-1798 -9754 9780 0
-9755 9780 0
-1798 -9755 9781 0
-9756 9781 0
-1798 -9756 9782 0
-9757 9782 0
-1798 -9757 9783 0
-9758 9783 0
-1798 -9758 9784 0
-9759 9784 0
-1798 -9759 0
-1798 9785 0
-9760 9785 0
-1798 -9760 9786 0
-9761 9786 0
-1798 -9761 9787 0
-9762 9787 0
-1798 -9762 9788 0
-9763 9788 0
-1798 -9763 9789 0
-9764 9789 0
-1798 -9764 9790 0
-9765 9790 0
-1798 -9765 9791 0
-9766 9791 0
-1798 -9766 9792 0
-9767 9792 0
-1798 -9767 9793 0
-9768 9793 0
-1798 -9768 9794 0
-9769 9794 0
-1798 -9769 9795 0
-9770 9795 0
-1798 -9770 9796 0
-9771 9796 0
-1798 -9771 9797 0
-9772 9797 0
-1798 -9772 9798 0
-9773 9798 0
-1798 -9773 9799 0
-9774 9799 0
-1798 -9774 9800 0
-9775 9800 0
-1798 -9775 9801 0
-9776 9801 0
-1798 -9776 9802 0
-9777 9802 0
-1798 -9777 9803 0
-9778 9803 0
-1798 -9778 9804 0
-9779 9804 0
-1798 -9779 9805 0
-9780 9805 0
-1798 -9780 9806 0
-9781 9806 0
-1798 -9781 9807 0
-9782 9807 0
-1798 -9782 9808 0
-9783 9808 0
-1798 -9783 9809 0
-9784 9809 0
-1798 -9784 0
-1798 9810 0
-9785 9810 0
-1798 -9785 9811 0
-9786 9811 0
-1798 -9786 9812 0
-9787 9812 0
-1798 -9787 9813 0
-9788 9813 0
-1798 -9788 9814 0
-9789 9814 0
-1798 -9789 9815 0
-9790 9815 0
-1798 -9790 9816 0
-9791 9816 0
-1798 -9791 9817 0
-9792 9817 0
-1798 -9792 9818 0
-9793 9818 0
-1798 -9793 9819 0
-9794 9819 0
-1798 -9794 9820 0
-9795 9820 0
-1798 -9795 9821 0
-9796 9821 0
-1798 -9796 9822 0
-9797 9822 0
-1798 -9797 9823 0
-9798 9823 0
-1798 -9798 9824 0
-9799 9824 0
-1798 -9799 9825 0
-9800 9825 0
-1798 -9800 9826 0
-9801 9826 0
-1798 -9801 9827 0
-9802 9827 0
-1798 -9802 9828 0
-9803 9828 0
-1798 -9803 9829 0
-9804 9829 0
-1798 -9804 9830 0
-9805 9830 0
-1798 -9805 9831 0
-9806 9831 0
-1798 -9806 9832 0
-9807 9832 0
-1798 -9807 9833 0
-9808 9833 0
-1798 -9808 9834 0
-9809 9834 0
-1798 -9809 0
-1799 9835 0
-9810 9835 0
-1799 -9810 9836 0
-9811 9836 0
-1799 -9811 9837 0
-9812 9837 0
-1799 -9812 9838 0
-9813 9838 0
-1799 -9813 9839 0
-9814 9839 0
-1799 -9814 9840 0
-9815 9840 0
-1799 -9815 9841 0
-9816 9841 0
-1799 -9816 9842 0
-9817 9842 0
-1799 -9817 9843 0
-9818 9843 0
-1799 -9818 9844 0
-9819 9844 0
-1799 -9819 9845 0
-9820 9845 0
-1799 -9820 9846 0
-9821 9846 0
-1799 -9821 9847 0
-9822 9847 0
-1799 -9822 9848 0
-9823 9848 0
-1799 -9823 9849 0
-9824 9849 0
-1799 -9824 9850 0
-9825 9850 0
-1799 -9825 9851 0
-9826 9851 0
-1799 -9826 9852 0
-9827 9852 0
-1799 -9827 9853 0
-9828 9853 0
-1799 -9828 9854 0
-9829 9854 0
-1799 -9829 9855 0
-9830 9855 0
-1799 -9830 9856 0
-9831 9856 0
-1799 -9831 9857 0
-9832 9857 0
-1799 -9832 9858 0
-9833 9858 0
-1799 -9833 9859 0
-9834 9859 0
-1799 -9834 0
-1799 9860 0
-9835 9860 0
-1799 -9835 9861 0
-9836 9861 0
-1799 -9836 9862 0
-9837 9862 0
-1799 -9837 9863 0
-9838 9863 0
-1799 -9838 9864 0
-9839 9864 0
-1799 -9839 9865 0
-9840 9865 0
-1799 -9840 9866 0
-9841 9866 0
-1799 -9841 9867 0
-9842 9867 0
-1799 -9842 9868 0
-9843 9868 0
-1799 -9843 9869 0
-9844 9869 0
-1799 -9844 9870 0
-9845 9870 0
-1799 -9845 9871 0
-9846 9871 0
-1799 -9846 9872 0
-9847 9872 0
-1799 -9847 9873 0
-9848 9873 0
-1799 -9848 9874 0
-9849 9874 0
-1799 -9849 9875 0
-9850 9875 0
-1799 -9850 9876 0
-9851 9876 0
-1799 -9851 9877 0
-9852 9877 0
-1799 -9852 9878 0
-9853 9878 0
-1799 -9853 9879 0
-9854 9879 0
-1799 -9854 9880 0
-9855 9880 0
-1799 -9855 9881 0
-9856 9881 0
-1799 -9856 9882 0
-9857 9882 0
-1799 -9857 9883 0
-9858 9883 0
-1799 -9858 9884 0
-9859 9884 0
-1799 -9859 0
-1809 9885 0
-9860 9885 0
-1809 -9860 9886 0
-9861 9886 0
-1809 -9861 9887 0
-9862 9887 0
-1809 -9862 9888 0
-9863 9888 0
-1809 -9863 9889 0
-9864 9889 0
-1809 -9864 9890 0
-9865 9890 0
-1809 -9865 9891 0
-9866 9891 0
-1809 -9866 9892 0
-9867 9892 0
-1809 -9867 9893 0
-9868 9893 0
-1809 -9868 9894 0
-9869 9894 0
-1809 -9869 9895 0
-9870 9895 0
-1809 -9870 9896 0
-9871 9896 0
-1809 -9871 9897 0
-9872 9897 0
-1809 -9872 9898 0
-9873 9898 0
-1809 -9873 9899 0
-9874 9899 0
-1809 -9874 9900 0
-9875 9900 0
-1809 -9875 9901 0
-9876 9901 0
-1809 -9876 9902 0
-9877 9902 0
-1809 -9877 9903 0
-9878 9903 0
-1809 -9878 9904 0
-9879 9904 0
-1809 -9879 9905 0
-9880 9905 0
-1809 -9880 9906 0
-9881 9906 0
-1809 -9881 9907 0
-9882 9907 0
-1809 -9882 9908 0
-9883 9908 0
-1809 -9883 9909 0
-9884 9909 0
-1809 -9884 0
-1809 9910 0
-9885 9910 0
-1809 -9885 9911 0
-9886 9911 0
-1809 -9886 9912 0
-9887 9912 0
-1809 -9887 9913 0
-9888 9913 0
-1809 -9888 9914 0
-9889 9914 0
-1809 -9889 9915 0
-9890 9915 0
-1809 -9890 9916 0
-9891 9916 0
-1809 -9891 9917 0
-9892 9917 0
-1809 -9892 9918 0
-9893 9918 0
-1809 -9893 9919 0
-9894 9919 0
-1809 -9894 9920 0
-9895 9920 0
-1809 -9895 9921 0
-9896 9921 0
-1809 -9896 9922 0
-9897 9922 0
-1809 -9897 9923 0
-9898 9923 0
-1809 -9898 9924 0
-9899 9924 0
-1809 -9899 9925 0
-9900 9925 0
-1809 -9900 9926 0
-9901 9926 0
-1809 -9901 9927 0
-9902 9927 0
-1809 -9902 9928 0
-9903 9928 0
-1809 -9903 9929 0
-9904 9929 0
-1809 -9904 9930 0
-9905 9930 0
-1809 -9905 9931 0
-9906 9931 0
-1809 -9906 9932 0
-9907 9932 0
-1809 -9907 9933 0
-9908 9933 0
-1809 -9908 9934 0
-9909 9934 0
-1809 -9909 0
-1809 9935 0
-9910 9935 0
-1809 -9910 9936 0
-9911 9936 0
-1809 -9911 9937 0
-9912 9937 0
-1809 -9912 9938 0
-9913 9938 0
-1809 -9913 9939 0
-9914 9939 0
-1809 -9914 9940 0
-9915 9940 0
-1809 -9915 9941 0
-9916 9941 0
-1809 -9916 9942 0
-9917 9942 0
-1809 -9917 9943 0
-9918 9943 0
-1809 -9918 9944 0
-9919 9944 0
-1809 -9919 9945 0
-9920 9945 0
-1809 -9920 9946 0
-9921 9946 0
-1809 -9921 9947 0
-9922 9947 0
-1809 -9922 9948 0
-9923 9948 0
-1809 -9923 9949 0
-9924 9949 0
-1809 -9924 9950 0
-9925 9950 0
-1809 -9925 9951 0
-9926 9951 0
-1809 -9926 9952 0
-9927 9952 0
-1809 -9927 9953 0
-9928 9953 0
-1809 -9928 9954 0
-9929 9954 0
-1809 -9929 9955 0
-9930 9955 0
-1809 -9930 9956 0
-9931 9956 0
-1809 -9931 9957 0
-9932 9957 0
-1809 -9932 9958 0
-9933 9958 0
-1809 -9933 9959 0
-9934 9959 0
-1809 -9934 0
-1810 9960 0
-9935 9960 0
-1810 -9935 9961 0
-9936 9961 0
-1810 -9936 9962 0
-9937 9962 0
-1810 -9937 9963 0
-9938 9963 0
-1810 -9938 9964 0
-9939 9964 0
-1810 -9939 9965 0
-9940 9965 0
-1810 -9940 9966 0
-9941 9966 0
-1810 -9941 9967 0
-9942 9967 0
-1810 -9942 9968 0
-9943 9968 0
-1810 -9943 9969 0
-9944 9969 0
-1810 -9944 9970 0
-9945 9970 0
-1810 -9945 9971 0
-9946 9971 0
-1810 -9946 9972 0
-9947 9972 0
-1810 -9947 9973 0
-9948 9973 0
-1810 -9948 9974 0
-9949 9974 0
-1810 -9949 9975 0
-9950 9975 0
-1810 -9950 9976 0
-9951 9976 0
-1810 -9951 9977 0
-9952 9977 0
-1810 -9952 9978 0
-9953 9978 0
-1810 -9953 9979 0
-9954 9979 0
-1810 -9954 9980 0
-9955 9980 0
-1810 -9955 9981 0
-9956 9981 0
-1810 -9956 9982 0
-9957 9982 0
-1810 -9957 9983 0
-9958 9983 0
-1810 -9958 9984 0
-9959 9984 0
-1810 -9959 0
-1810 9985 0
-9960 9985 0
-1810 -9960 9986 0
-9961 9986 0
-1810 -9961 9987 0
-9962 9987 0
-1810 -9962 9988 0
-9963 9988 0
-1810 -9963 9989 0
-9964 9989 0
-1810 -9964 9990 0
-9965 9990 0
-1810 -9965 9991 0
-9966 9991 0
-1810 -9966 9992 0
-9967 9992 0
-1810 -9967 9993 0
-9968 9993 0
-1810 -9968 9994 0
-9969 9994 0
-1810 -9969 9995 0
-9970 9995 0
-1810 -9970 9996 0
-9971 9996 0
-1810 -9971 9997 0
-9972 9997 0
-1810 -9972 9998 0
-9973 9998 0
-1810 -9973 9999 0
-9974 9999 0
-1810 -9974 10000 0
-9975 10000 0
-1810 -9975 10001 0
-9976 10001 0
-1810 -9976 10002 0
-9977 10002 0
-1810 -9977 10003 0
-9978 10003 0
-1810 -9978 10004 0
-9979 10004 0
-1810 -9979 10005 0
-9980 10005 0
-1810 -9980 10006 0
-9981 10006 0
-1810 -9981 10007 0
-9982 10007 0
-1810 -9982 10008 0
-9983 10008 0
-1810 -9983 10009 0
-9984 10009 0
-1810 -9984 0
-1820 10010 0
-9985 10010 0
-1820 -9985 10011 0
-9986 10011 0
-1820 -9986 10012 0
-9987 10012 0
-1820 -9987 10013 0
-9988 10013 0
-1820 -9988 10014 0
-9989 10014 0
-1820 -9989 10015 0
-9990 10015 0
-1820 -9990 10016 0
-9991 10016 0
-1820 -9991 10017 0
-9992 10017 0
-1820 -9992 10018 0
-9993 10018 0
-1820 -9993 10019 0
-9994 10019 0
-1820 -9994 10020 0
-9995 10020 0
-1820 -9995 10021 0
-9996 10021 0
-1820 -9996 10022 0
-9997 10022 0
-1820 -9997 10023 0
-9998 10023 0
-1820 -9998 10024 0
-9999 10024 0
-1820 -9999 10025 0
-10000 10025 0
-1820 -10000 10026 0
-10001 10026 0
-1820 -10001 10027 0
-10002 10027 0
-1820 -10002 10028 0
-10003 10028 0
-1820 -10003 10029 0
-10004 10029 0
-1820 -10004 10030 0
-10005 10030 0
-1820 -10005 10031 0
-10006 10031 0
-1820 -10006 10032 0
-10007 10032 0
-1820 -10007 10033 0
-10008 10033 0
-1820 -10008 10034 0
-10009 10034 0
-1820 -10009 0
-1820 10035 0
-10010 10035 0
-1820 -10010 10036 0
-10011 10036 0
-1820 -10011 10037 0
-10012 10037 0
-1820 -10012 10038 0
-10013 10038 0
-1820 -10013 10039 0
-10014 10039 0
-1820 -10014 10040 0
-10015 10040 0
-1820 -10015 10041 0
-10016 10041 0
-1820 -10016 10042 0
-10017 10042 0
-1820 -10017 10043 0
-10018 10043 0
-1820 -10018 10044 0
-10019 10044 0
-1820 -10019 10045 0
-10020 10045 0
-1820 -10020 10046 0
-10021 10046 0
-1820 -10021 10047 0
-10022 10047 0
-1820 -10022 10048 0
-10023 10048 0
-1820 -10023 10049 0
-10024 10049 0
-1820 -10024 10050 0
-10025 10050 0
-1820 -10025 10051 0
-10026 10051 0
-1820 -10026 10052 0
-10027 10052 0
-1820 -10027 10053 0
-10028 10053 0
-1820 -10028 10054 0
-10029 10054 0
-1820 -10029 10055 0
-10030 10055 0
-1820 -10030 10056 0
-10031 10056 0
-1820 -10031 10057 0
-10032 10057 0
-1820 -10032 10058 0
-10033 10058 0
-1820 -10033 10059 0
-10034 10059 0
-1820 -10034 0
-1820 10060 0
-10035 10060 0
-1820 -10035 10061 0
-10036 10061 0
-1820 -10036 10062 0
-10037 10062 0
-1820 -10037 10063 0
-10038 10063 0
-1820 -10038 10064 0
-10039 10064 0
-1820 -10039 10065 0
-10040 10065 0
-1820 -10040 10066 0
-10041 10066 0
-1820 -10041 10067 0
-10042 10067 0
-1820 -10042 10068 0
-10043 10068 0
-1820 -10043 10069 0
-10044 10069 0
-1820 -10044 10070 0
-10045 10070 0
-1820 -10045 10071 0
-10046 10071 0
-1820 -10046 10072 0
-10047 10072 0
-1820 -10047 10073 0
-10048 10073 0
-1820 -10048 10074 0
-10049 10074 0
-1820 -10049 10075 0
-10050 10075 0
-1820 -10050 10076 0
-10051 10076 0
-1820 -10051 10077 0
-10052 10077 0
-1820 -10052 10078 0
-10053 10078 0
-1820 -10053 10079 0
-10054 10079 0
-1820 -10054 10080 0
-10055 10080 0
-1820 -10055 10081 0
-10056 10081 0
-1820 -10056 10082 0
-10057 10082 0
-1820 -10057 10083 0
-10058 10083 0
-1820 -10058 10084 0
-10059 10084 0
-1820 -10059 0
-1821 10085 0
-10060 10085 0
-1821 -10060 10086 0
-10061 10086 0
-1821 -10061 10087 0
-10062 10087 0
-1821 -10062 10088 0
-10063 10088 0
-1821 -10063 10089 0
-10064 10089 0
-1821 -10064 10090 0
-10065 10090 0
-1821 -10065 10091 0
-10066 10091 0
-1821 -10066 10092 0
-10067 10092 0
-1821 -10067 10093 0
-10068 10093 0
-1821 -10068 10094 0
-10069 10094 0
-1821 -10069 10095 0
-10070 10095 0
-1821 -10070 10096 0
-10071 10096 0
-1821 -10071 10097 0
-10072 10097 0
-1821 -10072 10098 0
-10073 10098 0
-1821 -10073 10099 0
-10074 10099 0
-1821 -10074 10100 0
-10075 10100 0
-1821 -10075 10101 0
-10076 10101 0
-1821 -10076 10102 0
-10077 10102 0
-1821 -10077 10103 0
-10078 10103 0
-1821 -10078 10104 0
-10079 10104 0
-1821 -10079 10105 0
-10080 10105 0
-1821 -10080 10106 0
-10081 10106 0
-1821 -10081 10107 0
-10082 10107 0
-1821 -10082 10108 0
-10083 10108 0
-1821 -10083 10109 0
-10084 10109 0
-1821 -10084 0
-1821 10110 0
-10085 10110 0
-1821 -10085 10111 0
-10086 10111 0
-1821 -10086 10112 0
-10087 10112 0
-1821 -10087 10113 0
-10088 10113 0
-1821 -10088 10114 0
-10089 10114 0
-1821 -10089 10115 0
-10090 10115 0
-1821 -10090 10116 0
-10091 10116 0
-1821 -10091 10117 0
-10092 10117 0
-1821 -10092 10118 0
-10093 10118 0
-1821 -10093 10119 0
-10094 10119 0
-1821 -10094 10120 0
-10095 10120 0
-1821 -10095 10121 0
-10096 10121 0
-1821 -10096 10122 0
-10097 10122 0
-1821 -10097 10123 0
-10098 10123 0
-1821 -10098 10124 0
-10099 10124 0
-1821 -10099 10125 0
-10100 10125 0
-1821 -10100 10126 0
-10101 10126 0
-1821 -10101 10127 0
-10102 10127 0
-1821 -10102 10128 0
-10103 10128 0
-1821 -10103 10129 0
-10104 10129 0
-1821 -10104 10130 0
-10105 10130 0
-1821 -10105 10131 0
-10106 10131 0
-1821 -10106 10132 0
-10107 10132 0
-1821 -10107 10133 0
-10108 10133 0
-1821 -10108 10134 0
-10109 10134 0
-1821 -10109 0
-1831 10135 0
-10110 10135 0
-1831 -10110 10136 0
-10111 10136 0
-1831 -10111 10137 0
-10112 10137 0
-1831 -10112 10138 0
-10113 10138 0
-1831 -10113 10139 0
-10114 10139 0
-1831 -10114 10140 0
-10115 10140 0
-1831 -10115 10141 0
-10116 10141 0
-1831 -10116 10142 0
-10117 10142 0
-1831 -10117 10143 0
-10118 10143 0
-1831 -10118 10144 0
-10119 10144 0
-1831 -10119 10145 0
-10120 10145 0
-1831 -10120 10146 0
-10121 10146 0
-1831 -10121 10147 0
-10122 10147 0
-1831 -10122 10148 0
-10123 10148 0
-1831 -10123 10149 0
-10124 10149 0
-1831 -10124 10150 0
-10125 10150 0
-1831 -10125 10151 0
-10126 10151 0
-1831 -10126 10152 0
-10127 10152 0
-1831 -10127 10153 0
-10128 10153 0
-1831 -10128 10154 0
-10129 10154 0
-1831 -10129 10155 0
-10130 10155 0
-1831 -10130 10156 0
-10131 10156 0
-1831 -10131 10157 0
-10132 10157 0
-1831 -10132 10158 0
-10133 10158 0
-1831 -10133 10159 0
-10134 10159 0
-1831 -10134 0
-1831 10160 0
-10135 10160 0
-1831 -10135 10161 0
-10136 10161 0
-1831 -10136 10162 0
-10137 10162 0
-1831 -10137 10163 0
-10138 10163 0
-1831 -10138 10164 0
-10139 10164 0
-1831 -10139 10165 0
-10140 10165 0
-1831 -10140 10166 0
-10141 10166 0
-1831 -10141 10167 0
-10142 10167 0
-1831 -10142 10168 0
-10143 10168 0
-1831 -10143 10169 0
-10144 10169 0
-1831 -10144 10170 0
-10145 10170 0
-1831 -10145 10171 0
-10146 10171 0
-1831 -10146 10172 0
-10147 10172 0
-1831 -10147 10173 0
-10148 10173 0
-1831 -10148 10174 0
-10149 10174 0
-1831 -10149 10175 0
-10150 10175 0
-1831 -10150 10176 0
-10151 10176 0
-1831 -10151 10177 0
-10152 10177 0
-1831 -10152 10178 0
-10153 10178 0
-1831 -10153 10179 0
-10154 10179 0
-1831 -10154 10180 0
-10155 10180 0
-1831 -10155 10181 0
-10156 10181 0
-1831 -10156 10182 0
-10157 10182 0
-1831 -10157 10183 0
-10158 10183 0
-1831 -10158 10184 0
-10159 10184 0
-1831 -10159 0
-1831 10185 0
-10160 10185 0
-1831 -10160 10186 0
-10161 10186 0
-1831 -10161 10187 0
-10162 10187 0
-1831 -10162 10188 0
-10163 10188 0
-1831 -10163 10189 0
-10164 10189 0
-1831 -10164 10190 0
-10165 10190 0
-1831 -10165 10191 0
-10166 10191 0
-1831 -10166 10192 0
-10167 10192 0
-1831 -10167 10193 0
-10168 10193 0
-1831 -10168 10194 0
-10169 10194 0
-1831 -10169 10195 0
-10170 10195 0
-1831 -10170 10196 0
-10171 10196 0
-1831 -10171 10197 0
-10172 10197 0
-1831 -10172 10198 0
-10173 10198 0
-1831 -10173 10199 0
-10174 10199 0
-1831 -10174 10200 0
-10175 10200 0
-1831 -10175 10201 0
-10176 10201 0
-1831 -10176 10202 0
-10177 10202 0
-1831 -10177 10203 0
-10178 10203 0
-1831 -10178 10204 0
-10179 10204 0
-1831 -10179 10205 0
-10180 10205 0
-1831 -10180 10206 0
-10181 10206 0
-1831 -10181 10207 0
-10182 10207 0
-1831 -10182 10208 0
-10183 10208 0
-1831 -10183 10209 0
-10184 10209 0
-1831 -10184 0
-1832 10210 0
-10185 10210 0
-1832 -10185 10211 0
-10186 10211 0
-1832 -10186 10212 0
-10187 10212 0
-1832 -10187 10213 0
-10188 10213 0
-1832 -10188 10214 0
-10189 10214 0
-1832 -10189 10215 0
-10190 10215 0
-1832 -10190 10216 0
-10191 10216 0
-1832 -10191 10217 0
-10192 10217 0
-1832 -10192 10218 0
-10193 10218 0
-1832 -10193 10219 0
-10194 10219 0
-1832 -10194 10220 0
-10195 10220 0
-1832 -10195 10221 0
-10196 10221 0
-1832 -10196 10222 0
-10197 10222 0
-1832 -10197 10223 0
-10198 10223 0
-1832 -10198 10224 0
-10199 10224 0
-1832 -10199 10225 0
-10200 10225 0
-1832 -10200 10226 0
-10201 10226 0
-1832 -10201 10227 0
-10202 10227 0
-1832 -10202 10228 0
-10203 10228 0
-1832 -10203 10229 0
-10204 10229 0
-1832 -10204 10230 0
-10205 10230 0
-1832 -10205 10231 0
-10206 10231 0
-1832 -10206 10232 0
-10207 10232 0
-1832 -10207 10233 0
-10208 10233 0
-1832 -10208 10234 0
-10209 10234 0
-1832 -10209 0
-1832 10235 0
-10210 10235 0
-1832 -10210 10236 0
-10211 10236 0
-1832 -10211 10237 0
-10212 10237 0
-1832 -10212 10238 0
-10213 10238 0
-1832 -10213 10239 0
-10214 10239 0
-1832 -10214 10240 0
-10215 10240 0
-1832 -10215 10241 0
-10216 10241 0
-1832 -10216 10242 0
-10217 10242 0
-1832 -10217 10243 0
-10218 10243 0
-1832 -10218 10244 0
-10219 10244 0
-1832 -10219 10245 0
-10220 10245 0
-1832 -10220 10246 0
-10221 10246 0
-1832 -10221 10247 0
-10222 10247 0
-1832 -10222 10248 0
-10223 10248 0
-1832 -10223 10249 0
-10224 10249 0
-1832 -10224 10250 0
-10225 10250 0
-1832 -10225 10251 0
-10226 10251 0
-1832 -10226 10252 0
-10227 10252 0
-1832 -10227 10253 0
-10228 10253 0
-1832 -10228 10254 0
-10229 10254 0
-1832 -10229 10255 0
-10230 10255 0
-1832 -10230 10256 0
-10231 10256 0
-1832 -10231 10257 0
-10232 10257 0
-1832 -10232 10258 0
-10233 10258 0
-1832 -10233 10259 0
-10234 10259 0
-1832 -10234 0
-1842 10260 0
-10235 10260 0
-1842 -10235 10261 0
-10236 10261 0
-1842 -10236 10262 0
-10237 10262 0
-1842 -10237 10263 0
-10238 10263 0
-1842 -10238 10264 0
-10239 10264 0
-1842 -10239 10265 0
-10240 10265 0
-1842 -10240 10266 0
-10241 10266 0
-1842 -10241 10267 0
-10242 10267 0
-1842 -10242 10268 0
-10243 10268 0
-1842 -10243 10269 0
-10244 10269 0
-1842 -10244 10270 0
-10245 10270 0
-1842 -10245 10271 0
-10246 10271 0
-1842 -10246 10272 0
-10247 10272 0
-1842 -10247 10273 0
-10248 10273 0
-1842 -10248 10274 0
-10249 10274 0
-1842 -10249 10275 0
-10250 10275 0
-1842 -10250 10276 0
-10251 10276 0
-1842 -10251 10277 0
-10252 10277 0
-1842 -10252 10278 0
-10253 10278 0
-1842 -10253 10279 0
-10254 10279 0
-1842 -10254 10280 0
-10255 10280 0
-1842 -10255 10281 0
-10256 10281 0
-1842 -10256 10282 0
-10257 10282 0
-1842 -10257 10283 0
-10258 10283 0
-1842 -10258 10284 0
-10259 10284 0
-1842 -10259 0
-1842 10285 0
-10260 10285 0
-1842 -10260 10286 0
-10261 10286 0
-1842 -10261 10287 0
-10262 10287 0
-1842 -10262 10288 0
-10263 10288 0
-1842 -10263 10289 0
-10264 10289 0
-1842 -10264 10290 0
-10265 10290 0
-1842 -10265 10291 0
-10266 10291 0
-1842 -10266 10292 0
-10267 10292 0
-1842 -10267 10293 0
-10268 10293 0
-1842 -10268 10294 0
-10269 10294 0
-1842 -10269 10295 0
-10270 10295 0
-1842 -10270 10296 0
-10271 10296 0
-1842 -10271 10297 0
-10272 10297 0
-1842 -10272 10298 0
-10273 10298 0
-1842 -10273 10299 0
-10274 10299 0
-1842 -10274 10300 0
-10275 10300 0
-1842 -10275 10301 0
-10276 10301 0
-1842 -10276 10302 0
-10277 10302 0
-1842 -10277 10303 0
-10278 10303 0
-1842 -10278 10304 0
-10279 10304 0
-1842 -10279 10305 0
-10280 10305 0
-1842 -10280 10306 0
-10281 10306 0
-1842 -10281 10307 0
-10282 10307 0
-1842 -10282 10308 0
-10283 10308 0
-1842 -10283 10309 0
-10284 10309 0
-1842 -10284 0
-1842 10310 0
-10285 10310 0
-1842 -10285 10311 0
-10286 10311 0
-1842 -10286 10312 0
-10287 10312 0
-1842 -10287 10313 0
-10288 10313 0
-1842 -10288 10314 0
-10289 10314 0
-1842 -10289 10315 0
-10290 10315 0
-1842 -10290 10316 0
-10291 10316 0
-1842 -10291 10317 0
-10292 10317 0
-1842 -10292 10318 0
-10293 10318 0
-1842 -10293 10319 0
-10294 10319 0
-1842 -10294 10320 0
-10295 10320 0
-1842 -10295 10321 0
-10296 10321 0
-1842 -10296 10322 0
-10297 10322 0
-1842 -10297 10323 0
-10298 10323 0
-1842 -10298 10324 0
-10299 10324 0
-1842 -10299 10325 0
-10300 10325 0
-1842 -10300 10326 0
-10301 10326 0
-1842 -10301 10327 0
-10302 10327 0
-1842 -10302 10328 0
-10303 10328 0
-1842 -10303 10329 0
-10304 10329 0
-1842 -10304 10330 0
-10305 10330 0
-1842 -10305 10331 0
-10306 10331 0
-1842 -10306 10332 0
-10307 10332 0
-1842 -10307 10333 0
-10308 10333 0
-1842 -10308 10334 0
-10309 10334 0
-1842 -10309 0
-1843 10335 0
-10310 10335 0
-1843 -10310 10336 0
-10311 10336 0
-1843 -10311 10337 0
-10312 10337 0
-1843 -10312 10338 0
-10313 10338 0
-1843 -10313 10339 0
-10314 10339 0
-1843 -10314 10340 0
-10315 10340 0
-1843 -10315 10341 0
-10316 10341 0
-1843 -10316 10342 0
-10317 10342 0
-1843 -10317 10343 0
-10318 10343 0
-1843 -10318 10344 0
-10319 10344 0
-1843 -10319 10345 0
-10320 10345 0
-1843 -10320 10346 0
-10321 10346 0
-1843 -10321 10347 0
-10322 10347 0
-1843 -10322 10348 0
-10323 10348 0
-1843 -10323 10349 0
-10324 10349 0
-1843 -10324 10350 0
-10325 10350 0
-1843 -10325 10351 0
-10326 10351 0
-1843 -10326 10352 0
-10327 10352 0
-1843 -10327 10353 0
-10328 10353 0
-1843 -10328 10354 0
-10329 10354 0
-1843 -10329 10355 0
-10330 10355 0
-1843 -10330 10356 0
-10331 10356 0
-1843 -10331 10357 0
-10332 10357 0
-1843 -10332 10358 0
-10333 10358 0
-1843 -10333 10359 0
-10334 10359 0
-1843 -10334 0
-1843 10360 0
-10335 10360 0
-1843 -10335 10361 0
-10336 10361 0
-1843 -10336 10362 0
-10337 10362 0
-1843 -10337 10363 0
-10338 10363 0
-1843 -10338 10364 0
-10339 10364 0
-1843 -10339 10365 0
-10340 10365 0
-1843 -10340 10366 0
-10341 10366 0
-1843 -10341 10367 0
-10342 10367 0
-1843 -10342 10368 0
-10343 10368 0
-1843 -10343 10369 0
-10344 10369 0
-1843 -10344 10370 0
-10345 10370 0
-1843 -10345 10371 0
-10346 10371 0
-1843 -10346 10372 0
-10347 10372 0
-1843 -10347 10373 0
-10348 10373 0
-1843 -10348 10374 0
-10349 10374 0
-1843 -10349 10375 0
-10350 10375 0
-1843 -10350 10376 0
-10351 10376 0
-1843 -10351 10377 0
-10352 10377 0
-1843 -10352 10378 0
-10353 10378 0
-1843 -10353 10379 0
-10354 10379 0
-1843 -10354 10380 0
-10355 10380 0
-1843 -10355 10381 0
-10356 10381 0
-1843 -10356 10382 0
-10357 10382 0
-1843 -10357 10383 0
-10358 10383 0
-1843 -10358 10384 0
-10359 10384 0
-1843 -10359 0
-1853 10385 0
-10360 10385 0
-1853 -10360 10386 0
-10361 10386 0
-1853 -10361 10387 0
-10362 10387 0
-1853 -10362 10388 0
-10363 10388 0
-1853 -10363 10389 0
-10364 10389 0
-1853 -10364 10390 0
-10365 10390 0
-1853 -10365 10391 0
-10366 10391 0
-1853 -10366 10392 0
-10367 10392 0
-1853 -10367 10393 0
-10368 10393 0
-1853 -10368 10394 0
-10369 10394 0
-1853 -10369 10395 0
-10370 10395 0
-1853 -10370 10396 0
-10371 10396 0
-1853 -10371 10397 0
-10372 10397 0
-1853 -10372 10398 0
-10373 10398 0
-1853 -10373 10399 0
-10374 10399 0
-1853 -10374 10400 0
-10375 10400 0
-1853 -10375 10401 0
-10376 10401 0
-1853 -10376 10402 0
-10377 10402 0
-1853 -10377 10403 0
-10378 10403 0
-1853 -10378 10404 0
-10379 10404 0
-1853 -10379 10405 0
-10380 10405 0
-1853 -10380 10406 0
-10381 10406 0
-1853 -10381 10407 0
-10382 10407 0
-1853 -10382 10408 0
-10383 10408 0
-1853 -10383 10409 0
-10384 10409 0
-1853 -10384 0
-1853 10410 0
-10385 10410 0
-1853 -10385 10411 0
-10386 10411 0
-1853 -10386 10412 0
-10387 10412 0
-1853 -10387 10413 0
-10388 10413 0
-1853 -10388 10414 0
-10389 10414 0
-1853 -10389 10415 0
-10390 10415 0
-1853 -10390 10416 0
-10391 10416 0
-1853 -10391 10417 0
-10392 10417 0
-1853 -10392 10418 0
-10393 10418 0
-1853 -10393 10419 0
-10394 10419 0
-1853 -10394 10420 0
-10395 10420 0
-1853 -10395 10421 0
-10396 10421 0
-1853 -10396 10422 0
-10397 10422 0
-1853 -10397 10423 0
-10398 10423 0
-1853 -10398 10424 0
-10399 10424 0
-1853 -10399 10425 0
-10400 10425 0
-1853 -10400 10426 0
-10401 10426 0
-1853 -10401 10427 0
-10402 10427 0
-1853 -10402 10428 0
-10403 10428 0
-1853 -10403 10429 0
-10404 10429 0
-1853 -10404 10430 0
-10405 10430 0
-1853 -10405 10431 0
-10406 10431 0
-1853 -10406 10432 0
-10407 10432 0
-1853 -10407 10433 0
-10408 10433 0
-1853 -10408 10434 0
-10409 10434 0
-1853 -10409 0
-1853 10435 0
-10410 10435 0
-1853 -10410 10436 0
-10411 10436 0
-1853 -10411 10437 0
-10412 10437 0
-1853 -10412 10438 0
-10413 10438 0
-1853 -10413 10439 0
-10414 10439 0
-1853 -10414 10440 0
-10415 10440 0
-1853 -10415 10441 0
-10416 10441 0
-1853 -10416 10442 0
-10417 10442 0
-1853 -10417 10443 0
-10418 10443 0
-1853 -10418 10444 0
-10419 10444 0
-1853 -10419 10445 0
-10420 10445 0
-1853 -10420 10446 0
-10421 10446 0
-1853 -10421 10447 0
-10422 10447 0
-1853 -10422 10448 0
-10423 10448 0
-1853 -10423 10449 0
-10424 10449 0
-1853 -10424 10450 0
-10425 10450 0
-1853 -10425 10451 0
-10426 10451 0
-1853 -10426 10452 0
-10427 10452 0
-1853 -10427 10453 0
-10428 10453 0
-1853 -10428 10454 0
-10429 10454 0
-1853 -10429 10455 0
-10430 10455 0
-1853 -10430 10456 0
-10431 10456 0
-1853 -10431 10457 0
-10432 10457 0
-1853 -10432 10458 0
-10433 10458 0
-1853 -10433 10459 0
-10434 10459 0
-1853 -10434 0
-1854 10460 0
-10435 10460 0
-1854 -10435 10461 0
-10436 10461 0
-1854 -10436 10462 0
-10437 10462 0
-1854 -10437 10463 0
-10438 10463 0
-1854 -10438 10464 0
-10439 10464 0
-1854 -10439 10465 0
-10440 10465 0
-1854 -10440 10466 0
-10441 10466 0
-1854 -10441 10467 0
-10442 10467 0
-1854 -10442 10468 0
-10443 10468 0
-1854 -10443 10469 0
-10444 10469 0
-1854 -10444 10470 0
-10445 10470 0
-1854 -10445 10471 0
-10446 10471 0
-1854 -10446 10472 0
-10447 10472 0
-1854 -10447 10473 0
-10448 10473 0
-1854 -10448 10474 0
-10449 10474 0
-1854 -10449 10475 0
-10450 10475 0
-1854 -10450 10476 0
-10451 10476 0
-1854 -10451 10477 0
-10452 10477 0
-1854 -10452 10478 0
-10453 10478 0
-1854 -10453 10479 0
-10454 10479 0
-1854 -10454 10480 0
-10455 10480 0
-1854 -10455 10481 0
-10456 10481 0
-1854 -10456 10482 0
-10457 10482 0
-1854 -10457 10483 0
-10458 10483 0
-1854 -10458 10484 0
-10459 10484 0
-1854 -10459 0
-1854 10485 0
-10460 10485 0
-1854 -10460 10486 0
-10461 10486 0
-1854 -10461 10487 0
-10462 10487 0
-1854 -10462 10488 0
-10463 10488 0
-1854 -10463 10489 0
-10464 10489 0
-1854 -10464 10490 0
-10465 10490 0
-1854 -10465 10491 0
-10466 10491 0
-1854 -10466 10492 0
-10467 10492 0
-1854 -10467 10493 0
-10468 10493 0
-1854 -10468 10494 0
-10469 10494 0
-1854 -10469 10495 0
-10470 10495 0
-1854 -10470 10496 0
-10471 10496 0
-1854 -10471 10497 0
-10472 10497 0
-1854 -10472 10498 0
-10473 10498 0
-1854 -10473 10499 0
-10474 10499 0
-1854 -10474 10500 0
-10475 10500 0
-1854 -10475 10501 0
-10476 10501 0
-1854 -10476 10502 0
-10477 10502 0
-1854 -10477 10503 0
-10478 10503 0
-1854 -10478 10504 0
-10479 10504 0
-1854 -10479 10505 0
-10480 10505 0
-1854 -10480 10506 0
-10481 10506 0
-1854 -10481 10507 0
-10482 10507 0
-1854 -10482 10508 0
-10483 10508 0
-1854 -10483 10509 0
-10484 10509 0
-1854 -10484 0
-1864 10510 0
-10485 10510 0
-1864 -10485 10511 0
-10486 10511 0
-1864 -10486 10512 0
-10487 10512 0
-1864 -10487 10513 0
-10488 10513 0
-1864 -10488 10514 0
-10489 10514 0
-1864 -10489 10515 0
-10490 10515 0
-1864 -10490 10516 0
-10491 10516 0
-1864 -10491 10517 0
-10492 10517 0
-1864 -10492 10518 0
-10493 10518 0
-1864 -10493 10519 0
-10494 10519 0
-1864 -10494 10520 0
-10495 10520 0
-1864 -10495 10521 0
-10496 10521 0
-1864 -10496 10522 0
-10497 10522 0
-1864 -10497 10523 0
-10498 10523 0
-1864 -10498 10524 0
-10499 10524 0
-1864 -10499 10525 0
-10500 10525 0
-1864 -10500 10526 0
-10501 10526 0
-1864 -10501 10527 0
-10502 10527 0
-1864 -10502 10528 0
-10503 10528 0
-1864 -10503 10529 0
-10504 10529 0
-1864 -10504 10530 0
-10505 10530 0
-1864 -10505 10531 0
-10506 10531 0
-1864 -10506 10532 0
-10507 10532 0
-1864 -10507 10533 0
-10508 10533 0
-1864 -10508 10534 0
-10509 10534 0
-1864 -10509 0
-1864 10535 0
-10510 10535 0
-1864 -10510 10536 0
-10511 10536 0
-1864 -10511 10537 0
-10512 10537 0
-1864 -10512 10538 0
-10513 10538 0
-1864 -10513 10539 0
-10514 10539 0
-1864 -10514 10540 0
-10515 10540 0
-1864 -10515 10541 0
-10516 10541 0
-1864 -10516 10542 0
-10517 10542 0
-1864 -10517 10543 0
-10518 10543 0
-1864 -10518 10544 0
-10519 10544 0
-1864 -10519 10545 0
-10520 10545 0
-1864 -10520 10546 0
-10521 10546 0
-1864 -10521 10547 0
-10522 10547 0
-1864 -10522 10548 0
-10523 10548 0
-1864 -10523 10549 0
-10524 10549 0
-1864 -10524 10550 0
-10525 10550 0
-1864 -10525 10551 0
-10526 10551 0
-1864 -10526 10552 0
-10527 10552 0
-1864 -10527 10553 0
-10528 10553 0
-1864 -10528 10554 0
-10529 10554 0
-1864 -10529 10555 0
-10530 10555 0
-1864 -10530 10556 0
-10531 10556 0
-1864 -10531 10557 0
-10532 10557 0
-1864 -10532 10558 0
-10533 10558 0
-1864 -10533 10559 0
-10534 10559 0
-1864 -10534 0
-1864 10560 0
-10535 10560 0
-1864 -10535 10561 0
-10536 10561 0
-1864 -10536 10562 0
-10537 10562 0
-1864 -10537 10563 0
-10538 10563 0
-1864 -10538 10564 0
-10539 10564 0
-1864 -10539 10565 0
-10540 10565 0
-1864 -10540 10566 0
-10541 10566 0
-1864 -10541 10567 0
-10542 10567 0
-1864 -10542 10568 0
-10543 10568 0
-1864 -10543 10569 0
-10544 10569 0
-1864 -10544 10570 0
-10545 10570 0
-1864 -10545 10571 0
-10546 10571 0
-1864 -10546 10572 0
-10547 10572 0
-1864 -10547 10573 0
-10548 10573 0
-1864 -10548 10574 0
-10549 10574 0
-1864 -10549 10575 0
-10550 10575 0
-1864 -10550 10576 0
-10551 10576 0
-1864 -10551 10577 0
-10552 10577 0
-1864 -10552 10578 0
-10553 10578 0
-1864 -10553 10579 0
-10554 10579 0
-1864 -10554 10580 0
-10555 10580 0
-1864 -10555 10581 0
-10556 10581 0
-1864 -10556 10582 0
-10557 10582 0
-1864 -10557 10583 0
-10558 10583 0
-1864 -10558 10584 0
-10559 10584 0
-1864 -10559 0
-1865 10585 0
-10560 10585 0
-1865 -10560 10586 0
-10561 10586 0
-1865 -10561 10587 0
-10562 10587 0
-1865 -10562 10588 0
-10563 10588 0
-1865 -10563 10589 0
-10564 10589 0
-1865 -10564 10590 0
-10565 10590 0
-1865 -10565 10591 0
-10566 10591 0
-1865 -10566 10592 0
-10567 10592 0
-1865 -10567 10593 0
-10568 10593 0
-1865 -10568 10594 0
-10569 10594 0
-1865 -10569 10595 0
-10570 10595 0
-1865 -10570 10596 0
-10571 10596 0
-1865 -10571 10597 0
-10572 10597 0
-1865 -10572 10598 0
-10573 10598 0
-1865 -10573 10599 0
-10574 10599 0
-1865 -10574 10600 0
-10575 10600 0
-1865 -10575 10601 0
-10576 10601 0
-1865 -10576 10602 0
-10577 10602 0
-1865 -10577 10603 0
-10578 10603 0
-1865 -10578 10604 0
-10579 10604 0
-1865 -10579 10605 0
-10580 10605 0
-1865 -10580 10606 0
-10581 10606 0
-1865 -10581 10607 0
-10582 10607 0
-1865 -10582 10608 0
-10583 10608 0
-1865 -10583 10609 0
-10584 10609 0
-1865 -10584 0
-1865 10610 0
-10585 10610 0
-1865 -10585 10611 0
-10586 10611 0
-1865 -10586 10612 0
-10587 10612 0
-1865 -10587 10613 0
-10588 10613 0
-1865 -10588 10614 0
-10589 10614 0
-1865 -10589 10615 0
-10590 10615 0
-1865 -10590 10616 0
-10591 10616 0
-1865 -10591 10617 0
-10592 10617 0
-1865 -10592 10618 0
-10593 10618 0
-1865 -10593 10619 0
-10594 10619 0
-1865 -10594 10620 0
-10595 10620 0
-1865 -10595 10621 0
-10596 10621 0
-1865 -10596 10622 0
-10597 10622 0
-1865 -10597 10623 0
-10598 10623 0
-1865 -10598 10624 0
-10599 10624 0
-1865 -10599 10625 0
-10600 10625 0
-1865 -10600 10626 0
-10601 10626 0
-1865 -10601 10627 0
-10602 10627 0
-1865 -10602 10628 0
-10603 10628 0
-1865 -10603 10629 0
-10604 10629 0
-1865 -10604 10630 0
-10605 10630 0
-1865 -10605 10631 0
-10606 10631 0
-1865 -10606 10632 0
-10607 10632 0
-1865 -10607 10633 0
-10608 10633 0
-1865 -10608 10634 0
-10609 10634 0
-1865 -10609 0
-1875 10635 0
-10610 10635 0
-1875 -10610 10636 0
-10611 10636 0
-1875 -10611 10637 0
-10612 10637 0
-1875 -10612 10638 0
-10613 10638 0
-1875 -10613 10639 0
-10614 10639 0
-1875 -10614 10640 0
-10615 10640 0
-1875 -10615 10641 0
-10616 10641 0
-1875 -10616 10642 0
-10617 10642 0
-1875 -10617 10643 0
-10618 10643 0
-1875 -10618 10644 0
-10619 10644 0
-1875 -10619 10645 0
-10620 10645 0
-1875 -10620 10646 0
-10621 10646 0
-1875 -10621 10647 0
-10622 10647 0
-1875 -10622 10648 0
-10623 10648 0
-1875 -10623 10649 0
-10624 10649 0
-1875 -10624 10650 0
-10625 10650 0
-1875 -10625 10651 0
-10626 10651 0
-1875 -10626 10652 0
-10627 10652 0
-1875 -10627 10653 0
-10628 10653 0
-1875 -10628 10654 0
-10629 10654 0
-1875 -10629 10655 0
-10630 10655 0
-1875 -10630 10656 0
-10631 10656 0
-1875 -10631 10657 0
-10632 10657 0
-1875 -10632 10658 0
-10633 10658 0
-1875 -10633 10659 0
-10634 10659 0
-1875 -10634 0
-1875 10660 0
-10635 10660 0
-1875 -10635 10661 0
-10636 10661 0
-1875 -10636 10662 0
-10637 10662 0
-1875 -10637 10663 0
-10638 10663 0
-1875 -10638 10664 0
-10639 10664 0
-1875 -10639 10665 0
-10640 10665 0
-1875 -10640 10666 0
-10641 10666 0
-1875 -10641 10667 0
-10642 10667 0
-1875 -10642 10668 0
-10643 10668 0
-1875 -10643 10669 0
-10644 10669 0
-1875 -10644 10670 0
-10645 10670 0
-1875 -10645 10671 0
-10646 10671 0
-1875 -10646 10672 0
-10647 10672 0
-1875 -10647 10673 0
-10648 10673 0
-1875 -10648 10674 0
-10649 10674 0
-1875 -10649 10675 0
-10650 10675 0
-1875 -10650 10676 0
-10651 10676 0
-1875 -10651 10677 0
-10652 10677 0
-1875 -10652 10678 0
-10653 10678 0
-1875 -10653 10679 0
-10654 10679 0
-1875 -10654 10680 0
-10655 10680 0
-1875 -10655 10681 0
-10656 10681 0
-1875 -10656 10682 0
-10657 10682 0
-1875 -10657 10683 0
-10658 10683 0
-1875 -10658 10684 0
-10659 10684 0
-1875 -10659 0
-1875 10685 0
-10660 10685 0
-1875 -10660 10686 0
-10661 10686 0
-1875 -10661 10687 0
-10662 10687 0
-1875 -10662 10688 0
-10663 10688 0
-1875 -10663 10689 0
-10664 10689 0
-1875 -10664 10690 0
-10665 10690 0
-1875 -10665 10691 0
-10666 10691 0
-1875 -10666 10692 0
-10667 10692 0
-1875 -10667 10693 0
-10668 10693 0
-1875 -10668 10694 0
-10669 10694 0
-1875 -10669 10695 0
-10670 10695 0
-1875 -10670 10696 0
-10671 10696 0
-1875 -10671 10697 0
-10672 10697 0
-1875 -10672 10698 0
-10673 10698 0
-1875 -10673 10699 0
-10674 10699 0
-1875 -10674 10700 0
-10675 10700 0
-1875 -10675 10701 0
-10676 10701 0
-1875 -10676 10702 0
-10677 10702 0
-1875 -10677 10703 0
-10678 10703 0
-1875 -10678 10704 0
-10679 10704 0
-1875 -10679 10705 0
-10680 10705 0
-1875 -10680 10706 0
-10681 10706 0
-1875 -10681 10707 0
-10682 10707 0
-1875 -10682 10708 0
-10683 10708 0
-1875 -10683 10709 0
-10684 10709 0
-1875 -10684 0
-1876 10710 0
-10685 10710 0
-1876 -10685 10711 0
-10686 10711 0
-1876 -10686 10712 0
-10687 10712 0
-1876 -10687 10713 0
-10688 10713 0
-1876 -10688 10714 0
-10689 10714 0
-1876 -10689 10715 0
-10690 10715 0
-1876 -10690 10716 0
-10691 10716 0
-1876 -10691 10717 0
-10692 10717 0
-1876 -10692 10718 0
-10693 10718 0
-1876 -10693 10719 0
-10694 10719 0
-1876 -10694 10720 0
-10695 10720 0
-1876 -10695 10721 0
-10696 10721 0
-1876 -10696 10722 0
-10697 10722 0
-1876 -10697 10723 0
-10698 10723 0
-1876 -10698 10724 0
-10699 10724 0
-1876 -10699 10725 0
-10700 10725 0
-1876 -10700 10726 0
-10701 10726 0
-1876 -10701 10727 0
-10702 10727 0
-1876 -10702 10728 0
-10703 10728 0
-1876 -10703 10729 0
-10704 10729 0
-1876 -10704 10730 0
-10705 10730 0
-1876 -10705 10731 0
-10706 10731 0
-1876 -10706 10732 0
-10707 10732 0
-1876 -10707 10733 0
-10708 10733 0
-1876 -10708 10734 0
-10709 10734 0
-1876 -10709 0
-1876 10735 0
-10710 10735 0
-1876 -10710 10736 0
-10711 10736 0
-1876 -10711 10737 0
-10712 10737 0
-1876 -10712 10738 0
-10713 10738 0
-1876 -10713 10739 0
-10714 10739 0
-1876 -10714 10740 0
-10715 10740 0
-1876 -10715 10741 0
-10716 10741 0
-1876 -10716 10742 0
-10717 10742 0
-1876 -10717 10743 0
-10718 10743 0
-1876 -10718 10744 0
-10719 10744 0
-1876 -10719 10745 0
-10720 10745 0
-1876 -10720 10746 0
-10721 10746 0
-1876 -10721 10747 0
-10722 10747 0
-1876 -10722 10748 0
-10723 10748 0
-1876 -10723 10749 0
-10724 10749 0
-1876 -10724 10750 0
-10725 10750 0
-1876 -10725 10751 0
-10726 10751 0
-1876 -10726 10752 0
-10727 10752 0
-1876 -10727 10753 0
-10728 10753 0
-1876 -10728 10754 0
-10729 10754 0
-1876 -10729 10755 0
-10730 10755 0
-1876 -10730 10756 0
-10731 10756 0
-1876 -10731 10757 0
-10732 10757 0
-1876 -10732 10758 0
-10733 10758 0
-1876 -10733 10759 0
-10734 10759 0
-1876 -10734 0
-1886 10760 0
-10735 10760 0
-1886 -10735 10761 0
-10736 10761 0
-1886 -10736 10762 0
-10737 10762 0
-1886 -10737 10763 0
-10738 10763 0
-1886 -10738 10764 0
-10739 10764 0
-1886 -10739 10765 0
-10740 10765 0
-1886 -10740 10766 0
-10741 10766 0
-1886 -10741 10767 0
-10742 10767 0
-1886 -10742 10768 0
-10743 10768 0
-1886 -10743 10769 0
-10744 10769 0
-1886 -10744 10770 0
-10745 10770 0
-1886 -10745 10771 0
-10746 10771 0
-1886 -10746 10772 0
-10747 10772 0
-1886 -10747 10773 0
-10748 10773 0
-1886 -10748 10774 0
-10749 10774 0
-1886 -10749 10775 0
-10750 10775 0
-1886 -10750 10776 0
-10751 10776 0
-1886 -10751 10777 0
-10752 10777 0
-1886 -10752 10778 0
-10753 10778 0
-1886 -10753 10779 0
-10754 10779 0
-1886 -10754 10780 0
-10755 10780 0
-1886 -10755 10781 0
-10756 10781 0
-1886 -10756 10782 0
-10757 10782 0
-1886 -10757 10783 0
-10758 10783 0
-1886 -10758 10784 0
-10759 10784 0
-1886 -10759 0
-1886 10785 0
-10760 10785 0
-1886 -10760 10786 0
-10761 10786 0
-1886 -10761 10787 0
-10762 10787 0
-1886 -10762 10788 0
-10763 10788 0
-1886 -10763 10789 0
-10764 10789 0
-1886 -10764 10790 0
-10765 10790 0
-1886 -10765 10791 0
-10766 10791 0
-1886 -10766 10792 0
-10767 10792 0
-1886 -10767 10793 0
-10768 10793 0
-1886 -10768 10794 0
-10769 10794 0
-1886 -10769 10795 0
-10770 10795 0
-1886 -10770 10796 0
-10771 10796 0
-1886 -10771 10797 0
-10772 10797 0
-1886 -10772 10798 0
-10773 10798 0
-1886 -10773 10799 0
-10774 10799 0
-1886 -10774 10800 0
-10775 10800 0
-1886 -10775 10801 0
-10776 10801 0
-1886 -10776 10802 0
-10777 10802 0
-1886 -10777 10803 0
-10778 10803 0
-1886 -10778 10804 0
-10779 10804 0
-1886 -10779 10805 0
-10780 10805 0
-1886 -10780 10806 0
-10781 10806 0
-1886 -10781 10807 0
-10782 10807 0
-1886 -10782 10808 0
-10783 10808 0
-1886 -10783 10809 0
-10784 10809 0
-1886 -10784 0
-1886 10810 0
-10785 10810 0
-1886 -10785 10811 0
-10786 10811 0
-1886 -10786 10812 0
-10787 10812 0
-1886 -10787 10813 0
-10788 10813 0
-1886 -10788 10814 0
-10789 10814 0
-1886 -10789 10815 0
-10790 10815 0
-1886 -10790 10816 0
-10791 10816 0
-1886 -10791 10817 0
-10792 10817 0
-1886 -10792 10818 0
-10793 10818 0
-1886 -10793 10819 0
-10794 10819 0
-1886 -10794 10820 0
-10795 10820 0
-1886 -10795 10821 0
-10796 10821 0
-1886 -10796 10822 0
-10797 10822 0
-1886 -10797 10823 0
-10798 10823 0
-1886 -10798 10824 0
-10799 10824 0
-1886 -10799 10825 0
-10800 10825 0
-1886 -10800 10826 0
-10801 10826 0
-1886 -10801 10827 0
-10802 10827 0
-1886 -10802 10828 0
-10803 10828 0
-1886 -10803 10829 0
-10804 10829 0
-1886 -10804 10830 0
-10805 10830 0
-1886 -10805 10831 0
-10806 10831 0
-1886 -10806 10832 0
-10807 10832 0
-1886 -10807 10833 0
-10808 10833 0
-1886 -10808 10834 0
-10809 10834 0
-1886 -10809 0
-1887 10835 0
-10810 10835 0
-1887 -10810 10836 0
-10811 10836 0
-1887 -10811 10837 0
-10812 10837 0
-1887 -10812 10838 0
-10813 10838 0
-1887 -10813 10839 0
-10814 10839 0
-1887 -10814 10840 0
-10815 10840 0
-1887 -10815 10841 0
-10816 10841 0
-1887 -10816 10842 0
-10817 10842 0
-1887 -10817 10843 0
-10818 10843 0
-1887 -10818 10844 0
-10819 10844 0
-1887 -10819 10845 0
-10820 10845 0
-1887 -10820 10846 0
-10821 10846 0
-1887 -10821 10847 0
-10822 10847 0
-1887 -10822 10848 0
-10823 10848 0
-1887 -10823 10849 0
-10824 10849 0
-1887 -10824 10850 0
-10825 10850 0
-1887 -10825 10851 0
-10826 10851 0
-1887 -10826 10852 0
-10827 10852 0
-1887 -10827 10853 0
-10828 10853 0
-1887 -10828 10854 0
-10829 10854 0
-1887 -10829 10855 0
-10830 10855 0
-1887 -10830 10856 0
-10831 10856 0
-1887 -10831 10857 0
-10832 10857 0
-1887 -10832 10858 0
-10833 10858 0
-1887 -10833 10859 0
-10834 10859 0
-1887 -10834 0
-1887 10860 0
-10835 10860 0
-1887 -10835 10861 0
-10836 10861 0
-1887 -10836 10862 0
-10837 10862 0
-1887 -10837 10863 0
-10838 10863 0
-1887 -10838 10864 0
-10839 10864 0
-1887 -10839 10865 0
-10840 10865 0
-1887 -10840 10866 0
-10841 10866 0
-1887 -10841 10867 0
-10842 10867 0
-1887 -10842 10868 0
-10843 10868 0
-1887 -10843 10869 0
-10844 10869 0
-1887 -10844 10870 0
-10845 10870 0
-1887 -10845 10871 0
-10846 10871 0
-1887 -10846 10872 0
-10847 10872 0
-1887 -10847 10873 0
-10848 10873 0
-1887 -10848 10874 0
-10849 10874 0
-1887 -10849 10875 0
-10850 10875 0
-1887 -10850 10876 0
-10851 10876 0
-1887 -10851 10877 0
-10852 10877 0
-1887 -10852 10878 0
-10853 10878 0
-1887 -10853 10879 0
-10854 10879 0
-1887 -10854 10880 0
-10855 10880 0
-1887 -10855 10881 0
-10856 10881 0
-1887 -10856 10882 0
-10857 10882 0
-1887 -10857 10883 0
-10858 10883 0
-1887 -10858 10884 0
-10859 10884 0
-1887 -10859 0
-3531 10885 0
-10860 10885 0
-3531 -10860 10886 0
-10861 10886 0
-3531 -10861 10887 0
-10862 10887 0
-3531 -10862 10888 0
-10863 10888 0
-3531 -10863 10889 0
-10864 10889 0
-3531 -10864 10890 0
-10865 10890 0
-3531 -10865 10891 0
-10866 10891 0
-3531 -10866 10892 0
-10867 10892 0
-3531 -10867 10893 0
-10868 10893 0
-3531 -10868 10894 0
-10869 10894 0
-3531 -10869 10895 0
-10870 10895 0
-3531 -10870 10896 0
-10871 10896 0
-3531 -10871 10897 0
-10872 10897 0
-3531 -10872 10898 0
-10873 10898 0
-3531 -10873 10899 0
-10874 10899 0
-3531 -10874 10900 0
-10875 10900 0
-3531 -10875 10901 0
-10876 10901 0
-3531 -10876 10902 0
-10877 10902 0
-3531 -10877 10903 0
-10878 10903 0
-3531 -10878 10904 0
-10879 10904 0
-3531 -10879 10905 0
-10880 10905 0
-3531 -10880 10906 0
-10881 10906 0
-3531 -10881 10907 0
-10882 10907 0
-3531 -10882 10908 0
-10883 10908 0
-3531 -10883 10909 0
-10884 10909 0
-3531 -10884 0
-3531 10910 0
-10885 10910 0
-3531 -10885 10911 0
-10886 10911 0
-3531 -10886 10912 0
-10887 10912 0
-3531 -10887 10913 0
-10888 10913 0
-3531 -10888 10914 0
-10889 10914 0
-3531 -10889 10915 0
-10890 10915 0
-3531 -10890 10916 0
-10891 10916 0
-3531 -10891 10917 0
-10892 10917 0
-3531 -10892 10918 0
-10893 10918 0
-3531 -10893 10919 0
-10894 10919 0
-3531 -10894 10920 0
-10895 10920 0
-3531 -10895 10921 0
-10896 10921 0
-3531 -10896 10922 0
-10897 10922 0
-3531 -10897 10923 0
-10898 10923 0
-3531 -10898 10924 0
-10899 10924 0
-3531 -10899 10925 0
-10900 10925 0
-3531 -10900 10926 0
-10901 10926 0
-3531 -10901 10927 0
-10902 10927 0
-3531 -10902 10928 0
-10903 10928 0
-3531 -10903 10929 0
-10904 10929 0
-3531 -10904 10930 0
-10905 10930 0
-3531 -10905 10931 0
-10906 10931 0
-3531 -10906 10932 0
-10907 10932 0
-3531 -10907 10933 0
-10908 10933 0
-3531 -10908 10934 0
-10909 10934 0
-3531 -10909 0
-3531 10935 0
-10910 10935 0
-3531 -10910 10936 0
-10911 10936 0
-3531 -10911 10937 0
-10912 10937 0
-3531 -10912 10938 0
-10913 10938 0
-3531 -10913 10939 0
-10914 10939 0
-3531 -10914 10940 0
-10915 10940 0
-3531 -10915 10941 0
-10916 10941 0
-3531 -10916 10942 0
-10917 10942 0
-3531 -10917 10943 0
-10918 10943 0
-3531 -10918 10944 0
-10919 10944 0
-3531 -10919 10945 0
-10920 10945 0
-3531 -10920 10946 0
-10921 10946 0
-3531 -10921 10947 0
-10922 10947 0
-3531 -10922 10948 0
-10923 10948 0
-3531 -10923 10949 0
-10924 10949 0
-3531 -10924 10950 0
-10925 10950 0
-3531 -10925 10951 0
-10926 10951 0
-3531 -10926 10952 0
-10927 10952 0
-3531 -10927 10953 0
-10928 10953 0
-3531 -10928 10954 0
-10929 10954 0
-3531 -10929 10955 0
-10930 10955 0
-3531 -10930 10956 0
-10931 10956 0
-3531 -10931 10957 0
-10932 10957 0
-3531 -10932 10958 0
-10933 10958 0
-3531 -10933 10959 0
-10934 10959 0
-3531 -10934 0
-3532 10960 0
-10935 10960 0
-3532 -10935 10961 0
-10936 10961 0
-3532 -10936 10962 0
-10937 10962 0
-3532 -10937 10963 0
-10938 10963 0
-3532 -10938 10964 0
-10939 10964 0
-3532 -10939 10965 0
-10940 10965 0
-3532 -10940 10966 0
-10941 10966 0
-3532 -10941 10967 0
-10942 10967 0
-3532 -10942 10968 0
-10943 10968 0
-3532 -10943 10969 0
-10944 10969 0
-3532 -10944 10970 0
-10945 10970 0
-3532 -10945 10971 0
-10946 10971 0
-3532 -10946 10972 0
-10947 10972 0
-3532 -10947 10973 0
-10948 10973 0
-3532 -10948 10974 0
-10949 10974 0
-3532 -10949 10975 0
-10950 10975 0
-3532 -10950 10976 0
-10951 10976 0
-3532 -10951 10977 0
-10952 10977 0
-3532 -10952 10978 0
-10953 10978 0
-3532 -10953 10979 0
-10954 10979 0
-3532 -10954 10980 0
-10955 10980 0
-3532 -10955 10981 0
-10956 10981 0
-3532 -10956 10982 0
-10957 10982 0
-3532 -10957 10983 0
-10958 10983 0
-3532 -10958 10984 0
-10959 10984 0
-3532 -10959 0
-3532 10985 0
-10960 10985 0
-3532 -10960 10986 0
-10961 10986 0
-3532 -10961 10987 0
-10962 10987 0
-3532 -10962 10988 0
-10963 10988 0
-3532 -10963 10989 0
-10964 10989 0
-3532 -10964 10990 0
-10965 10990 0
-3532 -10965 10991 0
-10966 10991 0
-3532 -10966 10992 0
-10967 10992 0
-3532 -10967 10993 0
-10968 10993 0
-3532 -10968 10994 0
-10969 10994 0
-3532 -10969 10995 0
-10970 10995 0
-3532 -10970 10996 0
-10971 10996 0
-3532 -10971 10997 0
-10972 10997 0
-3532 -10972 10998 0
-10973 10998 0
-3532 -10973 10999 0
-10974 10999 0
-3532 -10974 11000 0
-10975 11000 0
-3532 -10975 11001 0
-10976 11001 0
-3532 -10976 11002 0
-10977 11002 0
-3532 -10977 11003 0
-10978 11003 0
-3532 -10978 11004 0
-10979 11004 0
-3532 -10979 11005 0
-10980 11005 0
-3532 -10980 11006 0
-10981 11006 0
-3532 -10981 11007 0
-10982 11007 0
-3532 -10982 11008 0
-10983 11008 0
-3532 -10983 11009 0
-10984 11009 0
-3532 -10984 0
-3542 11010 0
-10985 11010 0
-3542 -10985 11011 0
-10986 11011 0
-3542 -10986 11012 0
-10987 11012 0
-3542 -10987 11013 0
-10988 11013 0
-3542 -10988 11014 0
-10989 11014 0
-3542 -10989 11015 0
-10990 11015 0
-3542 -10990 11016 0
-10991 11016 0
-3542 -10991 11017 0
-10992 11017 0
-3542 -10992 11018 0
-10993 11018 0
-3542 -10993 11019 0
-10994 11019 0
-3542 -10994 11020 0
-10995 11020 0
-3542 -10995 11021 0
-10996 11021 0
-3542 -10996 11022 0
-10997 11022 0
-3542 -10997 11023 0
-10998 11023 0
-3542 -10998 11024 0
-10999 11024 0
-3542 -10999 11025 0
-11000 11025 0
-3542 -11000 11026 0
-11001 11026 0
-3542 -11001 11027 0
-11002 11027 0
-3542 -11002 11028 0
-11003 11028 0
-3542 -11003 11029 0
-11004 11029 0
-3542 -11004 11030 0
-11005 11030 0
-3542 -11005 11031 0
-11006 11031 0
-3542 -11006 11032 0
-11007 11032 0
-3542 -11007 11033 0
-11008 11033 0
-3542 -11008 11034 0
-11009 11034 0
-3542 -11009 0
-3542 11035 0
-11010 11035 0
-3542 -11010 11036 0
-11011 11036 0
-3542 -11011 11037 0
-11012 11037 0
-3542 -11012 11038 0
-11013 11038 0
-3542 -11013 11039 0
-11014 11039 0
-3542 -11014 11040 0
-11015 11040 0
-3542 -11015 11041 0
-11016 11041 0
-3542 -11016 11042 0
-11017 11042 0
-3542 -11017 11043 0
-11018 11043 0
-3542 -11018 11044 0
-11019 11044 0
-3542 -11019 11045 0
-11020 11045 0
-3542 -11020 11046 0
-11021 11046 0
-3542 -11021 11047 0
-11022 11047 0
-3542 -11022 11048 0
-11023 11048 0
-3542 -11023 11049 0
-11024 11049 0
-3542 -11024 11050 0
-11025 11050 0
-3542 -11025 11051 0
-11026 11051 0
-3542 -11026 11052 0
-11027 11052 0
-3542 -11027 11053 0
-11028 11053 0
-3542 -11028 11054 0
-11029 11054 0
-3542 -11029 11055 0
-11030 11055 0
-3542 -11030 11056 0
-11031 11056 0
-3542 -11031 11057 0
-11032 11057 0
-3542 -11032 11058 0
-11033 11058 0
-3542 -11033 11059 0
-11034 11059 0
-3542 -11034 0
-3542 11060 0
-11035 11060 0
-3542 -11035 11061 0
-11036 11061 0
-3542 -11036 11062 0
-11037 11062 0
-3542 -11037 11063 0
-11038 11063 0
-3542 -11038 11064 0
-11039 11064 0
-3542 -11039 11065 0
-11040 11065 0
-3542 -11040 11066 0
-11041 11066 0
-3542 -11041 11067 0
-11042 11067 0
-3542 -11042 11068 0
-11043 11068 0
-3542 -11043 11069 0
-11044 11069 0
-3542 -11044 11070 0
-11045 11070 0
-3542 -11045 11071 0
-11046 11071 0
-3542 -11046 11072 0
-11047 11072 0
-3542 -11047 11073 0
-11048 11073 0
-3542 -11048 11074 0
-11049 11074 0
-3542 -11049 11075 0
-11050 11075 0
-3542 -11050 11076 0
-11051 11076 0
-3542 -11051 11077 0
-11052 11077 0
-3542 -11052 11078 0
-11053 11078 0
-3542 -11053 11079 0
-11054 11079 0
-3542 -11054 11080 0
-11055 11080 0
-3542 -11055 11081 0
-11056 11081 0
-3542 -11056 11082 0
-11057 11082 0
-3542 -11057 11083 0
-11058 11083 0
-3542 -11058 11084 0
-11059 11084 0
-3542 -11059 0
-3543 11085 0
-11060 11085 0
-3543 -11060 11086 0
-11061 11086 0
-3543 -11061 11087 0
-11062 11087 0
-3543 -11062 11088 0
-11063 11088 0
-3543 -11063 11089 0
-11064 11089 0
-3543 -11064 11090 0
-11065 11090 0
-3543 -11065 11091 0
-11066 11091 0
-3543 -11066 11092 0
-11067 11092 0
-3543 -11067 11093 0
-11068 11093 0
-3543 -11068 11094 0
-11069 11094 0
-3543 -11069 11095 0
-11070 11095 0
-3543 -11070 11096 0
-11071 11096 0
-3543 -11071 11097 0
-11072 11097 0
-3543 -11072 11098 0
-11073 11098 0
-3543 -11073 11099 0
-11074 11099 0
-3543 -11074 11100 0
-11075 11100 0
-3543 -11075 11101 0
-11076 11101 0
-3543 -11076 11102 0
-11077 11102 0
-3543 -11077 11103 0
-11078 11103 0
-3543 -11078 11104 0
-11079 11104 0
-3543 -11079 11105 0
-11080 11105 0
-3543 -11080 11106 0
-11081 11106 0
-3543 -11081 11107 0
-11082 11107 0
-3543 -11082 11108 0
-11083 11108 0
-3543 -11083 11109 0
-11084 11109 0
-3543 -11084 0
-3543 11110 0
-11085 11110 0
-3543 -11085 11111 0
-11086 11111 0
-3543 -11086 11112 0
-11087 11112 0
-3543 -11087 11113 0
-11088 11113 0
-3543 -11088 11114 0
-11089 11114 0
-3543 -11089 11115 0
-11090 11115 0
-3543 -11090 11116 0
-11091 11116 0
-3543 -11091 11117 0
-11092 11117 0
-3543 -11092 11118 0
-11093 11118 0
-3543 -11093 11119 0
-11094 11119 0
-3543 -11094 11120 0
-11095 11120 0
-3543 -11095 11121 0
-11096 11121 0
-3543 -11096 11122 0
-11097 11122 0
-3543 -11097 11123 0
-11098 11123 0
-3543 -11098 11124 0
-11099 11124 0
-3543 -11099 11125 0
-11100 11125 0
-3543 -11100 11126 0
-11101 11126 0
-3543 -11101 11127 0
-11102 11127 0
-3543 -11102 11128 0
-11103 11128 0
-3543 -11103 11129 0
-11104 11129 0
-3543 -11104 11130 0
-11105 11130 0
-3543 -11105 11131 0
-11106 11131 0
-3543 -11106 11132 0
-11107 11132 0
-3543 -11107 11133 0
-11108 11133 0
-3543 -11108 11134 0
-11109 11134 0
-3543 -11109 0
-3553 11135 0
-11110 11135 0
-3553 -11110 11136 0
-11111 11136 0
-3553 -11111 11137 0
-11112 11137 0
-3553 -11112 11138 0
-11113 11138 0
-3553 -11113 11139 0
-11114 11139 0
-3553 -11114 11140 0
-11115 11140 0
-3553 -11115 11141 0
-11116 11141 0
-3553 -11116 11142 0
-11117 11142 0
-3553 -11117 11143 0
-11118 11143 0
-3553 -11118 11144 0
-11119 11144 0
-3553 -11119 11145 0
-11120 11145 0
-3553 -11120 11146 0
-11121 11146 0
-3553 -11121 11147 0
-11122 11147 0
-3553 -11122 11148 0
-11123 11148 0
-3553 -11123 11149 0
-11124 11149 0
-3553 -11124 11150 0
-11125 11150 0
-3553 -11125 11151 0
-11126 11151 0
-3553 -11126 11152 0
-11127 11152 0
-3553 -11127 11153 0
-11128 11153 0
-3553 -11128 11154 0
-11129 11154 0
-3553 -11129 11155 0
-11130 11155 0
-3553 -11130 11156 0
-11131 11156 0
-3553 -11131 11157 0
-11132 11157 0
-3553 -11132 11158 0
-11133 11158 0
-3553 -11133 11159 0
-11134 11159 0
-3553 -11134 0
-3553 11160 0
-11135 11160 0
-3553 -11135 11161 0
-11136 11161 0
-3553 -11136 11162 0
-11137 11162 0
-3553 -11137 11163 0
-11138 11163 0
-3553 -11138 11164 0
-11139 11164 0
-3553 -11139 11165 0
-11140 11165 0
-3553 -11140 11166 0
-11141 11166 0
-3553 -11141 11167 0
-11142 11167 0
-3553 -11142 11168 0
-11143 11168 0
-3553 -11143 11169 0
-11144 11169 0
-3553 -11144 11170 0
-11145 11170 0
-3553 -11145 11171 0
-11146 11171 0
-3553 -11146 11172 0
-11147 11172 0
-3553 -11147 11173 0
-11148 11173 0
-3553 -11148 11174 0
-11149 11174 0
-3553 -11149 11175 0
-11150 11175 0
-3553 -11150 11176 0
-11151 11176 0
-3553 -11151 11177 0
-11152 11177 0
-3553 -11152 11178 0
-11153 11178 0
-3553 -11153 11179 0
-11154 11179 0
-3553 -11154 11180 0
-11155 11180 0
-3553 -11155 11181 0
-11156 11181 0
-3553 -11156 11182 0
-11157 11182 0
-3553 -11157 11183 0
-11158 11183 0
-3553 -11158 11184 0
-11159 11184 0
-3553 -11159 0
-3553 11185 0
-11160 11185 0
-3553 -11160 11186 0
-11161 11186 0
-3553 -11161 11187 0
-11162 11187 0
-3553 -11162 11188 0
-11163 11188 0
-3553 -11163 11189 0
-11164 11189 0
-3553 -11164 11190 0
-11165 11190 0
-3553 -11165 11191 0
-11166 11191 0
-3553 -11166 11192 0
-11167 11192 0
-3553 -11167 11193 0
-11168 11193 0
-3553 -11168 11194 0
-11169 11194 0
-3553 -11169 11195 0
-11170 11195 0
-3553 -11170 11196 0
-11171 11196 0
-3553 -11171 11197 0
-11172 11197 0
-3553 -11172 11198 0
-11173 11198 0
-3553 -11173 11199 0
-11174 11199 0
-3553 -11174 11200 0
-11175 11200 0
-3553 -11175 11201 0
-11176 11201 0
-3553 -11176 11202 0
-11177 11202 0
-3553 -11177 11203 0
-11178 11203 0
-3553 -11178 11204 0
-11179 11204 0
-3553 -11179 11205 0
-11180 11205 0
-3553 -11180 11206 0
-11181 11206 0
-3553 -11181 11207 0
-11182 11207 0
-3553 -11182 11208 0
-11183 11208 0
-3553 -11183 11209 0
-11184 11209 0
-3553 -11184 0
-3554 11210 0
-11185 11210 0
-3554 -11185 11211 0
-11186 11211 0
-3554 -11186 11212 0
-11187 11212 0
-3554 -11187 11213 0
-11188 11213 0
-3554 -11188 11214 0
-11189 11214 0
-3554 -11189 11215 0
-11190 11215 0
-3554 -11190 11216 0
-11191 11216 0
-3554 -11191 11217 0
-11192 11217 0
-3554 -11192 11218 0
-11193 11218 0
-3554 -11193 11219 0
-11194 11219 0
-3554 -11194 11220 0
-11195 11220 0
-3554 -11195 11221 0
-11196 11221 0
-3554 -11196 11222 0
-11197 11222 0
-3554 -11197 11223 0
-11198 11223 0
-3554 -11198 11224 0
-11199 11224 0
-3554 -11199 11225 0
-11200 11225 0
-3554 -11200 11226 0
-11201 11226 0
-3554 -11201 11227 0
-11202 11227 0
-3554 -11202 11228 0
-11203 11228 0
-3554 -11203 11229 0
-11204 11229 0
-3554 -11204 11230 0
-11205 11230 0
-3554 -11205 11231 0
-11206 11231 0
-3554 -11206 11232 0
-11207 11232 0
-3554 -11207 11233 0
-11208 11233 0
-3554 -11208 11234 0
-11209 11234 0
-3554 -11209 0
-3554 11235 0
-11210 11235 0
-3554 -11210 11236 0
-11211 11236 0
-3554 -11211 11237 0
-11212 11237 0
-3554 -11212 11238 0
-11213 11238 0
-3554 -11213 11239 0
-11214 11239 0
-3554 -11214 11240 0
-11215 11240 0
-3554 -11215 11241 0
-11216 11241 0
-3554 -11216 11242 0
-11217 11242 0
-3554 -11217 11243 0
-11218 11243 0
-3554 -11218 11244 0
-11219 11244 0
-3554 -11219 11245 0
-11220 11245 0
-3554 -11220 11246 0
-11221 11246 0
-3554 -11221 11247 0
-11222 11247 0
-3554 -11222 11248 0
-11223 11248 0
-3554 -11223 11249 0
-11224 11249 0
-3554 -11224 11250 0
-11225 11250 0
-3554 -11225 11251 0
-11226 11251 0
-3554 -11226 11252 0
-11227 11252 0
-3554 -11227 11253 0
-11228 11253 0
-3554 -11228 11254 0
-11229 11254 0
-3554 -11229 11255 0
-11230 11255 0
-3554 -11230 11256 0
-11231 11256 0
-3554 -11231 11257 0
-11232 11257 0
-3554 -11232 11258 0
-11233 11258 0
-3554 -11233 11259 0
-11234 11259 0
-3554 -11234 0
-3564 11260 0
-11235 11260 0
-3564 -11235 11261 0
-11236 11261 0
-3564 -11236 11262 0
-11237 11262 0
-3564 -11237 11263 0
-11238 11263 0
-3564 -11238 11264 0
-11239 11264 0
-3564 -11239 11265 0
-11240 11265 0
-3564 -11240 11266 0
-11241 11266 0
-3564 -11241 11267 0
-11242 11267 0
-3564 -11242 11268 0
-11243 11268 0
-3564 -11243 11269 0
-11244 11269 0
-3564 -11244 11270 0
-11245 11270 0
-3564 -11245 11271 0
-11246 11271 0
-3564 -11246 11272 0
-11247 11272 0
-3564 -11247 11273 0
-11248 11273 0
-3564 -11248 11274 0
-11249 11274 0
-3564 -11249 11275 0
-11250 11275 0
-3564 -11250 11276 0
-11251 11276 0
-3564 -11251 11277 0
-11252 11277 0
-3564 -11252 11278 0
-11253 11278 0
-3564 -11253 11279 0
-11254 11279 0
-3564 -11254 11280 0
-11255 11280 0
-3564 -11255 11281 0
-11256 11281 0
-3564 -11256 11282 0
-11257 11282 0
-3564 -11257 11283 0
-11258 11283 0
-3564 -11258 11284 0
-11259 11284 0
-3564 -11259 0
-3564 11285 0
-11260 11285 0
-3564 -11260 11286 0
-11261 11286 0
-3564 -11261 11287 0
-11262 11287 0
-3564 -11262 11288 0
-11263 11288 0
-3564 -11263 11289 0
-11264 11289 0
-3564 -11264 11290 0
-11265 11290 0
-3564 -11265 11291 0
-11266 11291 0
-3564 -11266 11292 0
-11267 11292 0
-3564 -11267 11293 0
-11268 11293 0
-3564 -11268 11294 0
-11269 11294 0
-3564 -11269 11295 0
-11270 11295 0
-3564 -11270 11296 0
-11271 11296 0
-3564 -11271 11297 0
-11272 11297 0
-3564 -11272 11298 0
-11273 11298 0
-3564 -11273 11299 0
-11274 11299 0
-3564 -11274 11300 0
-11275 11300 0
-3564 -11275 11301 0
-11276 11301 0
-3564 -11276 11302 0
-11277 11302 0
-3564 -11277 11303 0
-11278 11303 0
-3564 -11278 11304 0
-11279 11304 0
-3564 -11279 11305 0
-11280 11305 0
-3564 -11280 11306 0
-11281 11306 0
-3564 -11281 11307 0
-11282 11307 0
-3564 -11282 11308 0
-11283 11308 0
-3564 -11283 11309 0
-11284 11309 0
-3564 -11284 0
-3564 11310 0
-11285 11310 0
-3564 -11285 11311 0
-11286 11311 0
-3564 -11286 11312 0
-11287 11312 0
-3564 -11287 11313 0
-11288 11313 0
-3564 -11288 11314 0
-11289 11314 0
-3564 -11289 11315 0
-11290 11315 0
-3564 -11290 11316 0
-11291 11316 0
-3564 -11291 11317 0
-11292 11317 0
-3564 -11292 11318 0
-11293 11318 0
-3564 -11293 11319 0
-11294 11319 0
-3564 -11294 11320 0
-11295 11320 0
-3564 -11295 11321 0
-11296 11321 0
-3564 -11296 11322 0
-11297 11322 0
-3564 -11297 11323 0
-11298 11323 0
-3564 -11298 11324 0
-11299 11324 0
-3564 -11299 11325 0
-11300 11325 0
-3564 -11300 11326 0
-11301 11326 0
-3564 -11301 11327 0
-11302 11327 0
-3564 -11302 11328 0
-11303 11328 0
-3564 -11303 11329 0
-11304 11329 0
-3564 -11304 11330 0
-11305 11330 0
-3564 -11305 11331 0
-11306 11331 0
-3564 -11306 11332 0
-11307 11332 0
-3564 -11307 11333 0
-11308 11333 0
-3564 -11308 11334 0
-11309 11334 0
-3564 -11309 0
-3565 11335 0
-11310 11335 0
-3565 -11310 11336 0
-11311 11336 0
-3565 -11311 11337 0
-11312 11337 0
-3565 -11312 11338 0
-11313 11338 0
-3565 -11313 11339 0
-11314 11339 0
-3565 -11314 11340 0
-11315 11340 0
-3565 -11315 11341 0
-11316 11341 0
-3565 -11316 11342 0
-11317 11342 0
-3565 -11317 11343 0
-11318 11343 0
-3565 -11318 11344 0
-11319 11344 0
-3565 -11319 11345 0
-11320 11345 0
-3565 -11320 11346 0
-11321 11346 0
-3565 -11321 11347 0
-11322 11347 0
-3565 -11322 11348 0
-11323 11348 0
-3565 -11323 11349 0
-11324 11349 0
-3565 -11324 11350 0
-11325 11350 0
-3565 -11325 11351 0
-11326 11351 0
-3565 -11326 11352 0
-11327 11352 0
-3565 -11327 11353 0
-11328 11353 0
-3565 -11328 11354 0
-11329 11354 0
-3565 -11329 11355 0
-11330 11355 0
-3565 -11330 11356 0
-11331 11356 0
-3565 -11331 11357 0
-11332 11357 0
-3565 -11332 11358 0
-11333 11358 0
-3565 -11333 11359 0
-11334 11359 0
-3565 -11334 0
-3565 11360 0
-11335 11360 0
-3565 -11335 11361 0
-11336 11361 0
-3565 -11336 11362 0
-11337 11362 0
-3565 -11337 11363 0
-11338 11363 0
-3565 -11338 11364 0
-11339 11364 0
-3565 -11339 11365 0
-11340 11365 0
-3565 -11340 11366 0
-11341 11366 0
-3565 -11341 11367 0
-11342 11367 0
-3565 -11342 11368 0
-11343 11368 0
-3565 -11343 11369 0
-11344 11369 0
-3565 -11344 11370 0
-11345 11370 0
-3565 -11345 11371 0
-11346 11371 0
-3565 -11346 11372 0
-11347 11372 0
-3565 -11347 11373 0
-11348 11373 0
-3565 -11348 11374 0
-11349 11374 0
-3565 -11349 11375 0
-11350 11375 0
-3565 -11350 11376 0
-11351 11376 0
-3565 -11351 11377 0
-11352 11377 0
-3565 -11352 11378 0
-11353 11378 0
-3565 -11353 11379 0
-11354 11379 0
-3565 -11354 11380 0
-11355 11380 0
-3565 -11355 11381 0
-11356 11381 0
-3565 -11356 11382 0
-11357 11382 0
-3565 -11357 11383 0
-11358 11383 0
-3565 -11358 11384 0
-11359 11384 0
-3565 -11359 0
-3575 11385 0
-11360 11385 0
-3575 -11360 11386 0
-11361 11386 0
-3575 -11361 11387 0
-11362 11387 0
-3575 -11362 11388 0
-11363 11388 0
-3575 -11363 11389 0
-11364 11389 0
-3575 -11364 11390 0
-11365 11390 0
-3575 -11365 11391 0
-11366 11391 0
-3575 -11366 11392 0
-11367 11392 0
-3575 -11367 11393 0
-11368 11393 0
-3575 -11368 11394 0
-11369 11394 0
-3575 -11369 11395 0
-11370 11395 0
-3575 -11370 11396 0
-11371 11396 0
-3575 -11371 11397 0
-11372 11397 0
-3575 -11372 11398 0
-11373 11398 0
-3575 -11373 11399 0
-11374 11399 0
-3575 -11374 11400 0
-11375 11400 0
-3575 -11375 11401 0
-11376 11401 0
-3575 -11376 11402 0
-11377 11402 0
-3575 -11377 11403 0
-11378 11403 0
-3575 -11378 11404 0
-11379 11404 0
-3575 -11379 11405 0
-11380 11405 0
-3575 -11380 11406 0
-11381 11406 0
-3575 -11381 11407 0
-11382 11407 0
-3575 -11382 11408 0
-11383 11408 0
-3575 -11383 11409 0
-11384 11409 0
-3575 -11384 0
-3575 11410 0
-11385 11410 0
-3575 -11385 11411 0
-11386 11411 0
-3575 -11386 11412 0
-11387 11412 0
-3575 -11387 11413 0
-11388 11413 0
-3575 -11388 11414 0
-11389 11414 0
-3575 -11389 11415 0
-11390 11415 0
-3575 -11390 11416 0
-11391 11416 0
-3575 -11391 11417 0
-11392 11417 0
-3575 -11392 11418 0
-11393 11418 0
-3575 -11393 11419 0
-11394 11419 0
-3575 -11394 11420 0
-11395 11420 0
-3575 -11395 11421 0
-11396 11421 0
-3575 -11396 11422 0
-11397 11422 0
-3575 -11397 11423 0
-11398 11423 0
-3575 -11398 11424 0
-11399 11424 0
-3575 -11399 11425 0
-11400 11425 0
-3575 -11400 11426 0
-11401 11426 0
-3575 -11401 11427 0
-11402 11427 0
-3575 -11402 11428 0
-11403 11428 0
-3575 -11403 11429 0
-11404 11429 0
-3575 -11404 11430 0
-11405 11430 0
-3575 -11405 11431 0
-11406 11431 0
-3575 -11406 11432 0
-11407 11432 0
-3575 -11407 11433 0
-11408 11433 0
-3575 -11408 11434 0
-11409 11434 0
-3575 -11409 0
-3575 11435 0
-11410 11435 0
-3575 -11410 11436 0
-11411 11436 0
-3575 -11411 11437 0
-11412 11437 0
-3575 -11412 11438 0
-11413 11438 0
-3575 -11413 11439 0
-11414 11439 0
-3575 -11414 11440 0
-11415 11440 0
-3575 -11415 11441 0
-11416 11441 0
-3575 -11416 11442 0
-11417 11442 0
-3575 -11417 11443 0
-11418 11443 0
-3575 -11418 11444 0
-11419 11444 0
-3575 -11419 11445 0
-11420 11445 0
-3575 -11420 11446 0
-11421 11446 0
-3575 -11421 11447 0
-11422 11447 0
-3575 -11422 11448 0
-11423 11448 0
-3575 -11423 11449 0
-11424 11449 0
-3575 -11424 11450 0
-11425 11450 0
-3575 -11425 11451 0
-11426 11451 0
-3575 -11426 11452 0
-11427 11452 0
-3575 -11427 11453 0
-11428 11453 0
-3575 -11428 11454 0
-11429 11454 0
-3575 -11429 11455 0
-11430 11455 0
-3575 -11430 11456 0
-11431 11456 0
-3575 -11431 11457 0
-11432 11457 0
-3575 -11432 11458 0
-11433 11458 0
-3575 -11433 11459 0
-11434 11459 0
-3575 -11434 0
-3576 11460 0
-11435 11460 0
-3576 -11435 11461 0
-11436 11461 0
-3576 -11436 11462 0
-11437 11462 0
-3576 -11437 11463 0
-11438 11463 0
-3576 -11438 11464 0
-11439 11464 0
-3576 -11439 11465 0
-11440 11465 0
-3576 -11440 11466 0
-11441 11466 0
-3576 -11441 11467 0
-11442 11467 0
-3576 -11442 11468 0
-11443 11468 0
-3576 -11443 11469 0
-11444 11469 0
-3576 -11444 11470 0
-11445 11470 0
-3576 -11445 11471 0
-11446 11471 0
-3576 -11446 11472 0
-11447 11472 0
-3576 -11447 11473 0
-11448 11473 0
-3576 -11448 11474 0
-11449 11474 0
-3576 -11449 11475 0
-11450 11475 0
-3576 -11450 11476 0
-11451 11476 0
-3576 -11451 11477 0
-11452 11477 0
-3576 -11452 11478 0
-11453 11478 0
-3576 -11453 11479 0
-11454 11479 0
-3576 -11454 11480 0
-11455 11480 0
-3576 -11455 11481 0
-11456 11481 0
-3576 -11456 11482 0
-11457 11482 0
-3576 -11457 11483 0
-11458 11483 0
-3576 -11458 11484 0
-11459 11484 0
-3576 -11459 0
-3576 11485 0
-11460 11485 0
-3576 -11460 11486 0
-11461 11486 0
-3576 -11461 11487 0
-11462 11487 0
-3576 -11462 11488 0
-11463 11488 0
-3576 -11463 11489 0
-11464 11489 0
-3576 -11464 11490 0
-11465 11490 0
-3576 -11465 11491 0
-11466 11491 0
-3576 -11466 11492 0
-11467 11492 0
-3576 -11467 11493 0
-11468 11493 0
-3576 -11468 11494 0
-11469 11494 0
-3576 -11469 11495 0
-11470 11495 0
-3576 -11470 11496 0
-11471 11496 0
-3576 -11471 11497 0
-11472 11497 0
-3576 -11472 11498 0
-11473 11498 0
-3576 -11473 11499 0
-11474 11499 0
-3576 -11474 11500 0
-11475 11500 0
-3576 -11475 11501 0
-11476 11501 0
-3576 -11476 11502 0
-11477 11502 0
-3576 -11477 11503 0
-11478 11503 0
-3576 -11478 11504 0
-11479 11504 0
-3576 -11479 11505 0
-11480 11505 0
-3576 -11480 11506 0
-11481 11506 0
-3576 -11481 11507 0
-11482 11507 0
-3576 -11482 11508 0
-11483 11508 0
-3576 -11483 11509 0
-11484 11509 0
-3576 -11484 0
-3586 11510 0
-11485 11510 0
-3586 -11485 11511 0
-11486 11511 0
-3586 -11486 11512 0
-11487 11512 0
-3586 -11487 11513 0
-11488 11513 0
-3586 -11488 11514 0
-11489 11514 0
-3586 -11489 11515 0
-11490 11515 0
-3586 -11490 11516 0
-11491 11516 0
-3586 -11491 11517 0
-11492 11517 0
-3586 -11492 11518 0
-11493 11518 0
-3586 -11493 11519 0
-11494 11519 0
-3586 -11494 11520 0
-11495 11520 0
-3586 -11495 11521 0
-11496 11521 0
-3586 -11496 11522 0
-11497 11522 0
-3586 -11497 11523 0
-11498 11523 0
-3586 -11498 11524 0
-11499 11524 0
-3586 -11499 11525 0
-11500 11525 0
-3586 -11500 11526 0
-11501 11526 0
-3586 -11501 11527 0
-11502 11527 0
-3586 -11502 11528 0
-11503 11528 0
-3586 -11503 11529 0
-11504 11529 0
-3586 -11504 11530 0
-11505 11530 0
-3586 -11505 11531 0
-11506 11531 0
-3586 -11506 11532 0
-11507 11532 0
-3586 -11507 11533 0
-11508 11533 0
-3586 -11508 11534 0
-11509 11534 0
-3586 -11509 0
-3586 11535 0
-11510 11535 0
-3586 -11510 11536 0
-11511 11536 0
-3586 -11511 11537 0
-11512 11537 0
-3586 -11512 11538 0
-11513 11538 0
-3586 -11513 11539 0
-11514 11539 0
-3586 -11514 11540 0
-11515 11540 0
-3586 -11515 11541 0
-11516 11541 0
-3586 -11516 11542 0
-11517 11542 0
-3586 -11517 11543 0
-11518 11543 0
-3586 -11518 11544 0
-11519 11544 0
-3586 -11519 11545 0
-11520 11545 0
-3586 -11520 11546 0
-11521 11546 0
-3586 -11521 11547 0
-11522 11547 0
-3586 -11522 11548 0
-11523 11548 0
-3586 -11523 11549 0
-11524 11549 0
-3586 -11524 11550 0
-11525 11550 0
-3586 -11525 11551 0
-11526 11551 0
-3586 -11526 11552 0
-11527 11552 0
-3586 -11527 11553 0
-11528 11553 0
-3586 -11528 11554 0
-11529 11554 0
-3586 -11529 11555 0
-11530 11555 0
-3586 -11530 11556 0
-11531 11556 0
-3586 -11531 11557 0
-11532 11557 0
-3586 -11532 11558 0
-11533 11558 0
-3586 -11533 11559 0
-11534 11559 0
-3586 -11534 0
-3586 11560 0
-11535 11560 0
-3586 -11535 11561 0
-11536 11561 0
-3586 -11536 11562 0
-11537 11562 0
-3586 -11537 11563 0
-11538 11563 0
-3586 -11538 11564 0
-11539 11564 0
-3586 -11539 11565 0
-11540 11565 0
-3586 -11540 11566 0
-11541 11566 0
-3586 -11541 11567 0
-11542 11567 0
-3586 -11542 11568 0
-11543 11568 0
-3586 -11543 11569 0
-11544 11569 0
-3586 -11544 11570 0
-11545 11570 0
-3586 -11545 11571 0
-11546 11571 0
-3586 -11546 11572 0
-11547 11572 0
-3586 -11547 11573 0
-11548 11573 0
-3586 -11548 11574 0
-11549 11574 0
-3586 -11549 11575 0
-11550 11575 0
-3586 -11550 11576 0
-11551 11576 0
-3586 -11551 11577 0
-11552 11577 0
-3586 -11552 11578 0
-11553 11578 0
-3586 -11553 11579 0
-11554 11579 0
-3586 -11554 11580 0
-11555 11580 0
-3586 -11555 11581 0
-11556 11581 0
-3586 -11556 11582 0
-11557 11582 0
-3586 -11557 11583 0
-11558 11583 0
-3586 -11558 11584 0
-11559 11584 0
-3586 -11559 0
-3587 11585 0
-11560 11585 0
-3587 -11560 11586 0
-11561 11586 0
-3587 -11561 11587 0
-11562 11587 0
-3587 -11562 11588 0
-11563 11588 0
-3587 -11563 11589 0
-11564 11589 0
-3587 -11564 11590 0
-11565 11590 0
-3587 -11565 11591 0
-11566 11591 0
-3587 -11566 11592 0
-11567 11592 0
-3587 -11567 11593 0
-11568 11593 0
-3587 -11568 11594 0
-11569 11594 0
-3587 -11569 11595 0
-11570 11595 0
-3587 -11570 11596 0
-11571 11596 0
-3587 -11571 11597 0
-11572 11597 0
-3587 -11572 11598 0
-11573 11598 0
-3587 -11573 11599 0
-11574 11599 0
-3587 -11574 11600 0
-11575 11600 0
-3587 -11575 11601 0
-11576 11601 0
-3587 -11576 11602 0
-11577 11602 0
-3587 -11577 11603 0
-11578 11603 0
-3587 -11578 11604 0
-11579 11604 0
-3587 -11579 11605 0
-11580 11605 0
-3587 -11580 11606 0
-11581 11606 0
-3587 -11581 11607 0
-11582 11607 0
-3587 -11582 11608 0
-11583 11608 0
-3587 -11583 11609 0
-11584 11609 0
-3587 -11584 0
-3587 11610 0
-11585 11610 0
-3587 -11585 11611 0
-11586 11611 0
-3587 -11586 11612 0
-11587 11612 0
-3587 -11587 11613 0
-11588 11613 0
-3587 -11588 11614 0
-11589 11614 0
-3587 -11589 11615 0
-11590 11615 0
-3587 -11590 11616 0
-11591 11616 0
-3587 -11591 11617 0
-11592 11617 0
-3587 -11592 11618 0
-11593 11618 0
-3587 -11593 11619 0
-11594 11619 0
-3587 -11594 11620 0
-11595 11620 0
-3587 -11595 11621 0
-11596 11621 0
-3587 -11596 11622 0
-11597 11622 0
-3587 -11597 11623 0
-11598 11623 0
-3587 -11598 11624 0
-11599 11624 0
-3587 -11599 11625 0
-11600 11625 0
-3587 -11600 11626 0
-11601 11626 0
-3587 -11601 11627 0
-11602 11627 0
-3587 -11602 11628 0
-11603 11628 0
-3587 -11603 11629 0
-11604 11629 0
-3587 -11604 11630 0
-11605 11630 0
-3587 -11605 11631 0
-11606 11631 0
-3587 -11606 11632 0
-11607 11632 0
-3587 -11607 11633 0
-11608 11633 0
-3587 -11608 11634 0
-11609 11634 0
-3587 -11609 0
-3597 11635 0
-11610 11635 0
-3597 -11610 11636 0
-11611 11636 0
-3597 -11611 11637 0
-11612 11637 0
-3597 -11612 11638 0
-11613 11638 0
-3597 -11613 11639 0
-11614 11639 0
-3597 -11614 11640 0
-11615 11640 0
-3597 -11615 11641 0
-11616 11641 0
-3597 -11616 11642 0
-11617 11642 0
-3597 -11617 11643 0
-11618 11643 0
-3597 -11618 11644 0
-11619 11644 0
-3597 -11619 11645 0
-11620 11645 0
-3597 -11620 11646 0
-11621 11646 0
-3597 -11621 11647 0
-11622 11647 0
-3597 -11622 11648 0
-11623 11648 0
-3597 -11623 11649 0
-11624 11649 0
-3597 -11624 11650 0
-11625 11650 0
-3597 -11625 11651 0
-11626 11651 0
-3597 -11626 11652 0
-11627 11652 0
-3597 -11627 11653 0
-11628 11653 0
-3597 -11628 11654 0
-11629 11654 0
-3597 -11629 11655 0
-11630 11655 0
-3597 -11630 11656 0
-11631 11656 0
-3597 -11631 11657 0
-11632 11657 0
-3597 -11632 11658 0
-11633 11658 0
-3597 -11633 11659 0
-11634 11659 0
-3597 -11634 0
-3597 11660 0
-11635 11660 0
-3597 -11635 11661 0
-11636 11661 0
-3597 -11636 11662 0
-11637 11662 0
-3597 -11637 11663 0
-11638 11663 0
-3597 -11638 11664 0
-11639 11664 0
-3597 -11639 11665 0
-11640 11665 0
-3597 -11640 11666 0
-11641 11666 0
-3597 -11641 11667 0
-11642 11667 0
-3597 -11642 11668 0
-11643 11668 0
-3597 -11643 11669 0
-11644 11669 0
-3597 -11644 11670 0
-11645 11670 0
-3597 -11645 11671 0
-11646 11671 0
-3597 -11646 11672 0
-11647 11672 0
-3597 -11647 11673 0
-11648 11673 0
-3597 -11648 11674 0
-11649 11674 0
-3597 -11649 11675 0
-11650 11675 0
-3597 -11650 11676 0
-11651 11676 0
-3597 -11651 11677 0
-11652 11677 0
-3597 -11652 11678 0
-11653 11678 0
-3597 -11653 11679 0
-11654 11679 0
-3597 -11654 11680 0
-11655 11680 0
-3597 -11655 11681 0
-11656 11681 0
-3597 -11656 11682 0
-11657 11682 0
-3597 -11657 11683 0
-11658 11683 0
-3597 -11658 11684 0
-11659 11684 0
-3597 -11659 0
-3597 11685 0
-11660 11685 0
-3597 -11660 11686 0
-11661 11686 0
-3597 -11661 11687 0
-11662 11687 0
-3597 -11662 11688 0
-11663 11688 0
-3597 -11663 11689 0
-11664 11689 0
-3597 -11664 11690 0
-11665 11690 0
-3597 -11665 11691 0
-11666 11691 0
-3597 -11666 11692 0
-11667 11692 0
-3597 -11667 11693 0
-11668 11693 0
-3597 -11668 11694 0
-11669 11694 0
-3597 -11669 11695 0
-11670 11695 0
-3597 -11670 11696 0
-11671 11696 0
-3597 -11671 11697 0
-11672 11697 0
-3597 -11672 11698 0
-11673 11698 0
-3597 -11673 11699 0
-11674 11699 0
-3597 -11674 11700 0
-11675 11700 0
-3597 -11675 11701 0
-11676 11701 0
-3597 -11676 11702 0
-11677 11702 0
-3597 -11677 11703 0
-11678 11703 0
-3597 -11678 11704 0
-11679 11704 0
-3597 -11679 11705 0
-11680 11705 0
-3597 -11680 11706 0
-11681 11706 0
-3597 -11681 11707 0
-11682 11707 0
-3597 -11682 11708 0
-11683 11708 0
-3597 -11683 11709 0
-11684 11709 0
-3597 -11684 0
-3598 11710 0
-11685 11710 0
-3598 -11685 11711 0
-11686 11711 0
-3598 -11686 11712 0
-11687 11712 0
-3598 -11687 11713 0
-11688 11713 0
-3598 -11688 11714 0
-11689 11714 0
-3598 -11689 11715 0
-11690 11715 0
-3598 -11690 11716 0
-11691 11716 0
-3598 -11691 11717 0
-11692 11717 0
-3598 -11692 11718 0
-11693 11718 0
-3598 -11693 11719 0
-11694 11719 0
-3598 -11694 11720 0
-11695 11720 0
-3598 -11695 11721 0
-11696 11721 0
-3598 -11696 11722 0
-11697 11722 0
-3598 -11697 11723 0
-11698 11723 0
-3598 -11698 11724 0
-11699 11724 0
-3598 -11699 11725 0
-11700 11725 0
-3598 -11700 11726 0
-11701 11726 0
-3598 -11701 11727 0
-11702 11727 0
-3598 -11702 11728 0
-11703 11728 0
-3598 -11703 11729 0
-11704 11729 0
-3598 -11704 11730 0
-11705 11730 0
-3598 -11705 11731 0
-11706 11731 0
-3598 -11706 11732 0
-11707 11732 0
-3598 -11707 11733 0
-11708 11733 0
-3598 -11708 11734 0
-11709 11734 0
-3598 -11709 0
-3598 11735 0
-11710 11735 0
-3598 -11710 11736 0
-11711 11736 0
-3598 -11711 11737 0
-11712 11737 0
-3598 -11712 11738 0
-11713 11738 0
-3598 -11713 11739 0
-11714 11739 0
-3598 -11714 11740 0
-11715 11740 0
-3598 -11715 11741 0
-11716 11741 0
-3598 -11716 11742 0
-11717 11742 0
-3598 -11717 11743 0
-11718 11743 0
-3598 -11718 11744 0
-11719 11744 0
-3598 -11719 11745 0
-11720 11745 0
-3598 -11720 11746 0
-11721 11746 0
-3598 -11721 11747 0
-11722 11747 0
-3598 -11722 11748 0
-11723 11748 0
-3598 -11723 11749 0
-11724 11749 0
-3598 -11724 11750 0
-11725 11750 0
-3598 -11725 11751 0
-11726 11751 0
-3598 -11726 11752 0
-11727 11752 0
-3598 -11727 11753 0
-11728 11753 0
-3598 -11728 11754 0
-11729 11754 0
-3598 -11729 11755 0
-11730 11755 0
-3598 -11730 11756 0
-11731 11756 0
-3598 -11731 11757 0
-11732 11757 0
-3598 -11732 11758 0
-11733 11758 0
-3598 -11733 11759 0
-11734 11759 0
-3598 -11734 0
-3608 11760 0
-11735 11760 0
-3608 -11735 11761 0
-11736 11761 0
-3608 -11736 11762 0
-11737 11762 0
-3608 -11737 11763 0
-11738 11763 0
-3608 -11738 11764 0
-11739 11764 0
-3608 -11739 11765 0
-11740 11765 0
-3608 -11740 11766 0
-11741 11766 0
-3608 -11741 11767 0
-11742 11767 0
-3608 -11742 11768 0
-11743 11768 0
-3608 -11743 11769 0
-11744 11769 0
-3608 -11744 11770 0
-11745 11770 0
-3608 -11745 11771 0
-11746 11771 0
-3608 -11746 11772 0
-11747 11772 0
-3608 -11747 11773 0
-11748 11773 0
-3608 -11748 11774 0
-11749 11774 0
-3608 -11749 11775 0
-11750 11775 0
-3608 -11750 11776 0
-11751 11776 0
-3608 -11751 11777 0
-11752 11777 0
-3608 -11752 11778 0
-11753 11778 0
-3608 -11753 11779 0
-11754 11779 0
-3608 -11754 11780 0
-11755 11780 0
-3608 -11755 11781 0
-11756 11781 0
-3608 -11756 11782 0
-11757 11782 0
-3608 -11757 11783 0
-11758 11783 0
-3608 -11758 11784 0
-11759 11784 0
-3608 -11759 0
-3608 11785 0
-11760 11785 0
-3608 -11760 11786 0
-11761 11786 0
-3608 -11761 11787 0
-11762 11787 0
-3608 -11762 11788 0
-11763 11788 0
-3608 -11763 11789 0
-11764 11789 0
-3608 -11764 11790 0
-11765 11790 0
-3608 -11765 11791 0
-11766 11791 0
-3608 -11766 11792 0
-11767 11792 0
-3608 -11767 11793 0
-11768 11793 0
-3608 -11768 11794 0
-11769 11794 0
-3608 -11769 11795 0
-11770 11795 0
-3608 -11770 11796 0
-11771 11796 0
-3608 -11771 11797 0
-11772 11797 0
-3608 -11772 11798 0
-11773 11798 0
-3608 -11773 11799 0
-11774 11799 0
-3608 -11774 11800 0
-11775 11800 0
-3608 -11775 11801 0
-11776 11801 0
-3608 -11776 11802 0
-11777 11802 0
-3608 -11777 11803 0
-11778 11803 0
-3608 -11778 11804 0
-11779 11804 0
-3608 -11779 11805 0
-11780 11805 0
-3608 -11780 11806 0
-11781 11806 0
-3608 -11781 11807 0
-11782 11807 0
-3608 -11782 11808 0
-11783 11808 0
-3608 -11783 11809 0
-11784 11809 0
-3608 -11784 0
-3608 11810 0
-11785 11810 0
-3608 -11785 11811 0
-11786 11811 0
-3608 -11786 11812 0
-11787 11812 0
-3608 -11787 11813 0
-11788 11813 0
-3608 -11788 11814 0
-11789 11814 0
-3608 -11789 11815 0
-11790 11815 0
-3608 -11790 11816 0
-11791 11816 0
-3608 -11791 11817 0
-11792 11817 0
-3608 -11792 11818 0
-11793 11818 0
-3608 -11793 11819 0
-11794 11819 0
-3608 -11794 11820 0
-11795 11820 0
-3608 -11795 11821 0
-11796 11821 0
-3608 -11796 11822 0
-11797 11822 0
-3608 -11797 11823 0
-11798 11823 0
-3608 -11798 11824 0
-11799 11824 0
-3608 -11799 11825 0
-11800 11825 0
-3608 -11800 11826 0
-11801 11826 0
-3608 -11801 11827 0
-11802 11827 0
-3608 -11802 11828 0
-11803 11828 0
-3608 -11803 11829 0
-11804 11829 0
-3608 -11804 11830 0
-11805 11830 0
-3608 -11805 11831 0
-11806 11831 0
-3608 -11806 11832 0
-11807 11832 0
-3608 -11807 11833 0
-11808 11833 0
-3608 -11808 11834 0
-11809 11834 0
-3608 -11809 0
-3609 11835 0
-11810 11835 0
-3609 -11810 11836 0
-11811 11836 0
-3609 -11811 11837 0
-11812 11837 0
-3609 -11812 11838 0
-11813 11838 0
-3609 -11813 11839 0
-11814 11839 0
-3609 -11814 11840 0
-11815 11840 0
-3609 -11815 11841 0
-11816 11841 0
-3609 -11816 11842 0
-11817 11842 0
-3609 -11817 11843 0
-11818 11843 0
-3609 -11818 11844 0
-11819 11844 0
-3609 -11819 11845 0
-11820 11845 0
-3609 -11820 11846 0
-11821 11846 0
-3609 -11821 11847 0
-11822 11847 0
-3609 -11822 11848 0
-11823 11848 0
-3609 -11823 11849 0
-11824 11849 0
-3609 -11824 11850 0
-11825 11850 0
-3609 -11825 11851 0
-11826 11851 0
-3609 -11826 11852 0
-11827 11852 0
-3609 -11827 11853 0
-11828 11853 0
-3609 -11828 11854 0
-11829 11854 0
-3609 -11829 11855 0
-11830 11855 0
-3609 -11830 11856 0
-11831 11856 0
-3609 -11831 11857 0
-11832 11857 0
-3609 -11832 11858 0
-11833 11858 0
-3609 -11833 11859 0
-11834 11859 0
-3609 -11834 0
-3609 11860 0
-11835 11860 0
-3609 -11835 11861 0
-11836 11861 0
-3609 -11836 11862 0
-11837 11862 0
-3609 -11837 11863 0
-11838 11863 0
-3609 -11838 11864 0
-11839 11864 0
-3609 -11839 11865 0
-11840 11865 0
-3609 -11840 11866 0
-11841 11866 0
-3609 -11841 11867 0
-11842 11867 0
-3609 -11842 11868 0
-11843 11868 0
-3609 -11843 11869 0
-11844 11869 0
-3609 -11844 11870 0
-11845 11870 0
-3609 -11845 11871 0
-11846 11871 0
-3609 -11846 11872 0
-11847 11872 0
-3609 -11847 11873 0
-11848 11873 0
-3609 -11848 11874 0
-11849 11874 0
-3609 -11849 11875 0
-11850 11875 0
-3609 -11850 11876 0
-11851 11876 0
-3609 -11851 11877 0
-11852 11877 0
-3609 -11852 11878 0
-11853 11878 0
-3609 -11853 11879 0
-11854 11879 0
-3609 -11854 11880 0
-11855 11880 0
-3609 -11855 11881 0
-11856 11881 0
-3609 -11856 11882 0
-11857 11882 0
-3609 -11857 11883 0
-11858 11883 0
-3609 -11858 11884 0
-11859 11884 0
-3609 -11859 0
-3619 11885 0
-11860 11885 0
-3619 -11860 11886 0
-11861 11886 0
-3619 -11861 11887 0
-11862 11887 0
-3619 -11862 11888 0
-11863 11888 0
-3619 -11863 11889 0
-11864 11889 0
-3619 -11864 11890 0
-11865 11890 0
-3619 -11865 11891 0
-11866 11891 0
-3619 -11866 11892 0
-11867 11892 0
-3619 -11867 11893 0
-11868 11893 0
-3619 -11868 11894 0
-11869 11894 0
-3619 -11869 11895 0
-11870 11895 0
-3619 -11870 11896 0
-11871 11896 0
-3619 -11871 11897 0
-11872 11897 0
-3619 -11872 11898 0
-11873 11898 0
-3619 -11873 11899 0
-11874 11899 0
-3619 -11874 11900 0
-11875 11900 0
-3619 -11875 11901 0
-11876 11901 0
-3619 -11876 11902 0
-11877 11902 0
-3619 -11877 11903 0
-11878 11903 0
-3619 -11878 11904 0
-11879 11904 0
-3619 -11879 11905 0
-11880 11905 0
-3619 -11880 11906 0
-11881 11906 0
-3619 -11881 11907 0
-11882 11907 0
-3619 -11882 11908 0
-11883 11908 0
-3619 -11883 11909 0
-11884 11909 0
-3619 -11884 0
-3619 11910 0
-11885 11910 0
-3619 -11885 11911 0
-11886 11911 0
-3619 -11886 11912 0
-11887 11912 0
-3619 -11887 11913 0
-11888 11913 0
-3619 -11888 11914 0
-11889 11914 0
-3619 -11889 11915 0
-11890 11915 0
-3619 -11890 11916 0
-11891 11916 0
-3619 -11891 11917 0
-11892 11917 0
-3619 -11892 11918 0
-11893 11918 0
-3619 -11893 11919 0
-11894 11919 0
-3619 -11894 11920 0
-11895 11920 0
-3619 -11895 11921 0
-11896 11921 0
-3619 -11896 11922 0
-11897 11922 0
-3619 -11897 11923 0
-11898 11923 0
-3619 -11898 11924 0
-11899 11924 0
-3619 -11899 11925 0
-11900 11925 0
-3619 -11900 11926 0
-11901 11926 0
-3619 -11901 11927 0
-11902 11927 0
-3619 -11902 11928 0
-11903 11928 0
-3619 -11903 11929 0
-11904 11929 0
-3619 -11904 11930 0
-11905 11930 0
-3619 -11905 11931 0
-11906 11931 0
-3619 -11906 11932 0
-11907 11932 0
-3619 -11907 11933 0
-11908 11933 0
-3619 -11908 11934 0
-11909 11934 0
-3619 -11909 0
-3619 11935 0
-11910 11935 0
-3619 -11910 11936 0
-11911 11936 0
-3619 -11911 11937 0
-11912 11937 0
-3619 -11912 11938 0
-11913 11938 0
-3619 -11913 11939 0
-11914 11939 0
-3619 -11914 11940 0
-11915 11940 0
-3619 -11915 11941 0
-11916 11941 0
-3619 -11916 11942 0
-11917 11942 0
-3619 -11917 11943 0
-11918 11943 0
-3619 -11918 11944 0
-11919 11944 0
-3619 -11919 11945 0
-11920 11945 0
-3619 -11920 11946 0
-11921 11946 0
-3619 -11921 11947 0
-11922 11947 0
-3619 -11922 11948 0
-11923 11948 0
-3619 -11923 11949 0
-11924 11949 0
-3619 -11924 11950 0
-11925 11950 0
-3619 -11925 11951 0
-11926 11951 0
-3619 -11926 11952 0
-11927 11952 0
-3619 -11927 11953 0
-11928 11953 0
-3619 -11928 11954 0
-11929 11954 0
-3619 -11929 11955 0
-11930 11955 0
-3619 -11930 11956 0
-11931 11956 0
-3619 -11931 11957 0
-11932 11957 0
-3619 -11932 11958 0
-11933 11958 0
-3619 -11933 11959 0
-11934 11959 0
-3619 -11934 0
-3620 11960 0
-11935 11960 0
-3620 -11935 11961 0
-11936 11961 0
-3620 -11936 11962 0
-11937 11962 0
-3620 -11937 11963 0
-11938 11963 0
-3620 -11938 11964 0
-11939 11964 0
-3620 -11939 11965 0
-11940 11965 0
-3620 -11940 11966 0
-11941 11966 0
-3620 -11941 11967 0
-11942 11967 0
-3620 -11942 11968 0
-11943 11968 0
-3620 -11943 11969 0
-11944 11969 0
-3620 -11944 11970 0
-11945 11970 0
-3620 -11945 11971 0
-11946 11971 0
-3620 -11946 11972 0
-11947 11972 0
-3620 -11947 11973 0
-11948 11973 0
-3620 -11948 11974 0
-11949 11974 0
-3620 -11949 11975 0
-11950 11975 0
-3620 -11950 11976 0
-11951 11976 0
-3620 -11951 11977 0
-11952 11977 0
-3620 -11952 11978 0
-11953 11978 0
-3620 -11953 11979 0
-11954 11979 0
-3620 -11954 11980 0
-11955 11980 0
-3620 -11955 11981 0
-11956 11981 0
-3620 -11956 11982 0
-11957 11982 0
-3620 -11957 11983 0
-11958 11983 0
-3620 -11958 11984 0
-11959 11984 0
-3620 -11959 0
-3620 11985 0
-11960 11985 0
-3620 -11960 11986 0
-11961 11986 0
-3620 -11961 11987 0
-11962 11987 0
-3620 -11962 11988 0
-11963 11988 0
-3620 -11963 11989 0
-11964 11989 0
-3620 -11964 11990 0
-11965 11990 0
-3620 -11965 11991 0
-11966 11991 0
-3620 -11966 11992 0
-11967 11992 0
-3620 -11967 11993 0
-11968 11993 0
-3620 -11968 11994 0
-11969 11994 0
-3620 -11969 11995 0
-11970 11995 0
-3620 -11970 11996 0
-11971 11996 0
-3620 -11971 11997 0
-11972 11997 0
-3620 -11972 11998 0
-11973 11998 0
-3620 -11973 11999 0
-11974 11999 0
-3620 -11974 12000 0
-11975 12000 0
-3620 -11975 12001 0
-11976 12001 0
-3620 -11976 12002 0
-11977 12002 0
-3620 -11977 12003 0
-11978 12003 0
-3620 -11978 12004 0
-11979 12004 0
-3620 -11979 12005 0
-11980 12005 0
-3620 -11980 12006 0
-11981 12006 0
-3620 -11981 12007 0
-11982 12007 0
-3620 -11982 12008 0
-11983 12008 0
-3620 -11983 12009 0
-11984 12009 0
-3620 -11984 0
-3630 12010 0
-11985 12010 0
-3630 -11985 12011 0
-11986 12011 0
-3630 -11986 12012 0
-11987 12012 0
-3630 -11987 12013 0
-11988 12013 0
-3630 -11988 12014 0
-11989 12014 0
-3630 -11989 12015 0
-11990 12015 0
-3630 -11990 12016 0
-11991 12016 0
-3630 -11991 12017 0
-11992 12017 0
-3630 -11992 12018 0
-11993 12018 0
-3630 -11993 12019 0
-11994 12019 0
-3630 -11994 12020 0
-11995 12020 0
-3630 -11995 12021 0
-11996 12021 0
-3630 -11996 12022 0
-11997 12022 0
-3630 -11997 12023 0
-11998 12023 0
-3630 -11998 12024 0
-11999 12024 0
-3630 -11999 12025 0
-12000 12025 0
-3630 -12000 12026 0
-12001 12026 0
-3630 -12001 12027 0
-12002 12027 0
-3630 -12002 12028 0
-12003 12028 0
-3630 -12003 12029 0
-12004 12029 0
-3630 -12004 12030 0
-12005 12030 0
-3630 -12005 12031 0
-12006 12031 0
-3630 -12006 12032 0
-12007 12032 0
-3630 -12007 12033 0
-12008 12033 0
-3630 -12008 12034 0
-12009 12034 0
-3630 -12009 0
-3630 12035 0
-12010 12035 0
-3630 -12010 12036 0
-12011 12036 0
-3630 -12011 12037 0
-12012 12037 0
-3630 -12012 12038 0
-12013 12038 0
-3630 -12013 12039 0
-12014 12039 0
-3630 -12014 12040 0
-12015 12040 0
-3630 -12015 12041 0
-12016 12041 0
-3630 -12016 12042 0
-12017 12042 0
-3630 -12017 12043 0
-12018 12043 0
-3630 -12018 12044 0
-12019 12044 0
-3630 -12019 12045 0
-12020 12045 0
-3630 -12020 12046 0
-12021 12046 0
-3630 -12021 12047 0
-12022 12047 0
-3630 -12022 12048 0
-12023 12048 0
-3630 -12023 12049 0
-12024 12049 0
-3630 -12024 12050 0
-12025 12050 0
-3630 -12025 12051 0
-12026 12051 0
-3630 -12026 12052 0
-12027 12052 0
-3630 -12027 12053 0
-12028 12053 0
-3630 -12028 12054 0
-12029 12054 0
-3630 -12029 12055 0
-12030 12055 0
-3630 -12030 12056 0
-12031 12056 0
-3630 -12031 12057 0
-12032 12057 0
-3630 -12032 12058 0
-12033 12058 0
-3630 -12033 12059 0
-12034 12059 0
-3630 -12034 0
-3630 12060 0
-12035 12060 0
-3630 -12035 12061 0
-12036 12061 0
-3630 -12036 12062 0
-12037 12062 0
-3630 -12037 12063 0
-12038 12063 0
-3630 -12038 12064 0
-12039 12064 0
-3630 -12039 12065 0
-12040 12065 0
-3630 -12040 12066 0
-12041 12066 0
-3630 -12041 12067 0
-12042 12067 0
-3630 -12042 12068 0
-12043 12068 0
-3630 -12043 12069 0
-12044 12069 0
-3630 -12044 12070 0
-12045 12070 0
-3630 -12045 12071 0
-12046 12071 0
-3630 -12046 12072 0
-12047 12072 0
-3630 -12047 12073 0
-12048 12073 0
-3630 -12048 12074 0
-12049 12074 0
-3630 -12049 12075 0
-12050 12075 0
-3630 -12050 12076 0
-12051 12076 0
-3630 -12051 12077 0
-12052 12077 0
-3630 -12052 12078 0
-12053 12078 0
-3630 -12053 12079 0
-12054 12079 0
-3630 -12054 12080 0
-12055 12080 0
-3630 -12055 12081 0
-12056 12081 0
-3630 -12056 12082 0
-12057 12082 0
-3630 -12057 12083 0
-12058 12083 0
-3630 -12058 12084 0
-12059 12084 0
-3630 -12059 0
-3631 12085 0
-12060 12085 0
-3631 -12060 12086 0
-12061 12086 0
-3631 -12061 12087 0
-12062 12087 0
-3631 -12062 12088 0
-12063 12088 0
-3631 -12063 12089 0
-12064 12089 0
-3631 -12064 12090 0
-12065 12090 0
-3631 -12065 12091 0
-12066 12091 0
-3631 -12066 12092 0
-12067 12092 0
-3631 -12067 12093 0
-12068 12093 0
-3631 -12068 12094 0
-12069 12094 0
-3631 -12069 12095 0
-12070 12095 0
-3631 -12070 12096 0
-12071 12096 0
-3631 -12071 12097 0
-12072 12097 0
-3631 -12072 12098 0
-12073 12098 0
-3631 -12073 12099 0
-12074 12099 0
-3631 -12074 12100 0
-12075 12100 0
-3631 -12075 12101 0
-12076 12101 0
-3631 -12076 12102 0
-12077 12102 0
-3631 -12077 12103 0
-12078 12103 0
-3631 -12078 12104 0
-12079 12104 0
-3631 -12079 12105 0
-12080 12105 0
-3631 -12080 12106 0
-12081 12106 0
-3631 -12081 12107 0
-12082 12107 0
-3631 -12082 12108 0
-12083 12108 0
-3631 -12083 12109 0
-12084 12109 0
-3631 -12084 0
-3631 12110 0
-12085 12110 0
-3631 -12085 12111 0
-12086 12111 0
-3631 -12086 12112 0
-12087 12112 0
-3631 -12087 12113 0
-12088 12113 0
-3631 -12088 12114 0
-12089 12114 0
-3631 -12089 12115 0
-12090 12115 0
-3631 -12090 12116 0
-12091 12116 0
-3631 -12091 12117 0
-12092 12117 0
-3631 -12092 12118 0
-12093 12118 0
-3631 -12093 12119 0
-12094 12119 0
-3631 -12094 12120 0
-12095 12120 0
-3631 -12095 12121 0
-12096 12121 0
-3631 -12096 12122 0
-12097 12122 0
-3631 -12097 12123 0
-12098 12123 0
-3631 -12098 12124 0
-12099 12124 0
-3631 -12099 12125 0
-12100 12125 0
-3631 -12100 12126 0
-12101 12126 0
-3631 -12101 12127 0
-12102 12127 0
-3631 -12102 12128 0
-12103 12128 0
-3631 -12103 12129 0
-12104 12129 0
-3631 -12104 12130 0
-12105 12130 0
-3631 -12105 12131 0
-12106 12131 0
-3631 -12106 12132 0
-12107 12132 0
-3631 -12107 12133 0
-12108 12133 0
-3631 -12108 12134 0
-12109 12134 0
-3631 -12109 0
-3641 12135 0
-12110 12135 0
-3641 -12110 12136 0
-12111 12136 0
-3641 -12111 12137 0
-12112 12137 0
-3641 -12112 12138 0
-12113 12138 0
-3641 -12113 12139 0
-12114 12139 0
-3641 -12114 12140 0
-12115 12140 0
-3641 -12115 12141 0
-12116 12141 0
-3641 -12116 12142 0
-12117 12142 0
-3641 -12117 12143 0
-12118 12143 0
-3641 -12118 12144 0
-12119 12144 0
-3641 -12119 12145 0
-12120 12145 0
-3641 -12120 12146 0
-12121 12146 0
-3641 -12121 12147 0
-12122 12147 0
-3641 -12122 12148 0
-12123 12148 0
-3641 -12123 12149 0
-12124 12149 0
-3641 -12124 12150 0
-12125 12150 0
-3641 -12125 12151 0
-12126 12151 0
-3641 -12126 12152 0
-12127 12152 0
-3641 -12127 12153 0
-12128 12153 0
-3641 -12128 12154 0
-12129 12154 0
-3641 -12129 12155 0
-12130 12155 0
-3641 -12130 12156 0
-12131 12156 0
-3641 -12131 12157 0
-12132 12157 0
-3641 -12132 12158 0
-12133 12158 0
-3641 -12133 12159 0
-12134 12159 0
-3641 -12134 0
-3641 12160 0
-12135 12160 0
-3641 -12135 12161 0
-12136 12161 0
-3641 -12136 12162 0
-12137 12162 0
-3641 -12137 12163 0
-12138 12163 0
-3641 -12138 12164 0
-12139 12164 0
-3641 -12139 12165 0
-12140 12165 0
-3641 -12140 12166 0
-12141 12166 0
-3641 -12141 12167 0
-12142 12167 0
-3641 -12142 12168 0
-12143 12168 0
-3641 -12143 12169 0
-12144 12169 0
-3641 -12144 12170 0
-12145 12170 0
-3641 -12145 12171 0
-12146 12171 0
-3641 -12146 12172 0
-12147 12172 0
-3641 -12147 12173 0
-12148 12173 0
-3641 -12148 12174 0
-12149 12174 0
-3641 -12149 12175 0
-12150 12175 0
-3641 -12150 12176 0
-12151 12176 0
-3641 -12151 12177 0
-12152 12177 0
-3641 -12152 12178 0
-12153 12178 0
-3641 -12153 12179 0
-12154 12179 0
-3641 -12154 12180 0
-12155 12180 0
-3641 -12155 12181 0
-12156 12181 0
-3641 -12156 12182 0
-12157 12182 0
-3641 -12157 12183 0
-12158 12183 0
-3641 -12158 12184 0
-12159 12184 0
-3641 -12159 0
-3641 12185 0
-12160 12185 0
-3641 -12160 12186 0
-12161 12186 0
-3641 -12161 12187 0
-12162 12187 0
-3641 -12162 12188 0
-12163 12188 0
-3641 -12163 12189 0
-12164 12189 0
-3641 -12164 12190 0
-12165 12190 0
-3641 -12165 12191 0
-12166 12191 0
-3641 -12166 12192 0
-12167 12192 0
-3641 -12167 12193 0
-12168 12193 0
-3641 -12168 12194 0
-12169 12194 0
-3641 -12169 12195 0
-12170 12195 0
-3641 -12170 12196 0
-12171 12196 0
-3641 -12171 12197 0
-12172 12197 0
-3641 -12172 12198 0
-12173 12198 0
-3641 -12173 12199 0
-12174 12199 0
-3641 -12174 12200 0
-12175 12200 0
-3641 -12175 12201 0
-12176 12201 0
-3641 -12176 12202 0
-12177 12202 0
-3641 -12177 12203 0
-12178 12203 0
-3641 -12178 12204 0
-12179 12204 0
-3641 -12179 12205 0
-12180 12205 0
-3641 -12180 12206 0
-12181 12206 0
-3641 -12181 12207 0
-12182 12207 0
-3641 -12182 12208 0
-12183 12208 0
-3641 -12183 12209 0
-12184 12209 0
-3641 -12184 0
-3642 12210 0
-12185 12210 0
-3642 -12185 12211 0
-12186 12211 0
-3642 -12186 12212 0
-12187 12212 0
-3642 -12187 12213 0
-12188 12213 0
-3642 -12188 12214 0
-12189 12214 0
-3642 -12189 12215 0
-12190 12215 0
-3642 -12190 12216 0
-12191 12216 0
-3642 -12191 12217 0
-12192 12217 0
-3642 -12192 12218 0
-12193 12218 0
-3642 -12193 12219 0
-12194 12219 0
-3642 -12194 12220 0
-12195 12220 0
-3642 -12195 12221 0
-12196 12221 0
-3642 -12196 12222 0
-12197 12222 0
-3642 -12197 12223 0
-12198 12223 0
-3642 -12198 12224 0
-12199 12224 0
-3642 -12199 12225 0
-12200 12225 0
-3642 -12200 12226 0
-12201 12226 0
-3642 -12201 12227 0
-12202 12227 0
-3642 -12202 12228 0
-12203 12228 0
-3642 -12203 12229 0
-12204 12229 0
-3642 -12204 12230 0
-12205 12230 0
-3642 -12205 12231 0
-12206 12231 0
-3642 -12206 12232 0
-12207 12232 0
-3642 -12207 12233 0
-12208 12233 0
-3642 -12208 12234 0
-12209 12234 0
-3642 -12209 0
-3642 12235 0
-12210 12235 0
-3642 -12210 12236 0
-12211 12236 0
-3642 -12211 12237 0
-12212 12237 0
-3642 -12212 12238 0
-12213 12238 0
-3642 -12213 12239 0
-12214 12239 0
-3642 -12214 12240 0
-12215 12240 0
-3642 -12215 12241 0
-12216 12241 0
-3642 -12216 12242 0
-12217 12242 0
-3642 -12217 12243 0
-12218 12243 0
-3642 -12218 12244 0
-12219 12244 0
-3642 -12219 12245 0
-12220 12245 0
-3642 -12220 12246 0
-12221 12246 0
-3642 -12221 12247 0
-12222 12247 0
-3642 -12222 12248 0
-12223 12248 0
-3642 -12223 12249 0
-12224 12249 0
-3642 -12224 12250 0
-12225 12250 0
-3642 -12225 12251 0
-12226 12251 0
-3642 -12226 12252 0
-12227 12252 0
-3642 -12227 12253 0
-12228 12253 0
-3642 -12228 12254 0
-12229 12254 0
-3642 -12229 12255 0
-12230 12255 0
-3642 -12230 12256 0
-12231 12256 0
-3642 -12231 12257 0
-12232 12257 0
-3642 -12232 12258 0
-12233 12258 0
-3642 -12233 12259 0
-12234 12259 0
-3642 -12234 0
-3652 12260 0
-12235 12260 0
-3652 -12235 12261 0
-12236 12261 0
-3652 -12236 12262 0
-12237 12262 0
-3652 -12237 12263 0
-12238 12263 0
-3652 -12238 12264 0
-12239 12264 0
-3652 -12239 12265 0
-12240 12265 0
-3652 -12240 12266 0
-12241 12266 0
-3652 -12241 12267 0
-12242 12267 0
-3652 -12242 12268 0
-12243 12268 0
-3652 -12243 12269 0
-12244 12269 0
-3652 -12244 12270 0
-12245 12270 0
-3652 -12245 12271 0
-12246 12271 0
-3652 -12246 12272 0
-12247 12272 0
-3652 -12247 12273 0
-12248 12273 0
-3652 -12248 12274 0
-12249 12274 0
-3652 -12249 12275 0
-12250 12275 0
-3652 -12250 12276 0
-12251 12276 0
-3652 -12251 12277 0
-12252 12277 0
-3652 -12252 12278 0
-12253 12278 0
-3652 -12253 12279 0
-12254 12279 0
-3652 -12254 12280 0
-12255 12280 0
-3652 -12255 12281 0
-12256 12281 0
-3652 -12256 12282 0
-12257 12282 0
-3652 -12257 12283 0
-12258 12283 0
-3652 -12258 12284 0
-12259 12284 0
-3652 -12259 0
-3652 12285 0
-12260 12285 0
-3652 -12260 12286 0
-12261 12286 0
-3652 -12261 12287 0
-12262 12287 0
-3652 -12262 12288 0
-12263 12288 0
-3652 -12263 12289 0
-12264 12289 0
-3652 -12264 12290 0
-12265 12290 0
-3652 -12265 12291 0
-12266 12291 0
-3652 -12266 12292 0
-12267 12292 0
-3652 -12267 12293 0
-12268 12293 0
-3652 -12268 12294 0
-12269 12294 0
-3652 -12269 12295 0
-12270 12295 0
-3652 -12270 12296 0
-12271 12296 0
-3652 -12271 12297 0
-12272 12297 0
-3652 -12272 12298 0
-12273 12298 0
-3652 -12273 12299 0
-12274 12299 0
-3652 -12274 12300 0
-12275 12300 0
-3652 -12275 12301 0
-12276 12301 0
-3652 -12276 12302 0
-12277 12302 0
-3652 -12277 12303 0
-12278 12303 0
-3652 -12278 12304 0
-12279 12304 0
-3652 -12279 12305 0
-12280 12305 0
-3652 -12280 12306 0
-12281 12306 0
-3652 -12281 12307 0
-12282 12307 0
-3652 -12282 12308 0
-12283 12308 0
-3652 -12283 12309 0
-12284 12309 0
-3652 -12284 0
-3652 12310 0
-12285 12310 0
-3652 -12285 12311 0
-12286 12311 0
-3652 -12286 12312 0
-12287 12312 0
-3652 -12287 12313 0
-12288 12313 0
-3652 -12288 12314 0
-12289 12314 0
-3652 -12289 12315 0
-12290 12315 0
-3652 -12290 12316 0
-12291 12316 0
-3652 -12291 12317 0
-12292 12317 0
-3652 -12292 12318 0
-12293 12318 0
-3652 -12293 12319 0
-12294 12319 0
-3652 -12294 12320 0
-12295 12320 0
-3652 -12295 12321 0
-12296 12321 0
-3652 -12296 12322 0
-12297 12322 0
-3652 -12297 12323 0
-12298 12323 0
-3652 -12298 12324 0
-12299 12324 0
-3652 -12299 12325 0
-12300 12325 0
-3652 -12300 12326 0
-12301 12326 0
-3652 -12301 12327 0
-12302 12327 0
-3652 -12302 12328 0
-12303 12328 0
-3652 -12303 12329 0
-12304 12329 0
-3652 -12304 12330 0
-12305 12330 0
-3652 -12305 12331 0
-12306 12331 0
-3652 -12306 12332 0
-12307 12332 0
-3652 -12307 12333 0
-12308 12333 0
-3652 -12308 12334 0
-12309 12334 0
-3652 -12309 0
-3653 12335 0
-12310 12335 0
-3653 -12310 12336 0
-12311 12336 0
-3653 -12311 12337 0
-12312 12337 0
-3653 -12312 12338 0
-12313 12338 0
-3653 -12313 12339 0
-12314 12339 0
-3653 -12314 12340 0
-12315 12340 0
-3653 -12315 12341 0
-12316 12341 0
-3653 -12316 12342 0
-12317 12342 0
-3653 -12317 12343 0
-12318 12343 0
-3653 -12318 12344 0
-12319 12344 0
-3653 -12319 12345 0
-12320 12345 0
-3653 -12320 12346 0
-12321 12346 0
-3653 -12321 12347 0
-12322 12347 0
-3653 -12322 12348 0
-12323 12348 0
-3653 -12323 12349 0
-12324 12349 0
-3653 -12324 12350 0
-12325 12350 0
-3653 -12325 12351 0
-12326 12351 0
-3653 -12326 12352 0
-12327 12352 0
-3653 -12327 12353 0
-12328 12353 0
-3653 -12328 12354 0
-12329 12354 0
-3653 -12329 12355 0
-12330 12355 0
-3653 -12330 12356 0
-12331 12356 0
-3653 -12331 12357 0
-12332 12357 0
-3653 -12332 12358 0
-12333 12358 0
-3653 -12333 12359 0
-12334 12359 0
-3653 -12334 0
-3653 12360 0
-12335 12360 0
-3653 -12335 12361 0
-12336 12361 0
-3653 -12336 12362 0
-12337 12362 0
-3653 -12337 12363 0
-12338 12363 0
-3653 -12338 12364 0
-12339 12364 0
-3653 -12339 12365 0
-12340 12365 0
-3653 -12340 12366 0
-12341 12366 0
-3653 -12341 12367 0
-12342 12367 0
-3653 -12342 12368 0
-12343 12368 0
-3653 -12343 12369 0
-12344 12369 0
-3653 -12344 12370 0
-12345 12370 0
-3653 -12345 12371 0
-12346 12371 0
-3653 -12346 12372 0
-12347 12372 0
-3653 -12347 12373 0
-12348 12373 0
-3653 -12348 12374 0
-12349 12374 0
-3653 -12349 12375 0
-12350 12375 0
-3653 -12350 12376 0
-12351 12376 0
-3653 -12351 12377 0
-12352 12377 0
-3653 -12352 12378 0
-12353 12378 0
-3653 -12353 12379 0
-12354 12379 0
-3653 -12354 12380 0
-12355 12380 0
-3653 -12355 12381 0
-12356 12381 0
-3653 -12356 12382 0
-12357 12382 0
-3653 -12357 12383 0
-12358 12383 0
-3653 -12358 12384 0
-12359 12384 0
-3653 -12359 0
-3663 12385 0
-12360 12385 0
-3663 -12360 12386 0
-12361 12386 0
-3663 -12361 12387 0
-12362 12387 0
-3663 -12362 12388 0
-12363 12388 0
-3663 -12363 12389 0
-12364 12389 0
-3663 -12364 12390 0
-12365 12390 0
-3663 -12365 12391 0
-12366 12391 0
-3663 -12366 12392 0
-12367 12392 0
-3663 -12367 12393 0
-12368 12393 0
-3663 -12368 12394 0
-12369 12394 0
-3663 -12369 12395 0
-12370 12395 0
-3663 -12370 12396 0
-12371 12396 0
-3663 -12371 12397 0
-12372 12397 0
-3663 -12372 12398 0
-12373 12398 0
-3663 -12373 12399 0
-12374 12399 0
-3663 -12374 12400 0
-12375 12400 0
-3663 -12375 12401 0
-12376 12401 0
-3663 -12376 12402 0
-12377 12402 0
-3663 -12377 12403 0
-12378 12403 0
-3663 -12378 12404 0
-12379 12404 0
-3663 -12379 12405 0
-12380 12405 0
-3663 -12380 12406 0
-12381 12406 0
-3663 -12381 12407 0
-12382 12407 0
-3663 -12382 12408 0
-12383 12408 0
-3663 -12383 12409 0
-12384 12409 0
-3663 -12384 0
-3663 12410 0
-12385 12410 0
-3663 -12385 12411 0
-12386 12411 0
-3663 -12386 12412 0
-12387 12412 0
-3663 -12387 12413 0
-12388 12413 0
-3663 -12388 12414 0
-12389 12414 0
-3663 -12389 12415 0
-12390 12415 0
-3663 -12390 12416 0
-12391 12416 0
-3663 -12391 12417 0
-12392 12417 0
-3663 -12392 12418 0
-12393 12418 0
-3663 -12393 12419 0
-12394 12419 0
-3663 -12394 12420 0
-12395 12420 0
-3663 -12395 12421 0
-12396 12421 0
-3663 -12396 12422 0
-12397 12422 0
-3663 -12397 12423 0
-12398 12423 0
-3663 -12398 12424 0
-12399 12424 0
-3663 -12399 12425 0
-12400 12425 0
-3663 -12400 12426 0
-12401 12426 0
-3663 -12401 12427 0
-12402 12427 0
-3663 -12402 12428 0
-12403 12428 0
-3663 -12403 12429 0
-12404 12429 0
-3663 -12404 12430 0
-12405 12430 0
-3663 -12405 12431 0
-12406 12431 0
-3663 -12406 12432 0
-12407 12432 0
-3663 -12407 12433 0
-12408 12433 0
-3663 -12408 12434 0
-12409 12434 0
-3663 -12409 0
-3663 12435 0
-12410 12435 0
-3663 -12410 12436 0
-12411 12436 0
-3663 -12411 12437 0
-12412 12437 0
-3663 -12412 12438 0
-12413 12438 0
-3663 -12413 12439 0
-12414 12439 0
-3663 -12414 12440 0
-12415 12440 0
-3663 -12415 12441 0
-12416 12441 0
-3663 -12416 12442 0
-12417 12442 0
-3663 -12417 12443 0
-12418 12443 0
-3663 -12418 12444 0
-12419 12444 0
-3663 -12419 12445 0
-12420 12445 0
-3663 -12420 12446 0
-12421 12446 0
-3663 -12421 12447 0
-12422 12447 0
-3663 -12422 12448 0
-12423 12448 0
-3663 -12423 12449 0
-12424 12449 0
-3663 -12424 12450 0
-12425 12450 0
-3663 -12425 12451 0
-12426 12451 0
-3663 -12426 12452 0
-12427 12452 0
-3663 -12427 12453 0
-12428 12453 0
-3663 -12428 12454 0
-12429 12454 0
-3663 -12429 12455 0
-12430 12455 0
-3663 -12430 12456 0
-12431 12456 0
-3663 -12431 12457 0
-12432 12457 0
-3663 -12432 12458 0
-12433 12458 0
-3663 -12433 12459 0
-12434 12459 0
-3663 -12434 0
-3664 12460 0
-12435 12460 0
-3664 -12435 12461 0
-12436 12461 0
-3664 -12436 12462 0
-12437 12462 0
-3664 -12437 12463 0
-12438 12463 0
-3664 -12438 12464 0
-12439 12464 0
-3664 -12439 12465 0
-12440 12465 0
-3664 -12440 12466 0
-12441 12466 0
-3664 -12441 12467 0
-12442 12467 0
-3664 -12442 12468 0
-12443 12468 0
-3664 -12443 12469 0
-12444 12469 0
-3664 -12444 12470 0
-12445 12470 0
-3664 -12445 12471 0
-12446 12471 0
-3664 -12446 12472 0
-12447 12472 0
-3664 -12447 12473 0
-12448 12473 0
-3664 -12448 12474 0
-12449 12474 0
-3664 -12449 12475 0
-12450 12475 0
-3664 -12450 12476 0
-12451 12476 0
-3664 -12451 12477 0
-12452 12477 0
-3664 -12452 12478 0
-12453 12478 0
-3664 -12453 12479 0
-12454 12479 0
-3664 -12454 12480 0
-12455 12480 0
-3664 -12455 12481 0
-12456 12481 0
-3664 -12456 12482 0
-12457 12482 0
-3664 -12457 12483 0
-12458 12483 0
-3664 -12458 12484 0
-12459 12484 0
-3664 -12459 0
-3664 12485 0
-12460 12485 0
-3664 -12460 12486 0
-12461 12486 0
-3664 -12461 12487 0
-12462 12487 0
-3664 -12462 12488 0
-12463 12488 0
-3664 -12463 12489 0
-12464 12489 0
-3664 -12464 12490 0
-12465 12490 0
-3664 -12465 12491 0
-12466 12491 0
-3664 -12466 12492 0
-12467 12492 0
-3664 -12467 12493 0
-12468 12493 0
-3664 -12468 12494 0
-12469 12494 0
-3664 -12469 12495 0
-12470 12495 0
-3664 -12470 12496 0
-12471 12496 0
-3664 -12471 12497 0
-12472 12497 0
-3664 -12472 12498 0
-12473 12498 0
-3664 -12473 12499 0
-12474 12499 0
-3664 -12474 12500 0
-12475 12500 0
-3664 -12475 12501 0
-12476 12501 0
-3664 -12476 12502 0
-12477 12502 0
-3664 -12477 12503 0
-12478 12503 0
-3664 -12478 12504 0
-12479 12504 0
-3664 -12479 12505 0
-12480 12505 0
-3664 -12480 12506 0
-12481 12506 0
-3664 -12481 12507 0
-12482 12507 0
-3664 -12482 12508 0
-12483 12508 0
-3664 -12483 12509 0
-12484 12509 0
-3664 -12484 0
-3674 12510 0
-12485 12510 0
-3674 -12485 12511 0
-12486 12511 0
-3674 -12486 12512 0
-12487 12512 0
-3674 -12487 12513 0
-12488 12513 0
-3674 -12488 12514 0
-12489 12514 0
-3674 -12489 12515 0
-12490 12515 0
-3674 -12490 12516 0
-12491 12516 0
-3674 -12491 12517 0
-12492 12517 0
-3674 -12492 12518 0
-12493 12518 0
-3674 -12493 12519 0
-12494 12519 0
-3674 -12494 12520 0
-12495 12520 0
-3674 -12495 12521 0
-12496 12521 0
-3674 -12496 12522 0
-12497 12522 0
-3674 -12497 12523 0
-12498 12523 0
-3674 -12498 12524 0
-12499 12524 0
-3674 -12499 12525 0
-12500 12525 0
-3674 -12500 12526 0
-12501 12526 0
-3674 -12501 12527 0
-12502 12527 0
-3674 -12502 12528 0
-12503 12528 0
-3674 -12503 12529 0
-12504 12529 0
-3674 -12504 12530 0
-12505 12530 0
-3674 -12505 12531 0
-12506 12531 0
-3674 -12506 12532 0
-12507 12532 0
-3674 -12507 12533 0
-12508 12533 0
-3674 -12508 12534 0
-12509 12534 0
-3674 -12509 0
-3674 12535 0
-12510 12535 0
-3674 -12510 12536 0
-12511 12536 0
-3674 -12511 12537 0
-12512 12537 0
-3674 -12512 12538 0
-12513 12538 0
-3674 -12513 12539 0
-12514 12539 0
-3674 -12514 12540 0
-12515 12540 0
-3674 -12515 12541 0
-12516 12541 0
-3674 -12516 12542 0
-12517 12542 0
-3674 -12517 12543 0
-12518 12543 0
-3674 -12518 12544 0
-12519 12544 0
-3674 -12519 12545 0
-12520 12545 0
-3674 -12520 12546 0
-12521 12546 0
-3674 -12521 12547 0
-12522 12547 0
-3674 -12522 12548 0
-12523 12548 0
-3674 -12523 12549 0
-12524 12549 0
-3674 -12524 12550 0
-12525 12550 0
-3674 -12525 12551 0
-12526 12551 0
-3674 -12526 12552 0
-12527 12552 0
-3674 -12527 12553 0
-12528 12553 0
-3674 -12528 12554 0
-12529 12554 0
-3674 -12529 12555 0
-12530 12555 0
-3674 -12530 12556 0
-12531 12556 0
-3674 -12531 12557 0
-12532 12557 0
-3674 -12532 12558 0
-12533 12558 0
-3674 -12533 12559 0
-12534 12559 0
-3674 -12534 0
-3674 12560 0
-12535 12560 0
-3674 -12535 12561 0
-12536 12561 0
-3674 -12536 12562 0
-12537 12562 0
-3674 -12537 12563 0
-12538 12563 0
-3674 -12538 12564 0
-12539 12564 0
-3674 -12539 12565 0
-12540 12565 0
-3674 -12540 12566 0
-12541 12566 0
-3674 -12541 12567 0
-12542 12567 0
-3674 -12542 12568 0
-12543 12568 0
-3674 -12543 12569 0
-12544 12569 0
-3674 -12544 12570 0
-12545 12570 0
-3674 -12545 12571 0
-12546 12571 0
-3674 -12546 12572 0
-12547 12572 0
-3674 -12547 12573 0
-12548 12573 0
-3674 -12548 12574 0
-12549 12574 0
-3674 -12549 12575 0
-12550 12575 0
-3674 -12550 12576 0
-12551 12576 0
-3674 -12551 12577 0
-12552 12577 0
-3674 -12552 12578 0
-12553 12578 0
-3674 -12553 12579 0
-12554 12579 0
-3674 -12554 12580 0
-12555 12580 0
-3674 -12555 12581 0
-12556 12581 0
-3674 -12556 12582 0
-12557 12582 0
-3674 -12557 12583 0
-12558 12583 0
-3674 -12558 12584 0
-12559 12584 0
-3674 -12559 0
-3675 12585 0
-12560 12585 0
-3675 -12560 12586 0
-12561 12586 0
-3675 -12561 12587 0
-12562 12587 0
-3675 -12562 12588 0
-12563 12588 0
-3675 -12563 12589 0
-12564 12589 0
-3675 -12564 12590 0
-12565 12590 0
-3675 -12565 12591 0
-12566 12591 0
-3675 -12566 12592 0
-12567 12592 0
-3675 -12567 12593 0
-12568 12593 0
-3675 -12568 12594 0
-12569 12594 0
-3675 -12569 12595 0
-12570 12595 0
-3675 -12570 12596 0
-12571 12596 0
-3675 -12571 12597 0
-12572 12597 0
-3675 -12572 12598 0
-12573 12598 0
-3675 -12573 12599 0
-12574 12599 0
-3675 -12574 12600 0
-12575 12600 0
-3675 -12575 12601 0
-12576 12601 0
-3675 -12576 12602 0
-12577 12602 0
-3675 -12577 12603 0
-12578 12603 0
-3675 -12578 12604 0
-12579 12604 0
-3675 -12579 12605 0
-12580 12605 0
-3675 -12580 12606 0
-12581 12606 0
-3675 -12581 12607 0
-12582 12607 0
-3675 -12582 12608 0
-12583 12608 0
-3675 -12583 12609 0
-12584 12609 0
-3675 -12584 0
-3675 12610 0
-12585 12610 0
-3675 -12585 12611 0
-12586 12611 0
-3675 -12586 12612 0
-12587 12612 0
-3675 -12587 12613 0
-12588 12613 0
-3675 -12588 12614 0
-12589 12614 0
-3675 -12589 12615 0
-12590 12615 0
-3675 -12590 12616 0
-12591 12616 0
-3675 -12591 12617 0
-12592 12617 0
-3675 -12592 12618 0
-12593 12618 0
-3675 -12593 12619 0
-12594 12619 0
-3675 -12594 12620 0
-12595 12620 0
-3675 -12595 12621 0
-12596 12621 0
-3675 -12596 12622 0
-12597 12622 0
-3675 -12597 12623 0
-12598 12623 0
-3675 -12598 12624 0
-12599 12624 0
-3675 -12599 12625 0
-12600 12625 0
-3675 -12600 12626 0
-12601 12626 0
-3675 -12601 12627 0
-12602 12627 0
-3675 -12602 12628 0
-12603 12628 0
-3675 -12603 12629 0
-12604 12629 0
-3675 -12604 12630 0
-12605 12630 0
-3675 -12605 12631 0
-12606 12631 0
-3675 -12606 12632 0
-12607 12632 0
-3675 -12607 12633 0
-12608 12633 0
-3675 -12608 12634 0
-12609 12634 0
-3675 -12609 0
-3685 12635 0
-12610 12635 0
-3685 -12610 12636 0
-12611 12636 0
-3685 -12611 12637 0
-12612 12637 0
-3685 -12612 12638 0
-12613 12638 0
-3685 -12613 12639 0
-12614 12639 0
-3685 -12614 12640 0
-12615 12640 0
-3685 -12615 12641 0
-12616 12641 0
-3685 -12616 12642 0
-12617 12642 0
-3685 -12617 12643 0
-12618 12643 0
-3685 -12618 12644 0
-12619 12644 0
-3685 -12619 12645 0
-12620 12645 0
-3685 -12620 12646 0
-12621 12646 0
-3685 -12621 12647 0
-12622 12647 0
-3685 -12622 12648 0
-12623 12648 0
-3685 -12623 12649 0
-12624 12649 0
-3685 -12624 12650 0
-12625 12650 0
-3685 -12625 12651 0
-12626 12651 0
-3685 -12626 12652 0
-12627 12652 0
-3685 -12627 12653 0
-12628 12653 0
-3685 -12628 12654 0
-12629 12654 0
-3685 -12629 12655 0
-12630 12655 0
-3685 -12630 12656 0
-12631 12656 0
-3685 -12631 12657 0
-12632 12657 0
-3685 -12632 12658 0
-12633 12658 0
-3685 -12633 12659 0
-12634 12659 0
-3685 -12634 0
-3685 12660 0
-12635 12660 0
-3685 -12635 12661 0
-12636 12661 0
-3685 -12636 12662 0
-12637 12662 0
-3685 -12637 12663 0
-12638 12663 0
-3685 -12638 12664 0
-12639 12664 0
-3685 -12639 12665 0
-12640 12665 0
-3685 -12640 12666 0
-12641 12666 0
-3685 -12641 12667 0
-12642 12667 0
-3685 -12642 12668 0
-12643 12668 0
-3685 -12643 12669 0
-12644 12669 0
-3685 -12644 12670 0
-12645 12670 0
-3685 -12645 12671 0
-12646 12671 0
-3685 -12646 12672 0
-12647 12672 0
-3685 -12647 12673 0
-12648 12673 0
-3685 -12648 12674 0
-12649 12674 0
-3685 -12649 12675 0
-12650 12675 0
-3685 -12650 12676 0
-12651 12676 0
-3685 -12651 12677 0
-12652 12677 0
-3685 -12652 12678 0
-12653 12678 0
-3685 -12653 12679 0
-12654 12679 0
-3685 -12654 12680 0
-12655 12680 0
-3685 -12655 12681 0
-12656 12681 0
-3685 -12656 12682 0
-12657 12682 0
-3685 -12657 12683 0
-12658 12683 0
-3685 -12658 12684 0
-12659 12684 0
-3685 -12659 0
-3685 12685 0
-12660 12685 0
-3685 -12660 12686 0
-12661 12686 0
-3685 -12661 12687 0
-12662 12687 0
-3685 -12662 12688 0
-12663 12688 0
-3685 -12663 12689 0
-12664 12689 0
-3685 -12664 12690 0
-12665 12690 0
-3685 -12665 12691 0
-12666 12691 0
-3685 -12666 12692 0
-12667 12692 0
-3685 -12667 12693 0
-12668 12693 0
-3685 -12668 12694 0
-12669 12694 0
-3685 -12669 12695 0
-12670 12695 0
-3685 -12670 12696 0
-12671 12696 0
-3685 -12671 12697 0
-12672 12697 0
-3685 -12672 12698 0
-12673 12698 0
-3685 -12673 12699 0
-12674 12699 0
-3685 -12674 12700 0
-12675 12700 0
-3685 -12675 12701 0
-12676 12701 0
-3685 -12676 12702 0
-12677 12702 0
-3685 -12677 12703 0
-12678 12703 0
-3685 -12678 12704 0
-12679 12704 0
-3685 -12679 12705 0
-12680 12705 0
-3685 -12680 12706 0
-12681 12706 0
-3685 -12681 12707 0
-12682 12707 0
-3685 -12682 12708 0
-12683 12708 0
-3685 -12683 12709 0
-12684 12709 0
-3685 -12684 0
-3686 12710 0
-12685 12710 0
-3686 -12685 12711 0
-12686 12711 0
-3686 -12686 12712 0
-12687 12712 0
-3686 -12687 12713 0
-12688 12713 0
-3686 -12688 12714 0
-12689 12714 0
-3686 -12689 12715 0
-12690 12715 0
-3686 -12690 12716 0
-12691 12716 0
-3686 -12691 12717 0
-12692 12717 0
-3686 -12692 12718 0
-12693 12718 0
-3686 -12693 12719 0
-12694 12719 0
-3686 -12694 12720 0
-12695 12720 0
-3686 -12695 12721 0
-12696 12721 0
-3686 -12696 12722 0
-12697 12722 0
-3686 -12697 12723 0
-12698 12723 0
-3686 -12698 12724 0
-12699 12724 0
-3686 -12699 12725 0
-12700 12725 0
-3686 -12700 12726 0
-12701 12726 0
-3686 -12701 12727 0
-12702 12727 0
-3686 -12702 12728 0
-12703 12728 0
-3686 -12703 12729 0
-12704 12729 0
-3686 -12704 12730 0
-12705 12730 0
-3686 -12705 12731 0
-12706 12731 0
-3686 -12706 12732 0
-12707 12732 0
-3686 -12707 12733 0
-12708 12733 0
-3686 -12708 12734 0
-12709 12734 0
-3686 -12709 0
-3686 12735 0
-12710 12735 0
-3686 -12710 12736 0
-12711 12736 0
-3686 -12711 12737 0
-12712 12737 0
-3686 -12712 12738 0
-12713 12738 0
-3686 -12713 12739 0
-12714 12739 0
-3686 -12714 12740 0
-12715 12740 0
-3686 -12715 12741 0
-12716 12741 0
-3686 -12716 12742 0
-12717 12742 0
-3686 -12717 12743 0
-12718 12743 0
-3686 -12718 12744 0
-12719 12744 0
-3686 -12719 12745 0
-12720 12745 0
-3686 -12720 12746 0
-12721 12746 0
-3686 -12721 12747 0
-12722 12747 0
-3686 -12722 12748 0
-12723 12748 0
-3686 -12723 12749 0
-12724 12749 0
-3686 -12724 12750 0
-12725 12750 0
-3686 -12725 12751 0
-12726 12751 0
-3686 -12726 12752 0
-12727 12752 0
-3686 -12727 12753 0
-12728 12753 0
-3686 -12728 12754 0
-12729 12754 0
-3686 -12729 12755 0
-12730 12755 0
-3686 -12730 12756 0
-12731 12756 0
-3686 -12731 12757 0
-12732 12757 0
-3686 -12732 12758 0
-12733 12758 0
-3686 -12733 12759 0
-12734 12759 0
-3686 -12734 0
-3696 12760 0
-12735 12760 0
-3696 -12735 12761 0
-12736 12761 0
-3696 -12736 12762 0
-12737 12762 0
-3696 -12737 12763 0
-12738 12763 0
-3696 -12738 12764 0
-12739 12764 0
-3696 -12739 12765 0
-12740 12765 0
-3696 -12740 12766 0
-12741 12766 0
-3696 -12741 12767 0
-12742 12767 0
-3696 -12742 12768 0
-12743 12768 0
-3696 -12743 12769 0
-12744 12769 0
-3696 -12744 12770 0
-12745 12770 0
-3696 -12745 12771 0
-12746 12771 0
-3696 -12746 12772 0
-12747 12772 0
-3696 -12747 12773 0
-12748 12773 0
-3696 -12748 12774 0
-12749 12774 0
-3696 -12749 12775 0
-12750 12775 0
-3696 -12750 12776 0
-12751 12776 0
-3696 -12751 12777 0
-12752 12777 0
-3696 -12752 12778 0
-12753 12778 0
-3696 -12753 12779 0
-12754 12779 0
-3696 -12754 12780 0
-12755 12780 0
-3696 -12755 12781 0
-12756 12781 0
-3696 -12756 12782 0
-12757 12782 0
-3696 -12757 12783 0
-12758 12783 0
-3696 -12758 12784 0
-12759 12784 0
-3696 -12759 0
-3696 12785 0
-12760 12785 0
-3696 -12760 12786 0
-12761 12786 0
-3696 -12761 12787 0
-12762 12787 0
-3696 -12762 12788 0
-12763 12788 0
-3696 -12763 12789 0
-12764 12789 0
-3696 -12764 12790 0
-12765 12790 0
-3696 -12765 12791 0
-12766 12791 0
-3696 -12766 12792 0
-12767 12792 0
-3696 -12767 12793 0
-12768 12793 0
-3696 -12768 12794 0
-12769 12794 0
-3696 -12769 12795 0
-12770 12795 0
-3696 -12770 12796 0
-12771 12796 0
-3696 -12771 12797 0
-12772 12797 0
-3696 -12772 12798 0
-12773 12798 0
-3696 -12773 12799 0
-12774 12799 0
-3696 -12774 12800 0
-12775 12800 0
-3696 -12775 12801 0
-12776 12801 0
-3696 -12776 12802 0
-12777 12802 0
-3696 -12777 12803 0
-12778 12803 0
-3696 -12778 12804 0
-12779 12804 0
-3696 -12779 12805 0
-12780 12805 0
-3696 -12780 12806 0
-12781 12806 0
-3696 -12781 12807 0
-12782 12807 0
-3696 -12782 12808 0
-12783 12808 0
-3696 -12783 12809 0
-12784 12809 0
-3696 -12784 0
-3696 12810 0
-12785 12810 0
-3696 -12785 12811 0
-12786 12811 0
-3696 -12786 12812 0
-12787 12812 0
-3696 -12787 12813 0
-12788 12813 0
-3696 -12788 12814 0
-12789 12814 0
-3696 -12789 12815 0
-12790 12815 0
-3696 -12790 12816 0
-12791 12816 0
-3696 -12791 12817 0
-12792 12817 0
-3696 -12792 12818 0
-12793 12818 0
-3696 -12793 12819 0
-12794 12819 0
-3696 -12794 12820 0
-12795 12820 0
-3696 -12795 12821 0
-12796 12821 0
-3696 -12796 12822 0
-12797 12822 0
-3696 -12797 12823 0
-12798 12823 0
-3696 -12798 12824 0
-12799 12824 0
-3696 -12799 12825 0
-12800 12825 0
-3696 -12800 12826 0
-12801 12826 0
-3696 -12801 12827 0
-12802 12827 0
-3696 -12802 12828 0
-12803 12828 0
-3696 -12803 12829 0
-12804 12829 0
-3696 -12804 12830 0
-12805 12830 0
-3696 -12805 12831 0
-12806 12831 0
-3696 -12806 12832 0
-12807 12832 0
-3696 -12807 12833 0
-12808 12833 0
-3696 -12808 12834 0
-12809 12834 0
-3696 -12809 0
-3697 12835 0
-12810 12835 0
-3697 -12810 12836 0
-12811 12836 0
-3697 -12811 12837 0
-12812 12837 0
-3697 -12812 12838 0
-12813 12838 0
-3697 -12813 12839 0
-12814 12839 0
-3697 -12814 12840 0
-12815 12840 0
-3697 -12815 12841 0
-12816 12841 0
-3697 -12816 12842 0
-12817 12842 0
-3697 -12817 12843 0
-12818 12843 0
-3697 -12818 12844 0
-12819 12844 0
-3697 -12819 12845 0
-12820 12845 0
-3697 -12820 12846 0
-12821 12846 0
-3697 -12821 12847 0
-12822 12847 0
-3697 -12822 12848 0
-12823 12848 0
-3697 -12823 12849 0
-12824 12849 0
-3697 -12824 12850 0
-12825 12850 0
-3697 -12825 12851 0
-12826 12851 0
-3697 -12826 12852 0
-12827 12852 0
-3697 -12827 12853 0
-12828 12853 0
-3697 -12828 12854 0
-12829 12854 0
-3697 -12829 12855 0
-12830 12855 0
-3697 -12830 12856 0
-12831 12856 0
-3697 -12831 12857 0
-12832 12857 0
-3697 -12832 12858 0
-12833 12858 0
-3697 -12833 12859 0
-12834 12859 0
-3697 -12834 0
-3697 12860 0
-12835 12860 0
-3697 -12835 12861 0
-12836 12861 0
-3697 -12836 12862 0
-12837 12862 0
-3697 -12837 12863 0
-12838 12863 0
-3697 -12838 12864 0
-12839 12864 0
-3697 -12839 12865 0
-12840 12865 0
-3697 -12840 12866 0
-12841 12866 0
-3697 -12841 12867 0
-12842 12867 0
-3697 -12842 12868 0
-12843 12868 0
-3697 -12843 12869 0
-12844 12869 0
-3697 -12844 12870 0
-12845 12870 0
-3697 -12845 12871 0
-12846 12871 0
-3697 -12846 12872 0
-12847 12872 0
-3697 -12847 12873 0
-12848 12873 0
-3697 -12848 12874 0
-12849 12874 0
-3697 -12849 12875 0
-12850 12875 0
-3697 -12850 12876 0
-12851 12876 0
-3697 -12851 12877 0
-12852 12877 0
-3697 -12852 12878 0
-12853 12878 0
-3697 -12853 12879 0
-12854 12879 0
-3697 -12854 12880 0
-12855 12880 0
-3697 -12855 12881 0
-12856 12881 0
-3697 -12856 12882 0
-12857 12882 0
-3697 -12857 12883 0
-12858 12883 0
-3697 -12858 12884 0
-12859 12884 0
-3697 -12859 0
-3707 12885 0
-12860 12885 0
-3707 -12860 12886 0
-12861 12886 0
-3707 -12861 12887 0
-12862 12887 0
-3707 -12862 12888 0
-12863 12888 0
-3707 -12863 12889 0
-12864 12889 0
-3707 -12864 12890 0
-12865 12890 0
-3707 -12865 12891 0
-12866 12891 0
-3707 -12866 12892 0
-12867 12892 0
-3707 -12867 12893 0
-12868 12893 0
-3707 -12868 12894 0
-12869 12894 0
-3707 -12869 12895 0
-12870 12895 0
-3707 -12870 12896 0
-12871 12896 0
-3707 -12871 12897 0
-12872 12897 0
-3707 -12872 12898 0
-12873 12898 0
-3707 -12873 12899 0
-12874 12899 0
-3707 -12874 12900 0
-12875 12900 0
-3707 -12875 12901 0
-12876 12901 0
-3707 -12876 12902 0
-12877 12902 0
-3707 -12877 12903 0
-12878 12903 0
-3707 -12878 12904 0
-12879 12904 0
-3707 -12879 12905 0
-12880 12905 0
-3707 -12880 12906 0
-12881 12906 0
-3707 -12881 12907 0
-12882 12907 0
-3707 -12882 12908 0
-12883 12908 0
-3707 -12883 12909 0
-12884 12909 0
-3707 -12884 0
-3707 12910 0
-12885 12910 0
-3707 -12885 12911 0
-12886 12911 0
-3707 -12886 12912 0
-12887 12912 0
-3707 -12887 12913 0
-12888 12913 0
-3707 -12888 12914 0
-12889 12914 0
-3707 -12889 12915 0
-12890 12915 0
-3707 -12890 12916 0
-12891 12916 0
-3707 -12891 12917 0
-12892 12917 0
-3707 -12892 12918 0
-12893 12918 0
-3707 -12893 12919 0
-12894 12919 0
-3707 -12894 12920 0
-12895 12920 0
-3707 -12895 12921 0
-12896 12921 0
-3707 -12896 12922 0
-12897 12922 0
-3707 -12897 12923 0
-12898 12923 0
-3707 -12898 12924 0
-12899 12924 0
-3707 -12899 12925 0
-12900 12925 0
-3707 -12900 12926 0
-12901 12926 0
-3707 -12901 12927 0
-12902 12927 0
-3707 -12902 12928 0
-12903 12928 0
-3707 -12903 12929 0
-12904 12929 0
-3707 -12904 12930 0
-12905 12930 0
-3707 -12905 12931 0
-12906 12931 0
-3707 -12906 12932 0
-12907 12932 0
-3707 -12907 12933 0
-12908 12933 0
-3707 -12908 12934 0
-12909 12934 0
-3707 -12909 0
-3707 12935 0
-12910 12935 0
-3707 -12910 12936 0
-12911 12936 0
-3707 -12911 12937 0
-12912 12937 0
-3707 -12912 12938 0
-12913 12938 0
-3707 -12913 12939 0
-12914 12939 0
-3707 -12914 12940 0
-12915 12940 0
-3707 -12915 12941 0
-12916 12941 0
-3707 -12916 12942 0
-12917 12942 0
-3707 -12917 12943 0
-12918 12943 0
-3707 -12918 12944 0
-12919 12944 0
-3707 -12919 12945 0
-12920 12945 0
-3707 -12920 12946 0
-12921 12946 0
-3707 -12921 12947 0
-12922 12947 0
-3707 -12922 12948 0
-12923 12948 0
-3707 -12923 12949 0
-12924 12949 0
-3707 -12924 12950 0
-12925 12950 0
-3707 -12925 12951 0
-12926 12951 0
-3707 -12926 12952 0
-12927 12952 0
-3707 -12927 12953 0
-12928 12953 0
-3707 -12928 12954 0
-12929 12954 0
-3707 -12929 12955 0
-12930 12955 0
-3707 -12930 12956 0
-12931 12956 0
-3707 -12931 12957 0
-12932 12957 0
-3707 -12932 12958 0
-12933 12958 0
-3707 -12933 12959 0
-12934 12959 0
-3707 -12934 0
-3708 12960 0
-12935 12960 0
-3708 -12935 12961 0
-12936 12961 0
-3708 -12936 12962 0
-12937 12962 0
-3708 -12937 12963 0
-12938 12963 0
-3708 -12938 12964 0
-12939 12964 0
-3708 -12939 12965 0
-12940 12965 0
-3708 -12940 12966 0
-12941 12966 0
-3708 -12941 12967 0
-12942 12967 0
-3708 -12942 12968 0
-12943 12968 0
-3708 -12943 12969 0
-12944 12969 0
-3708 -12944 12970 0
-12945 12970 0
-3708 -12945 12971 0
-12946 12971 0
-3708 -12946 12972 0
-12947 12972 0
-3708 -12947 12973 0
-12948 12973 0
-3708 -12948 12974 0
-12949 12974 0
-3708 -12949 12975 0
-12950 12975 0
-3708 -12950 12976 0
-12951 12976 0
-3708 -12951 12977 0
-12952 12977 0
-3708 -12952 12978 0
-12953 12978 0
-3708 -12953 12979 0
-12954 12979 0
-3708 -12954 12980 0
-12955 12980 0
-3708 -12955 12981 0
-12956 12981 0
-3708 -12956 12982 0
-12957 12982 0
-3708 -12957 12983 0
-12958 12983 0
-3708 -12958 12984 0
-12959 12984 0
-3708 -12959 0
-3708 12985 0
-12960 12985 0
-3708 -12960 12986 0
-12961 12986 0
-3708 -12961 12987 0
-12962 12987 0
-3708 -12962 12988 0
-12963 12988 0
-3708 -12963 12989 0
-12964 12989 0
-3708 -12964 12990 0
-12965 12990 0
-3708 -12965 12991 0
-12966 12991 0
-3708 -12966 12992 0
-12967 12992 0
-3708 -12967 12993 0
-12968 12993 0
-3708 -12968 12994 0
-12969 12994 0
-3708 -12969 12995 0
-12970 12995 0
-3708 -12970 12996 0
-12971 12996 0
-3708 -12971 12997 0
-12972 12997 0
-3708 -12972 12998 0
-12973 12998 0
-3708 -12973 12999 0
-12974 12999 0
-3708 -12974 13000 0
-12975 13000 0
-3708 -12975 13001 0
-12976 13001 0
-3708 -12976 13002 0
-12977 13002 0
-3708 -12977 13003 0
-12978 13003 0
-3708 -12978 13004 0
-12979 13004 0
-3708 -12979 13005 0
-12980 13005 0
-3708 -12980 13006 0
-12981 13006 0
-3708 -12981 13007 0
-12982 13007 0
-3708 -12982 13008 0
-12983 13008 0
-3708 -12983 13009 0
-12984 13009 0
-3708 -12984 0
-3718 13010 0
-12985 13010 0
-3718 -12985 13011 0
-12986 13011 0
-3718 -12986 13012 0
-12987 13012 0
-3718 -12987 13013 0
-12988 13013 0
-3718 -12988 13014 0
-12989 13014 0
-3718 -12989 13015 0
-12990 13015 0
-3718 -12990 13016 0
-12991 13016 0
-3718 -12991 13017 0
-12992 13017 0
-3718 -12992 13018 0
-12993 13018 0
-3718 -12993 13019 0
-12994 13019 0
-3718 -12994 13020 0
-12995 13020 0
-3718 -12995 13021 0
-12996 13021 0
-3718 -12996 13022 0
-12997 13022 0
-3718 -12997 13023 0
-12998 13023 0
-3718 -12998 13024 0
-12999 13024 0
-3718 -12999 13025 0
-13000 13025 0
-3718 -13000 13026 0
-13001 13026 0
-3718 -13001 13027 0
-13002 13027 0
-3718 -13002 13028 0
-13003 13028 0
-3718 -13003 13029 0
-13004 13029 0
-3718 -13004 13030 0
-13005 13030 0
-3718 -13005 13031 0
-13006 13031 0
-3718 -13006 13032 0
-13007 13032 0
-3718 -13007 13033 0
-13008 13033 0
-3718 -13008 13034 0
-13009 13034 0
-3718 -13009 0
-3718 13035 0
-13010 13035 0
-3718 -13010 13036 0
-13011 13036 0
-3718 -13011 13037 0
-13012 13037 0
-3718 -13012 13038 0
-13013 13038 0
-3718 -13013 13039 0
-13014 13039 0
-3718 -13014 13040 0
-13015 13040 0
-3718 -13015 13041 0
-13016 13041 0
-3718 -13016 13042 0
-13017 13042 0
-3718 -13017 13043 0
-13018 13043 0
-3718 -13018 13044 0
-13019 13044 0
-3718 -13019 13045 0
-13020 13045 0
-3718 -13020 13046 0
-13021 13046 0
-3718 -13021 13047 0
-13022 13047 0
-3718 -13022 13048 0
-13023 13048 0
-3718 -13023 13049 0
-13024 13049 0
-3718 -13024 13050 0
-13025 13050 0
-3718 -13025 13051 0
-13026 13051 0
-3718 -13026 13052 0
-13027 13052 0
-3718 -13027 13053 0
-13028 13053 0
-3718 -13028 13054 0
-13029 13054 0
-3718 -13029 13055 0
-13030 13055 0
-3718 -13030 13056 0
-13031 13056 0
-3718 -13031 13057 0
-13032 13057 0
-3718 -13032 13058 0
-13033 13058 0
-3718 -13033 13059 0
-13034 13059 0
-3718 -13034 0
-3718 13060 0
-13035 13060 0
-3718 -13035 13061 0
-13036 13061 0
-3718 -13036 13062 0
-13037 13062 0
-3718 -13037 13063 0
-13038 13063 0
-3718 -13038 13064 0
-13039 13064 0
-3718 -13039 13065 0
-13040 13065 0
-3718 -13040 13066 0
-13041 13066 0
-3718 -13041 13067 0
-13042 13067 0
-3718 -13042 13068 0
-13043 13068 0
-3718 -13043 13069 0
-13044 13069 0
-3718 -13044 13070 0
-13045 13070 0
-3718 -13045 13071 0
-13046 13071 0
-3718 -13046 13072 0
-13047 13072 0
-3718 -13047 13073 0
-13048 13073 0
-3718 -13048 13074 0
-13049 13074 0
-3718 -13049 13075 0
-13050 13075 0
-3718 -13050 13076 0
-13051 13076 0
-3718 -13051 13077 0
-13052 13077 0
-3718 -13052 13078 0
-13053 13078 0
-3718 -13053 13079 0
-13054 13079 0
-3718 -13054 13080 0
-13055 13080 0
-3718 -13055 13081 0
-13056 13081 0
-3718 -13056 13082 0
-13057 13082 0
-3718 -13057 13083 0
-13058 13083 0
-3718 -13058 13084 0
-13059 13084 0
-3718 -13059 0
-3719 13085 0
-13060 13085 0
-3719 -13060 13086 0
-13061 13086 0
-3719 -13061 13087 0
-13062 13087 0
-3719 -13062 13088 0
-13063 13088 0
-3719 -13063 13089 0
-13064 13089 0
-3719 -13064 13090 0
-13065 13090 0
-3719 -13065 13091 0
-13066 13091 0
-3719 -13066 13092 0
-13067 13092 0
-3719 -13067 13093 0
-13068 13093 0
-3719 -13068 13094 0
-13069 13094 0
-3719 -13069 13095 0
-13070 13095 0
-3719 -13070 13096 0
-13071 13096 0
-3719 -13071 13097 0
-13072 13097 0
-3719 -13072 13098 0
-13073 13098 0
-3719 -13073 13099 0
-13074 13099 0
-3719 -13074 13100 0
-13075 13100 0
-3719 -13075 13101 0
-13076 13101 0
-3719 -13076 13102 0
-13077 13102 0
-3719 -13077 13103 0
-13078 13103 0
-3719 -13078 13104 0
-13079 13104 0
-3719 -13079 13105 0
-13080 13105 0
-3719 -13080 13106 0
-13081 13106 0
-3719 -13081 13107 0
-13082 13107 0
-3719 -13082 13108 0
-13083 13108 0
-3719 -13083 13109 0
-13084 13109 0
-3719 -13084 0
-3719 13110 0
-13085 13110 0
-3719 -13085 13111 0
-13086 13111 0
-3719 -13086 13112 0
-13087 13112 0
-3719 -13087 13113 0
-13088 13113 0
-3719 -13088 13114 0
-13089 13114 0
-3719 -13089 13115 0
-13090 13115 0
-3719 -13090 13116 0
-13091 13116 0
-3719 -13091 13117 0
-13092 13117 0
-3719 -13092 13118 0
-13093 13118 0
-3719 -13093 13119 0
-13094 13119 0
-3719 -13094 13120 0
-13095 13120 0
-3719 -13095 13121 0
-13096 13121 0
-3719 -13096 13122 0
-13097 13122 0
-3719 -13097 13123 0
-13098 13123 0
-3719 -13098 13124 0
-13099 13124 0
-3719 -13099 13125 0
-13100 13125 0
-3719 -13100 13126 0
-13101 13126 0
-3719 -13101 13127 0
-13102 13127 0
-3719 -13102 13128 0
-13103 13128 0
-3719 -13103 13129 0
-13104 13129 0
-3719 -13104 13130 0
-13105 13130 0
-3719 -13105 13131 0
-13106 13131 0
-3719 -13106 13132 0
-13107 13132 0
-3719 -13107 13133 0
-13108 13133 0
-3719 -13108 13134 0
-13109 13134 0
-3719 -13109 0
-3729 13135 0
-13110 13135 0
-3729 -13110 13136 0
-13111 13136 0
-3729 -13111 13137 0
-13112 13137 0
-3729 -13112 13138 0
-13113 13138 0
-3729 -13113 13139 0
-13114 13139 0
-3729 -13114 13140 0
-13115 13140 0
-3729 -13115 13141 0
-13116 13141 0
-3729 -13116 13142 0
-13117 13142 0
-3729 -13117 13143 0
-13118 13143 0
-3729 -13118 13144 0
-13119 13144 0
-3729 -13119 13145 0
-13120 13145 0
-3729 -13120 13146 0
-13121 13146 0
-3729 -13121 13147 0
-13122 13147 0
-3729 -13122 13148 0
-13123 13148 0
-3729 -13123 13149 0
-13124 13149 0
-3729 -13124 13150 0
-13125 13150 0
-3729 -13125 13151 0
-13126 13151 0
-3729 -13126 13152 0
-13127 13152 0
-3729 -13127 13153 0
-13128 13153 0
-3729 -13128 13154 0
-13129 13154 0
-3729 -13129 13155 0
-13130 13155 0
-3729 -13130 13156 0
-13131 13156 0
-3729 -13131 13157 0
-13132 13157 0
-3729 -13132 13158 0
-13133 13158 0
-3729 -13133 13159 0
-13134 13159 0
-3729 -13134 0
-3729 13160 0
-13135 13160 0
-3729 -13135 13161 0
-13136 13161 0
-3729 -13136 13162 0
-13137 13162 0
-3729 -13137 13163 0
-13138 13163 0
-3729 -13138 13164 0
-13139 13164 0
-3729 -13139 13165 0
-13140 13165 0
-3729 -13140 13166 0
-13141 13166 0
-3729 -13141 13167 0
-13142 13167 0
-3729 -13142 13168 0
-13143 13168 0
-3729 -13143 13169 0
-13144 13169 0
-3729 -13144 13170 0
-13145 13170 0
-3729 -13145 13171 0
-13146 13171 0
-3729 -13146 13172 0
-13147 13172 0
-3729 -13147 13173 0
-13148 13173 0
-3729 -13148 13174 0
-13149 13174 0
-3729 -13149 13175 0
-13150 13175 0
-3729 -13150 13176 0
-13151 13176 0
-3729 -13151 13177 0
-13152 13177 0
-3729 -13152 13178 0
-13153 13178 0
-3729 -13153 13179 0
-13154 13179 0
-3729 -13154 13180 0
-13155 13180 0
-3729 -13155 13181 0
-13156 13181 0
-3729 -13156 13182 0
-13157 13182 0
-3729 -13157 13183 0
-13158 13183 0
-3729 -13158 13184 0
-13159 13184 0
-3729 -13159 0
-3729 13185 0
-13160 13185 0
-3729 -13160 13186 0
-13161 13186 0
-3729 -13161 13187 0
-13162 13187 0
-3729 -13162 13188 0
-13163 13188 0
-3729 -13163 13189 0
-13164 13189 0
-3729 -13164 13190 0
-13165 13190 0
-3729 -13165 13191 0
-13166 13191 0
-3729 -13166 13192 0
-13167 13192 0
-3729 -13167 13193 0
-13168 13193 0
-3729 -13168 13194 0
-13169 13194 0
-3729 -13169 13195 0
-13170 13195 0
-3729 -13170 13196 0
-13171 13196 0
-3729 -13171 13197 0
-13172 13197 0
-3729 -13172 13198 0
-13173 13198 0
-3729 -13173 13199 0
-13174 13199 0
-3729 -13174 13200 0
-13175 13200 0
-3729 -13175 13201 0
-13176 13201 0
-3729 -13176 13202 0
-13177 13202 0
-3729 -13177 13203 0
-13178 13203 0
-3729 -13178 13204 0
-13179 13204 0
-3729 -13179 13205 0
-13180 13205 0
-3729 -13180 13206 0
-13181 13206 0
-3729 -13181 13207 0
-13182 13207 0
-3729 -13182 13208 0
-13183 13208 0
-3729 -13183 13209 0
-13184 13209 0
-3729 -13184 0
-3730 13210 0
-13185 13210 0
-3730 -13185 13211 0
-13186 13211 0
-3730 -13186 13212 0
-13187 13212 0
-3730 -13187 13213 0
-13188 13213 0
-3730 -13188 13214 0
-13189 13214 0
-3730 -13189 13215 0
-13190 13215 0
-3730 -13190 13216 0
-13191 13216 0
-3730 -13191 13217 0
-13192 13217 0
-3730 -13192 13218 0
-13193 13218 0
-3730 -13193 13219 0
-13194 13219 0
-3730 -13194 13220 0
-13195 13220 0
-3730 -13195 13221 0
-13196 13221 0
-3730 -13196 13222 0
-13197 13222 0
-3730 -13197 13223 0
-13198 13223 0
-3730 -13198 13224 0
-13199 13224 0
-3730 -13199 13225 0
-13200 13225 0
-3730 -13200 13226 0
-13201 13226 0
-3730 -13201 13227 0
-13202 13227 0
-3730 -13202 13228 0
-13203 13228 0
-3730 -13203 13229 0
-13204 13229 0
-3730 -13204 13230 0
-13205 13230 0
-3730 -13205 13231 0
-13206 13231 0
-3730 -13206 13232 0
-13207 13232 0
-3730 -13207 13233 0
-13208 13233 0
-3730 -13208 13234 0
-13209 13234 0
-3730 -13209 0
-3730 13235 0
-13210 13235 0
-3730 -13210 13236 0
-13211 13236 0
-3730 -13211 13237 0
-13212 13237 0
-3730 -13212 13238 0
-13213 13238 0
-3730 -13213 13239 0
-13214 13239 0
-3730 -13214 13240 0
-13215 13240 0
-3730 -13215 13241 0
-13216 13241 0
-3730 -13216 13242 0
-13217 13242 0
-3730 -13217 13243 0
-13218 13243 0
-3730 -13218 13244 0
-13219 13244 0
-3730 -13219 13245 0
-13220 13245 0
-3730 -13220 13246 0
-13221 13246 0
-3730 -13221 13247 0
-13222 13247 0
-3730 -13222 13248 0
-13223 13248 0
-3730 -13223 13249 0
-13224 13249 0
-3730 -13224 13250 0
-13225 13250 0
-3730 -13225 13251 0
-13226 13251 0
-3730 -13226 13252 0
-13227 13252 0
-3730 -13227 13253 0
-13228 13253 0
-3730 -13228 13254 0
-13229 13254 0
-3730 -13229 13255 0
-13230 13255 0
-3730 -13230 13256 0
-13231 13256 0
-3730 -13231 13257 0
-13232 13257 0
-3730 -13232 13258 0
-13233 13258 0
-3730 -13233 13259 0
-13234 13259 0
-3730 -13234 0
-3740 13260 0
-13235 13260 0
-3740 -13235 13261 0
-13236 13261 0
-3740 -13236 13262 0
-13237 13262 0
-3740 -13237 13263 0
-13238 13263 0
-3740 -13238 13264 0
-13239 13264 0
-3740 -13239 13265 0
-13240 13265 0
-3740 -13240 13266 0
-13241 13266 0
-3740 -13241 13267 0
-13242 13267 0
-3740 -13242 13268 0
-13243 13268 0
-3740 -13243 13269 0
-13244 13269 0
-3740 -13244 13270 0
-13245 13270 0
-3740 -13245 13271 0
-13246 13271 0
-3740 -13246 13272 0
-13247 13272 0
-3740 -13247 13273 0
-13248 13273 0
-3740 -13248 13274 0
-13249 13274 0
-3740 -13249 13275 0
-13250 13275 0
-3740 -13250 13276 0
-13251 13276 0
-3740 -13251 13277 0
-13252 13277 0
-3740 -13252 13278 0
-13253 13278 0
-3740 -13253 13279 0
-13254 13279 0
-3740 -13254 13280 0
-13255 13280 0
-3740 -13255 13281 0
-13256 13281 0
-3740 -13256 13282 0
-13257 13282 0
-3740 -13257 13283 0
-13258 13283 0
-3740 -13258 13284 0
-13259 13284 0
-3740 -13259 0
-3740 13285 0
-13260 13285 0
-3740 -13260 13286 0
-13261 13286 0
-3740 -13261 13287 0
-13262 13287 0
-3740 -13262 13288 0
-13263 13288 0
-3740 -13263 13289 0
-13264 13289 0
-3740 -13264 13290 0
-13265 13290 0
-3740 -13265 13291 0
-13266 13291 0
-3740 -13266 13292 0
-13267 13292 0
-3740 -13267 13293 0
-13268 13293 0
-3740 -13268 13294 0
-13269 13294 0
-3740 -13269 13295 0
-13270 13295 0
-3740 -13270 13296 0
-13271 13296 0
-3740 -13271 13297 0
-13272 13297 0
-3740 -13272 13298 0
-13273 13298 0
-3740 -13273 13299 0
-13274 13299 0
-3740 -13274 13300 0
-13275 13300 0
-3740 -13275 13301 0
-13276 13301 0
-3740 -13276 13302 0
-13277 13302 0
-3740 -13277 13303 0
-13278 13303 0
-3740 -13278 13304 0
-13279 13304 0
-3740 -13279 13305 0
-13280 13305 0
-3740 -13280 13306 0
-13281 13306 0
-3740 -13281 13307 0
-13282 13307 0
-3740 -13282 13308 0
-13283 13308 0
-3740 -13283 13309 0
-13284 13309 0
-3740 -13284 0
-3740 13310 0
-13285 13310 0
-3740 -13285 13311 0
-13286 13311 0
-3740 -13286 13312 0
-13287 13312 0
-3740 -13287 13313 0
-13288 13313 0
-3740 -13288 13314 0
-13289 13314 0
-3740 -13289 13315 0
-13290 13315 0
-3740 -13290 13316 0
-13291 13316 0
-3740 -13291 13317 0
-13292 13317 0
-3740 -13292 13318 0
-13293 13318 0
-3740 -13293 13319 0
-13294 13319 0
-3740 -13294 13320 0
-13295 13320 0
-3740 -13295 13321 0
-13296 13321 0
-3740 -13296 13322 0
-13297 13322 0
-3740 -13297 13323 0
-13298 13323 0
-3740 -13298 13324 0
-13299 13324 0
-3740 -13299 13325 0
-13300 13325 0
-3740 -13300 13326 0
-13301 13326 0
-3740 -13301 13327 0
-13302 13327 0
-3740 -13302 13328 0
-13303 13328 0
-3740 -13303 13329 0
-13304 13329 0
-3740 -13304 13330 0
-13305 13330 0
-3740 -13305 13331 0
-13306 13331 0
-3740 -13306 13332 0
-13307 13332 0
-3740 -13307 13333 0
-13308 13333 0
-3740 -13308 13334 0
-13309 13334 0
-3740 -13309 0
-3741 13335 0
-13310 13335 0
-3741 -13310 13336 0
-13311 13336 0
-3741 -13311 13337 0
-13312 13337 0
-3741 -13312 13338 0
-13313 13338 0
-3741 -13313 13339 0
-13314 13339 0
-3741 -13314 13340 0
-13315 13340 0
-3741 -13315 13341 0
-13316 13341 0
-3741 -13316 13342 0
-13317 13342 0
-3741 -13317 13343 0
-13318 13343 0
-3741 -13318 13344 0
-13319 13344 0
-3741 -13319 13345 0
-13320 13345 0
-3741 -13320 13346 0
-13321 13346 0
-3741 -13321 13347 0
-13322 13347 0
-3741 -13322 13348 0
-13323 13348 0
-3741 -13323 13349 0
-13324 13349 0
-3741 -13324 13350 0
-13325 13350 0
-3741 -13325 13351 0
-13326 13351 0
-3741 -13326 13352 0
-13327 13352 0
-3741 -13327 13353 0
-13328 13353 0
-3741 -13328 13354 0
-13329 13354 0
-3741 -13329 13355 0
-13330 13355 0
-3741 -13330 13356 0
-13331 13356 0
-3741 -13331 13357 0
-13332 13357 0
-3741 -13332 13358 0
-13333 13358 0
-3741 -13333 13359 0
-13334 13359 0
-3741 -13334 0
-3741 13360 0
-13335 13360 0
-3741 -13335 13361 0
-13336 13361 0
-3741 -13336 13362 0
-13337 13362 0
-3741 -13337 13363 0
-13338 13363 0
-3741 -13338 13364 0
-13339 13364 0
-3741 -13339 13365 0
-13340 13365 0
-3741 -13340 13366 0
-13341 13366 0
-3741 -13341 13367 0
-13342 13367 0
-3741 -13342 13368 0
-13343 13368 0
-3741 -13343 13369 0
-13344 13369 0
-3741 -13344 13370 0
-13345 13370 0
-3741 -13345 13371 0
-13346 13371 0
-3741 -13346 13372 0
-13347 13372 0
-3741 -13347 13373 0
-13348 13373 0
-3741 -13348 13374 0
-13349 13374 0
-3741 -13349 13375 0
-13350 13375 0
-3741 -13350 13376 0
-13351 13376 0
-3741 -13351 13377 0
-13352 13377 0
-3741 -13352 13378 0
-13353 13378 0
-3741 -13353 13379 0
-13354 13379 0
-3741 -13354 13380 0
-13355 13380 0
-3741 -13355 13381 0
-13356 13381 0
-3741 -13356 13382 0
-13357 13382 0
-3741 -13357 13383 0
-13358 13383 0
-3741 -13358 13384 0
-13359 13384 0
-3741 -13359 0
-3751 13385 0
-13360 13385 0
-3751 -13360 13386 0
-13361 13386 0
-3751 -13361 13387 0
-13362 13387 0
-3751 -13362 13388 0
-13363 13388 0
-3751 -13363 13389 0
-13364 13389 0
-3751 -13364 13390 0
-13365 13390 0
-3751 -13365 13391 0
-13366 13391 0
-3751 -13366 13392 0
-13367 13392 0
-3751 -13367 13393 0
-13368 13393 0
-3751 -13368 13394 0
-13369 13394 0
-3751 -13369 13395 0
-13370 13395 0
-3751 -13370 13396 0
-13371 13396 0
-3751 -13371 13397 0
-13372 13397 0
-3751 -13372 13398 0
-13373 13398 0
-3751 -13373 13399 0
-13374 13399 0
-3751 -13374 13400 0
-13375 13400 0
-3751 -13375 13401 0
-13376 13401 0
-3751 -13376 13402 0
-13377 13402 0
-3751 -13377 13403 0
-13378 13403 0
-3751 -13378 13404 0
-13379 13404 0
-3751 -13379 13405 0
-13380 13405 0
-3751 -13380 13406 0
-13381 13406 0
-3751 -13381 13407 0
-13382 13407 0
-3751 -13382 13408 0
-13383 13408 0
-3751 -13383 13409 0
-13384 13409 0
-3751 -13384 0
-3751 13410 0
-13385 13410 0
-3751 -13385 13411 0
-13386 13411 0
-3751 -13386 13412 0
-13387 13412 0
-3751 -13387 13413 0
-13388 13413 0
-3751 -13388 13414 0
-13389 13414 0
-3751 -13389 13415 0
-13390 13415 0
-3751 -13390 13416 0
-13391 13416 0
-3751 -13391 13417 0
-13392 13417 0
-3751 -13392 13418 0
-13393 13418 0
-3751 -13393 13419 0
-13394 13419 0
-3751 -13394 13420 0
-13395 13420 0
-3751 -13395 13421 0
-13396 13421 0
-3751 -13396 13422 0
-13397 13422 0
-3751 -13397 13423 0
-13398 13423 0
-3751 -13398 13424 0
-13399 13424 0
-3751 -13399 13425 0
-13400 13425 0
-3751 -13400 13426 0
-13401 13426 0
-3751 -13401 13427 0
-13402 13427 0
-3751 -13402 13428 0
-13403 13428 0
-3751 -13403 13429 0
-13404 13429 0
-3751 -13404 13430 0
-13405 13430 0
-3751 -13405 13431 0
-13406 13431 0
-3751 -13406 13432 0
-13407 13432 0
-3751 -13407 13433 0
-13408 13433 0
-3751 -13408 13434 0
-13409 13434 0
-3751 -13409 0
-3751 13435 0
-13410 13435 0
-3751 -13410 13436 0
-13411 13436 0
-3751 -13411 13437 0
-13412 13437 0
-3751 -13412 13438 0
-13413 13438 0
-3751 -13413 13439 0
-13414 13439 0
-3751 -13414 13440 0
-13415 13440 0
-3751 -13415 13441 0
-13416 13441 0
-3751 -13416 13442 0
-13417 13442 0
-3751 -13417 13443 0
-13418 13443 0
-3751 -13418 13444 0
-13419 13444 0
-3751 -13419 13445 0
-13420 13445 0
-3751 -13420 13446 0
-13421 13446 0
-3751 -13421 13447 0
-13422 13447 0
-3751 -13422 13448 0
-13423 13448 0
-3751 -13423 13449 0
-13424 13449 0
-3751 -13424 13450 0
-13425 13450 0
-3751 -13425 13451 0
-13426 13451 0
-3751 -13426 13452 0
-13427 13452 0
-3751 -13427 13453 0
-13428 13453 0
-3751 -13428 13454 0
-13429 13454 0
-3751 -13429 13455 0
-13430 13455 0
-3751 -13430 13456 0
-13431 13456 0
-3751 -13431 13457 0
-13432 13457 0
-3751 -13432 13458 0
-13433 13458 0
-3751 -13433 13459 0
-13434 13459 0
-3751 -13434 0
-3752 13460 0
-13435 13460 0
-3752 -13435 13461 0
-13436 13461 0
-3752 -13436 13462 0
-13437 13462 0
-3752 -13437 13463 0
-13438 13463 0
-3752 -13438 13464 0
-13439 13464 0
-3752 -13439 13465 0
-13440 13465 0
-3752 -13440 13466 0
-13441 13466 0
-3752 -13441 13467 0
-13442 13467 0
-3752 -13442 13468 0
-13443 13468 0
-3752 -13443 13469 0
-13444 13469 0
-3752 -13444 13470 0
-13445 13470 0
-3752 -13445 13471 0
-13446 13471 0
-3752 -13446 13472 0
-13447 13472 0
-3752 -13447 13473 0
-13448 13473 0
-3752 -13448 13474 0
-13449 13474 0
-3752 -13449 13475 0
-13450 13475 0
-3752 -13450 13476 0
-13451 13476 0
-3752 -13451 13477 0
-13452 13477 0
-3752 -13452 13478 0
-13453 13478 0
-3752 -13453 13479 0
-13454 13479 0
-3752 -13454 13480 0
-13455 13480 0
-3752 -13455 13481 0
-13456 13481 0
-3752 -13456 13482 0
-13457 13482 0
-3752 -13457 13483 0
-13458 13483 0
-3752 -13458 13484 0
-13459 13484 0
-3752 -13459 0
-3752 13485 0
-13460 13485 0
-3752 -13460 13486 0
-13461 13486 0
-3752 -13461 13487 0
-13462 13487 0
-3752 -13462 13488 0
-13463 13488 0
-3752 -13463 13489 0
-13464 13489 0
-3752 -13464 13490 0
-13465 13490 0
-3752 -13465 13491 0
-13466 13491 0
-3752 -13466 13492 0
-13467 13492 0
-3752 -13467 13493 0
-13468 13493 0
-3752 -13468 13494 0
-13469 13494 0
-3752 -13469 13495 0
-13470 13495 0
-3752 -13470 13496 0
-13471 13496 0
-3752 -13471 13497 0
-13472 13497 0
-3752 -13472 13498 0
-13473 13498 0
-3752 -13473 13499 0
-13474 13499 0
-3752 -13474 13500 0
-13475 13500 0
-3752 -13475 13501 0
-13476 13501 0
-3752 -13476 13502 0
-13477 13502 0
-3752 -13477 13503 0
-13478 13503 0
-3752 -13478 13504 0
-13479 13504 0
-3752 -13479 13505 0
-13480 13505 0
-3752 -13480 13506 0
-13481 13506 0
-3752 -13481 13507 0
-13482 13507 0
-3752 -13482 13508 0
-13483 13508 0
-3752 -13483 13509 0
-13484 13509 0
-3752 -13484 0
-3762 13510 0
-13485 13510 0
-3762 -13485 13511 0
-13486 13511 0
-3762 -13486 13512 0
-13487 13512 0
-3762 -13487 13513 0
-13488 13513 0
-3762 -13488 13514 0
-13489 13514 0
-3762 -13489 13515 0
-13490 13515 0
-3762 -13490 13516 0
-13491 13516 0
-3762 -13491 13517 0
-13492 13517 0
-3762 -13492 13518 0
-13493 13518 0
-3762 -13493 13519 0
-13494 13519 0
-3762 -13494 13520 0
-13495 13520 0
-3762 -13495 13521 0
-13496 13521 0
-3762 -13496 13522 0
-13497 13522 0
-3762 -13497 13523 0
-13498 13523 0
-3762 -13498 13524 0
-13499 13524 0
-3762 -13499 13525 0
-13500 13525 0
-3762 -13500 13526 0
-13501 13526 0
-3762 -13501 13527 0
-13502 13527 0
-3762 -13502 13528 0
-13503 13528 0
-3762 -13503 13529 0
-13504 13529 0
-3762 -13504 13530 0
-13505 13530 0
-3762 -13505 13531 0
-13506 13531 0
-3762 -13506 13532 0
-13507 13532 0
-3762 -13507 13533 0
-13508 13533 0
-3762 -13508 13534 0
-13509 13534 0
-3762 -13509 0
-3762 13535 0
-13510 13535 0
-3762 -13510 13536 0
-13511 13536 0
-3762 -13511 13537 0
-13512 13537 0
-3762 -13512 13538 0
-13513 13538 0
-3762 -13513 13539 0
-13514 13539 0
-3762 -13514 13540 0
-13515 13540 0
-3762 -13515 13541 0
-13516 13541 0
-3762 -13516 13542 0
-13517 13542 0
-3762 -13517 13543 0
-13518 13543 0
-3762 -13518 13544 0
-13519 13544 0
-3762 -13519 13545 0
-13520 13545 0
-3762 -13520 13546 0
-13521 13546 0
-3762 -13521 13547 0
-13522 13547 0
-3762 -13522 13548 0
-13523 13548 0
-3762 -13523 13549 0
-13524 13549 0
-3762 -13524 13550 0
-13525 13550 0
-3762 -13525 13551 0
-13526 13551 0
-3762 -13526 13552 0
-13527 13552 0
-3762 -13527 13553 0
-13528 13553 0
-3762 -13528 13554 0
-13529 13554 0
-3762 -13529 13555 0
-13530 13555 0
-3762 -13530 13556 0
-13531 13556 0
-3762 -13531 13557 0
-13532 13557 0
-3762 -13532 13558 0
-13533 13558 0
-3762 -13533 13559 0
-13534 13559 0
-3762 -13534 0
-3762 13560 0
-13535 13560 0
-3762 -13535 13561 0
-13536 13561 0
-3762 -13536 13562 0
-13537 13562 0
-3762 -13537 13563 0
-13538 13563 0
-3762 -13538 13564 0
-13539 13564 0
-3762 -13539 13565 0
-13540 13565 0
-3762 -13540 13566 0
-13541 13566 0
-3762 -13541 13567 0
-13542 13567 0
-3762 -13542 13568 0
-13543 13568 0
-3762 -13543 13569 0
-13544 13569 0
-3762 -13544 13570 0
-13545 13570 0
-3762 -13545 13571 0
-13546 13571 0
-3762 -13546 13572 0
-13547 13572 0
-3762 -13547 13573 0
-13548 13573 0
-3762 -13548 13574 0
-13549 13574 0
-3762 -13549 13575 0
-13550 13575 0
-3762 -13550 13576 0
-13551 13576 0
-3762 -13551 13577 0
-13552 13577 0
-3762 -13552 13578 0
-13553 13578 0
-3762 -13553 13579 0
-13554 13579 0
-3762 -13554 13580 0
-13555 13580 0
-3762 -13555 13581 0
-13556 13581 0
-3762 -13556 13582 0
-13557 13582 0
-3762 -13557 13583 0
-13558 13583 0
-3762 -13558 13584 0
-13559 13584 0
-3762 -13559 0
-3763 13585 0
-13560 13585 0
-3763 -13560 13586 0
-13561 13586 0
-3763 -13561 13587 0
-13562 13587 0
-3763 -13562 13588 0
-13563 13588 0
-3763 -13563 13589 0
-13564 13589 0
-3763 -13564 13590 0
-13565 13590 0
-3763 -13565 13591 0
-13566 13591 0
-3763 -13566 13592 0
-13567 13592 0
-3763 -13567 13593 0
-13568 13593 0
-3763 -13568 13594 0
-13569 13594 0
-3763 -13569 13595 0
-13570 13595 0
-3763 -13570 13596 0
-13571 13596 0
-3763 -13571 13597 0
-13572 13597 0
-3763 -13572 13598 0
-13573 13598 0
-3763 -13573 13599 0
-13574 13599 0
-3763 -13574 13600 0
-13575 13600 0
-3763 -13575 13601 0
-13576 13601 0
-3763 -13576 13602 0
-13577 13602 0
-3763 -13577 13603 0
-13578 13603 0
-3763 -13578 13604 0
-13579 13604 0
-3763 -13579 13605 0
-13580 13605 0
-3763 -13580 13606 0
-13581 13606 0
-3763 -13581 13607 0
-13582 13607 0
-3763 -13582 13608 0
-13583 13608 0
-3763 -13583 13609 0
-13584 13609 0
-3763 -13584 0
-3763 13610 0
-13585 13610 0
-3763 -13585 13611 0
-13586 13611 0
-3763 -13586 13612 0
-13587 13612 0
-3763 -13587 13613 0
-13588 13613 0
-3763 -13588 13614 0
-13589 13614 0
-3763 -13589 13615 0
-13590 13615 0
-3763 -13590 13616 0
-13591 13616 0
-3763 -13591 13617 0
-13592 13617 0
-3763 -13592 13618 0
-13593 13618 0
-3763 -13593 13619 0
-13594 13619 0
-3763 -13594 13620 0
-13595 13620 0
-3763 -13595 13621 0
-13596 13621 0
-3763 -13596 13622 0
-13597 13622 0
-3763 -13597 13623 0
-13598 13623 0
-3763 -13598 13624 0
-13599 13624 0
-3763 -13599 13625 0
-13600 13625 0
-3763 -13600 13626 0
-13601 13626 0
-3763 -13601 13627 0
-13602 13627 0
-3763 -13602 13628 0
-13603 13628 0
-3763 -13603 13629 0
-13604 13629 0
-3763 -13604 13630 0
-13605 13630 0
-3763 -13605 13631 0
-13606 13631 0
-3763 -13606 13632 0
-13607 13632 0
-3763 -13607 13633 0
-13608 13633 0
-3763 -13608 13634 0
-13609 13634 0
-3763 -13609 0
-3773 13635 0
-13610 13635 0
-3773 -13610 13636 0
-13611 13636 0
-3773 -13611 13637 0
-13612 13637 0
-3773 -13612 13638 0
-13613 13638 0
-3773 -13613 13639 0
-13614 13639 0
-3773 -13614 13640 0
-13615 13640 0
-3773 -13615 13641 0
-13616 13641 0
-3773 -13616 13642 0
-13617 13642 0
-3773 -13617 13643 0
-13618 13643 0
-3773 -13618 13644 0
-13619 13644 0
-3773 -13619 13645 0
-13620 13645 0
-3773 -13620 13646 0
-13621 13646 0
-3773 -13621 13647 0
-13622 13647 0
-3773 -13622 13648 0
-13623 13648 0
-3773 -13623 13649 0
-13624 13649 0
-3773 -13624 13650 0
-13625 13650 0
-3773 -13625 13651 0
-13626 13651 0
-3773 -13626 13652 0
-13627 13652 0
-3773 -13627 13653 0
-13628 13653 0
-3773 -13628 13654 0
-13629 13654 0
-3773 -13629 13655 0
-13630 13655 0
-3773 -13630 13656 0
-13631 13656 0
-3773 -13631 13657 0
-13632 13657 0
-3773 -13632 13658 0
-13633 13658 0
-3773 -13633 13659 0
-13634 13659 0
-3773 -13634 0
-3773 13660 0
-13635 13660 0
-3773 -13635 13661 0
-13636 13661 0
-3773 -13636 13662 0
-13637 13662 0
-3773 -13637 13663 0
-13638 13663 0
-3773 -13638 13664 0
-13639 13664 0
-3773 -13639 13665 0
-13640 13665 0
-3773 -13640 13666 0
-13641 13666 0
-3773 -13641 13667 0
-13642 13667 0
-3773 -13642 13668 0
-13643 13668 0
-3773 -13643 13669 0
-13644 13669 0
-3773 -13644 13670 0
-13645 13670 0
-3773 -13645 13671 0
-13646 13671 0
-3773 -13646 13672 0
-13647 13672 0
-3773 -13647 13673 0
-13648 13673 0
-3773 -13648 13674 0
-13649 13674 0
-3773 -13649 13675 0
-13650 13675 0
-3773 -13650 13676 0
-13651 13676 0
-3773 -13651 13677 0
-13652 13677 0
-3773 -13652 13678 0
-13653 13678 0
-3773 -13653 13679 0
-13654 13679 0
-3773 -13654 13680 0
-13655 13680 0
-3773 -13655 13681 0
-13656 13681 0
-3773 -13656 13682 0
-13657 13682 0
-3773 -13657 13683 0
-13658 13683 0
-3773 -13658 13684 0
-13659 13684 0
-3773 -13659 0
-3773 13685 0
-13660 13685 0
-3773 -13660 13686 0
-13661 13686 0
-3773 -13661 13687 0
-13662 13687 0
-3773 -13662 13688 0
-13663 13688 0
-3773 -13663 13689 0
-13664 13689 0
-3773 -13664 13690 0
-13665 13690 0
-3773 -13665 13691 0
-13666 13691 0
-3773 -13666 13692 0
-13667 13692 0
-3773 -13667 13693 0
-13668 13693 0
-3773 -13668 13694 0
-13669 13694 0
-3773 -13669 13695 0
-13670 13695 0
-3773 -13670 13696 0
-13671 13696 0
-3773 -13671 13697 0
-13672 13697 0
-3773 -13672 13698 0
-13673 13698 0
-3773 -13673 13699 0
-13674 13699 0
-3773 -13674 13700 0
-13675 13700 0
-3773 -13675 13701 0
-13676 13701 0
-3773 -13676 13702 0
-13677 13702 0
-3773 -13677 13703 0
-13678 13703 0
-3773 -13678 13704 0
-13679 13704 0
-3773 -13679 13705 0
-13680 13705 0
-3773 -13680 13706 0
-13681 13706 0
-3773 -13681 13707 0
-13682 13707 0
-3773 -13682 13708 0
-13683 13708 0
-3773 -13683 13709 0
-13684 13709 0
-3773 -13684 0
-3774 13710 0
-13685 13710 0
-3774 -13685 13711 0
-13686 13711 0
-3774 -13686 13712 0
-13687 13712 0
-3774 -13687 13713 0
-13688 13713 0
-3774 -13688 13714 0
-13689 13714 0
-3774 -13689 13715 0
-13690 13715 0
-3774 -13690 13716 0
-13691 13716 0
-3774 -13691 13717 0
-13692 13717 0
-3774 -13692 13718 0
-13693 13718 0
-3774 -13693 13719 0
-13694 13719 0
-3774 -13694 13720 0
-13695 13720 0
-3774 -13695 13721 0
-13696 13721 0
-3774 -13696 13722 0
-13697 13722 0
-3774 -13697 13723 0
-13698 13723 0
-3774 -13698 13724 0
-13699 13724 0
-3774 -13699 13725 0
-13700 13725 0
-3774 -13700 13726 0
-13701 13726 0
-3774 -13701 13727 0
-13702 13727 0
-3774 -13702 13728 0
-13703 13728 0
-3774 -13703 13729 0
-13704 13729 0
-3774 -13704 13730 0
-13705 13730 0
-3774 -13705 13731 0
-13706 13731 0
-3774 -13706 13732 0
-13707 13732 0
-3774 -13707 13733 0
-13708 13733 0
-3774 -13708 13734 0
-13709 13734 0
-3774 -13709 0
-3774 13735 0
-13710 13735 0
-3774 -13710 13736 0
-13711 13736 0
-3774 -13711 13737 0
-13712 13737 0
-3774 -13712 13738 0
-13713 13738 0
-3774 -13713 13739 0
-13714 13739 0
-3774 -13714 13740 0
-13715 13740 0
-3774 -13715 13741 0
-13716 13741 0
-3774 -13716 13742 0
-13717 13742 0
-3774 -13717 13743 0
-13718 13743 0
-3774 -13718 13744 0
-13719 13744 0
-3774 -13719 13745 0
-13720 13745 0
-3774 -13720 13746 0
-13721 13746 0
-3774 -13721 13747 0
-13722 13747 0
-3774 -13722 13748 0
-13723 13748 0
-3774 -13723 13749 0
-13724 13749 0
-3774 -13724 13750 0
-13725 13750 0
-3774 -13725 13751 0
-13726 13751 0
-3774 -13726 13752 0
-13727 13752 0
-3774 -13727 13753 0
-13728 13753 0
-3774 -13728 13754 0
-13729 13754 0
-3774 -13729 13755 0
-13730 13755 0
-3774 -13730 13756 0
-13731 13756 0
-3774 -13731 13757 0
-13732 13757 0
-3774 -13732 13758 0
-13733 13758 0
-3774 -13733 13759 0
-13734 13759 0
-3774 -13734 0
-3784 13760 0
-13735 13760 0
-3784 -13735 13761 0
-13736 13761 0
-3784 -13736 13762 0
-13737 13762 0
-3784 -13737 13763 0
-13738 13763 0
-3784 -13738 13764 0
-13739 13764 0
-3784 -13739 13765 0
-13740 13765 0
-3784 -13740 13766 0
-13741 13766 0
-3784 -13741 13767 0
-13742 13767 0
-3784 -13742 13768 0
-13743 13768 0
-3784 -13743 13769 0
-13744 13769 0
-3784 -13744 13770 0
-13745 13770 0
-3784 -13745 13771 0
-13746 13771 0
-3784 -13746 13772 0
-13747 13772 0
-3784 -13747 13773 0
-13748 13773 0
-3784 -13748 13774 0
-13749 13774 0
-3784 -13749 13775 0
-13750 13775 0
-3784 -13750 13776 0
-13751 13776 0
-3784 -13751 13777 0
-13752 13777 0
-3784 -13752 13778 0
-13753 13778 0
-3784 -13753 13779 0
-13754 13779 0
-3784 -13754 13780 0
-13755 13780 0
-3784 -13755 13781 0
-13756 13781 0
-3784 -13756 13782 0
-13757 13782 0
-3784 -13757 13783 0
-13758 13783 0
-3784 -13758 13784 0
-13759 13784 0
-3784 -13759 0
-3784 13785 0
-13760 13785 0
-3784 -13760 13786 0
-13761 13786 0
-3784 -13761 13787 0
-13762 13787 0
-3784 -13762 13788 0
-13763 13788 0
-3784 -13763 13789 0
-13764 13789 0
-3784 -13764 13790 0
-13765 13790 0
-3784 -13765 13791 0
-13766 13791 0
-3784 -13766 13792 0
-13767 13792 0
-3784 -13767 13793 0
-13768 13793 0
-3784 -13768 13794 0
-13769 13794 0
-3784 -13769 13795 0
-13770 13795 0
-3784 -13770 13796 0
-13771 13796 0
-3784 -13771 13797 0
-13772 13797 0
-3784 -13772 13798 0
-13773 13798 0
-3784 -13773 13799 0
-13774 13799 0
-3784 -13774 13800 0
-13775 13800 0
-3784 -13775 13801 0
-13776 13801 0
-3784 -13776 13802 0
-13777 13802 0
-3784 -13777 13803 0
-13778 13803 0
-3784 -13778 13804 0
-13779 13804 0
-3784 -13779 13805 0
-13780 13805 0
-3784 -13780 13806 0
-13781 13806 0
-3784 -13781 13807 0
-13782 13807 0
-3784 -13782 13808 0
-13783 13808 0
-3784 -13783 13809 0
-13784 13809 0
-3784 -13784 0
-3784 13810 0
-13785 13810 0
-3784 -13785 13811 0
-13786 13811 0
-3784 -13786 13812 0
-13787 13812 0
-3784 -13787 13813 0
-13788 13813 0
-3784 -13788 13814 0
-13789 13814 0
-3784 -13789 13815 0
-13790 13815 0
-3784 -13790 13816 0
-13791 13816 0
-3784 -13791 13817 0
-13792 13817 0
-3784 -13792 13818 0
-13793 13818 0
-3784 -13793 13819 0
-13794 13819 0
-3784 -13794 13820 0
-13795 13820 0
-3784 -13795 13821 0
-13796 13821 0
-3784 -13796 13822 0
-13797 13822 0
-3784 -13797 13823 0
-13798 13823 0
-3784 -13798 13824 0
-13799 13824 0
-3784 -13799 13825 0
-13800 13825 0
-3784 -13800 13826 0
-13801 13826 0
-3784 -13801 13827 0
-13802 13827 0
-3784 -13802 13828 0
-13803 13828 0
-3784 -13803 13829 0
-13804 13829 0
-3784 -13804 13830 0
-13805 13830 0
-3784 -13805 13831 0
-13806 13831 0
-3784 -13806 13832 0
-13807 13832 0
-3784 -13807 13833 0
-13808 13833 0
-3784 -13808 13834 0
-13809 13834 0
-3784 -13809 0
-3785 13835 0
-13810 13835 0
-3785 -13810 13836 0
-13811 13836 0
-3785 -13811 13837 0
-13812 13837 0
-3785 -13812 13838 0
-13813 13838 0
-3785 -13813 13839 0
-13814 13839 0
-3785 -13814 13840 0
-13815 13840 0
-3785 -13815 13841 0
-13816 13841 0
-3785 -13816 13842 0
-13817 13842 0
-3785 -13817 13843 0
-13818 13843 0
-3785 -13818 13844 0
-13819 13844 0
-3785 -13819 13845 0
-13820 13845 0
-3785 -13820 13846 0
-13821 13846 0
-3785 -13821 13847 0
-13822 13847 0
-3785 -13822 13848 0
-13823 13848 0
-3785 -13823 13849 0
-13824 13849 0
-3785 -13824 13850 0
-13825 13850 0
-3785 -13825 13851 0
-13826 13851 0
-3785 -13826 13852 0
-13827 13852 0
-3785 -13827 13853 0
-13828 13853 0
-3785 -13828 13854 0
-13829 13854 0
-3785 -13829 13855 0
-13830 13855 0
-3785 -13830 13856 0
-13831 13856 0
-3785 -13831 13857 0
-13832 13857 0
-3785 -13832 13858 0
-13833 13858 0
-3785 -13833 13859 0
-13834 13859 0
-3785 -13834 0
-3785 13860 0
-13835 13860 0
-3785 -13835 13861 0
-13836 13861 0
-3785 -13836 13862 0
-13837 13862 0
-3785 -13837 13863 0
-13838 13863 0
-3785 -13838 13864 0
-13839 13864 0
-3785 -13839 13865 0
-13840 13865 0
-3785 -13840 13866 0
-13841 13866 0
-3785 -13841 13867 0
-13842 13867 0
-3785 -13842 13868 0
-13843 13868 0
-3785 -13843 13869 0
-13844 13869 0
-3785 -13844 13870 0
-13845 13870 0
-3785 -13845 13871 0
-13846 13871 0
-3785 -13846 13872 0
-13847 13872 0
-3785 -13847 13873 0
-13848 13873 0
-3785 -13848 13874 0
-13849 13874 0
-3785 -13849 13875 0
-13850 13875 0
-3785 -13850 13876 0
-13851 13876 0
-3785 -13851 13877 0
-13852 13877 0
-3785 -13852 13878 0
-13853 13878 0
-3785 -13853 13879 0
-13854 13879 0
-3785 -13854 13880 0
-13855 13880 0
-3785 -13855 13881 0
-13856 13881 0
-3785 -13856 13882 0
-13857 13882 0
-3785 -13857 13883 0
-13858 13883 0
-3785 -13858 13884 0
-13859 13884 0
-3785 -13859 0
-3795 13885 0
-13860 13885 0
-3795 -13860 13886 0
-13861 13886 0
-3795 -13861 13887 0
-13862 13887 0
-3795 -13862 13888 0
-13863 13888 0
-3795 -13863 13889 0
-13864 13889 0
-3795 -13864 13890 0
-13865 13890 0
-3795 -13865 13891 0
-13866 13891 0
-3795 -13866 13892 0
-13867 13892 0
-3795 -13867 13893 0
-13868 13893 0
-3795 -13868 13894 0
-13869 13894 0
-3795 -13869 13895 0
-13870 13895 0
-3795 -13870 13896 0
-13871 13896 0
-3795 -13871 13897 0
-13872 13897 0
-3795 -13872 13898 0
-13873 13898 0
-3795 -13873 13899 0
-13874 13899 0
-3795 -13874 13900 0
-13875 13900 0
-3795 -13875 13901 0
-13876 13901 0
-3795 -13876 13902 0
-13877 13902 0
-3795 -13877 13903 0
-13878 13903 0
-3795 -13878 13904 0
-13879 13904 0
-3795 -13879 13905 0
-13880 13905 0
-3795 -13880 13906 0
-13881 13906 0
-3795 -13881 13907 0
-13882 13907 0
-3795 -13882 13908 0
-13883 13908 0
-3795 -13883 13909 0
-13884 13909 0
-3795 -13884 0
-3795 13910 0
-13885 13910 0
-3795 -13885 13911 0
-13886 13911 0
-3795 -13886 13912 0
-13887 13912 0
-3795 -13887 13913 0
-13888 13913 0
-3795 -13888 13914 0
-13889 13914 0
-3795 -13889 13915 0
-13890 13915 0
-3795 -13890 13916 0
-13891 13916 0
-3795 -13891 13917 0
-13892 13917 0
-3795 -13892 13918 0
-13893 13918 0
-3795 -13893 13919 0
-13894 13919 0
-3795 -13894 13920 0
-13895 13920 0
-3795 -13895 13921 0
-13896 13921 0
-3795 -13896 13922 0
-13897 13922 0
-3795 -13897 13923 0
-13898 13923 0
-3795 -13898 13924 0
-13899 13924 0
-3795 -13899 13925 0
-13900 13925 0
-3795 -13900 13926 0
-13901 13926 0
-3795 -13901 13927 0
-13902 13927 0
-3795 -13902 13928 0
-13903 13928 0
-3795 -13903 13929 0
-13904 13929 0
-3795 -13904 13930 0
-13905 13930 0
-3795 -13905 13931 0
-13906 13931 0
-3795 -13906 13932 0
-13907 13932 0
-3795 -13907 13933 0
-13908 13933 0
-3795 -13908 13934 0
-13909 13934 0
-3795 -13909 0
-3795 13935 0
-13910 13935 0
-3795 -13910 13936 0
-13911 13936 0
-3795 -13911 13937 0
-13912 13937 0
-3795 -13912 13938 0
-13913 13938 0
-3795 -13913 13939 0
-13914 13939 0
-3795 -13914 13940 0
-13915 13940 0
-3795 -13915 13941 0
-13916 13941 0
-3795 -13916 13942 0
-13917 13942 0
-3795 -13917 13943 0
-13918 13943 0
-3795 -13918 13944 0
-13919 13944 0
-3795 -13919 13945 0
-13920 13945 0
-3795 -13920 13946 0
-13921 13946 0
-3795 -13921 13947 0
-13922 13947 0
-3795 -13922 13948 0
-13923 13948 0
-3795 -13923 13949 0
-13924 13949 0
-3795 -13924 13950 0
-13925 13950 0
-3795 -13925 13951 0
-13926 13951 0
-3795 -13926 13952 0
-13927 13952 0
-3795 -13927 13953 0
-13928 13953 0
-3795 -13928 13954 0
-13929 13954 0
-3795 -13929 13955 0
-13930 13955 0
-3795 -13930 13956 0
-13931 13956 0
-3795 -13931 13957 0
-13932 13957 0
-3795 -13932 13958 0
-13933 13958 0
-3795 -13933 13959 0
-13934 13959 0
-3795 -13934 0
-3796 13960 0
-13935 13960 0
-3796 -13935 13961 0
-13936 13961 0
-3796 -13936 13962 0
-13937 13962 0
-3796 -13937 13963 0
-13938 13963 0
-3796 -13938 13964 0
-13939 13964 0
-3796 -13939 13965 0
-13940 13965 0
-3796 -13940 13966 0
-13941 13966 0
-3796 -13941 13967 0
-13942 13967 0
-3796 -13942 13968 0
-13943 13968 0
-3796 -13943 13969 0
-13944 13969 0
-3796 -13944 13970 0
-13945 13970 0
-3796 -13945 13971 0
-13946 13971 0
-3796 -13946 13972 0
-13947 13972 0
-3796 -13947 13973 0
-13948 13973 0
-3796 -13948 13974 0
-13949 13974 0
-3796 -13949 13975 0
-13950 13975 0
-3796 -13950 13976 0
-13951 13976 0
-3796 -13951 13977 0
-13952 13977 0
-3796 -13952 13978 0
-13953 13978 0
-3796 -13953 13979 0
-13954 13979 0
-3796 -13954 13980 0
-13955 13980 0
-3796 -13955 13981 0
-13956 13981 0
-3796 -13956 13982 0
-13957 13982 0
-3796 -13957 13983 0
-13958 13983 0
-3796 -13958 13984 0
-13959 13984 0
-3796 -13959 0
-3796 13985 0
-13960 13985 0
-3796 -13960 13986 0
-13961 13986 0
-3796 -13961 13987 0
-13962 13987 0
-3796 -13962 13988 0
-13963 13988 0
-3796 -13963 13989 0
-13964 13989 0
-3796 -13964 13990 0
-13965 13990 0
-3796 -13965 13991 0
-13966 13991 0
-3796 -13966 13992 0
-13967 13992 0
-3796 -13967 13993 0
-13968 13993 0
-3796 -13968 13994 0
-13969 13994 0
-3796 -13969 13995 0
-13970 13995 0
-3796 -13970 13996 0
-13971 13996 0
-3796 -13971 13997 0
-13972 13997 0
-3796 -13972 13998 0
-13973 13998 0
-3796 -13973 13999 0
-13974 13999 0
-3796 -13974 14000 0
-13975 14000 0
-3796 -13975 14001 0
-13976 14001 0
-3796 -13976 14002 0
-13977 14002 0
-3796 -13977 14003 0
-13978 14003 0
-3796 -13978 14004 0
-13979 14004 0
-3796 -13979 14005 0
-13980 14005 0
-3796 -13980 14006 0
-13981 14006 0
-3796 -13981 14007 0
-13982 14007 0
-3796 -13982 14008 0
-13983 14008 0
-3796 -13983 14009 0
-13984 14009 0
-3796 -13984 0
-3806 14010 0
-13985 14010 0
-3806 -13985 14011 0
-13986 14011 0
-3806 -13986 14012 0
-13987 14012 0
-3806 -13987 14013 0
-13988 14013 0
-3806 -13988 14014 0
-13989 14014 0
-3806 -13989 14015 0
-13990 14015 0
-3806 -13990 14016 0
-13991 14016 0
-3806 -13991 14017 0
-13992 14017 0
-3806 -13992 14018 0
-13993 14018 0
-3806 -13993 14019 0
-13994 14019 0
-3806 -13994 14020 0
-13995 14020 0
-3806 -13995 14021 0
-13996 14021 0
-3806 -13996 14022 0
-13997 14022 0
-3806 -13997 14023 0
-13998 14023 0
-3806 -13998 14024 0
-13999 14024 0
-3806 -13999 14025 0
-14000 14025 0
-3806 -14000 14026 0
-14001 14026 0
-3806 -14001 14027 0
-14002 14027 0
-3806 -14002 14028 0
-14003 14028 0
-3806 -14003 14029 0
-14004 14029 0
-3806 -14004 14030 0
-14005 14030 0
-3806 -14005 14031 0
-14006 14031 0
-3806 -14006 14032 0
-14007 14032 0
-3806 -14007 14033 0
-14008 14033 0
-3806 -14008 14034 0
-14009 14034 0
-3806 -14009 0
-3806 14035 0
-14010 14035 0
-3806 -14010 14036 0
-14011 14036 0
-3806 -14011 14037 0
-14012 14037 0
-3806 -14012 14038 0
-14013 14038 0
-3806 -14013 14039 0
-14014 14039 0
-3806 -14014 14040 0
-14015 14040 0
-3806 -14015 14041 0
-14016 14041 0
-3806 -14016 14042 0
-14017 14042 0
-3806 -14017 14043 0
-14018 14043 0
-3806 -14018 14044 0
-14019 14044 0
-3806 -14019 14045 0
-14020 14045 0
-3806 -14020 14046 0
-14021 14046 0
-3806 -14021 14047 0
-14022 14047 0
-3806 -14022 14048 0
-14023 14048 0
-3806 -14023 14049 0
-14024 14049 0
-3806 -14024 14050 0
-14025 14050 0
-3806 -14025 14051 0
-14026 14051 0
-3806 -14026 14052 0
-14027 14052 0
-3806 -14027 14053 0
-14028 14053 0
-3806 -14028 14054 0
-14029 14054 0
-3806 -14029 14055 0
-14030 14055 0
-3806 -14030 14056 0
-14031 14056 0
-3806 -14031 14057 0
-14032 14057 0
-3806 -14032 14058 0
-14033 14058 0
-3806 -14033 14059 0
-14034 14059 0
-3806 -14034 0
-3806 14060 0
-14035 14060 0
-3806 -14035 14061 0
-14036 14061 0
-3806 -14036 14062 0
-14037 14062 0
-3806 -14037 14063 0
-14038 14063 0
-3806 -14038 14064 0
-14039 14064 0
-3806 -14039 14065 0
-14040 14065 0
-3806 -14040 14066 0
-14041 14066 0
-3806 -14041 14067 0
-14042 14067 0
-3806 -14042 14068 0
-14043 14068 0
-3806 -14043 14069 0
-14044 14069 0
-3806 -14044 14070 0
-14045 14070 0
-3806 -14045 14071 0
-14046 14071 0
-3806 -14046 14072 0
-14047 14072 0
-3806 -14047 14073 0
-14048 14073 0
-3806 -14048 14074 0
-14049 14074 0
-3806 -14049 14075 0
-14050 14075 0
-3806 -14050 14076 0
-14051 14076 0
-3806 -14051 14077 0
-14052 14077 0
-3806 -14052 14078 0
-14053 14078 0
-3806 -14053 14079 0
-14054 14079 0
-3806 -14054 14080 0
-14055 14080 0
-3806 -14055 14081 0
-14056 14081 0
-3806 -14056 14082 0
-14057 14082 0
-3806 -14057 14083 0
-14058 14083 0
-3806 -14058 14084 0
-14059 14084 0
-3806 -14059 0
-3807 14085 0
-14060 14085 0
-3807 -14060 14086 0
-14061 14086 0
-3807 -14061 14087 0
-14062 14087 0
-3807 -14062 14088 0
-14063 14088 0
-3807 -14063 14089 0
-14064 14089 0
-3807 -14064 14090 0
-14065 14090 0
-3807 -14065 14091 0
-14066 14091 0
-3807 -14066 14092 0
-14067 14092 0
-3807 -14067 14093 0
-14068 14093 0
-3807 -14068 14094 0
-14069 14094 0
-3807 -14069 14095 0
-14070 14095 0
-3807 -14070 14096 0
-14071 14096 0
-3807 -14071 14097 0
-14072 14097 0
-3807 -14072 14098 0
-14073 14098 0
-3807 -14073 14099 0
-14074 14099 0
-3807 -14074 14100 0
-14075 14100 0
-3807 -14075 14101 0
-14076 14101 0
-3807 -14076 14102 0
-14077 14102 0
-3807 -14077 14103 0
-14078 14103 0
-3807 -14078 14104 0
-14079 14104 0
-3807 -14079 14105 0
-14080 14105 0
-3807 -14080 14106 0
-14081 14106 0
-3807 -14081 14107 0
-14082 14107 0
-3807 -14082 14108 0
-14083 14108 0
-3807 -14083 14109 0
-14084 14109 0
-3807 -14084 0
-3807 14110 0
-14085 14110 0
-3807 -14085 14111 0
-14086 14111 0
-3807 -14086 14112 0
-14087 14112 0
-3807 -14087 14113 0
-14088 14113 0
-3807 -14088 14114 0
-14089 14114 0
-3807 -14089 14115 0
-14090 14115 0
-3807 -14090 14116 0
-14091 14116 0
-3807 -14091 14117 0
-14092 14117 0
-3807 -14092 14118 0
-14093 14118 0
-3807 -14093 14119 0
-14094 14119 0
-3807 -14094 14120 0
-14095 14120 0
-3807 -14095 14121 0
-14096 14121 0
-3807 -14096 14122 0
-14097 14122 0
-3807 -14097 14123 0
-14098 14123 0
-3807 -14098 14124 0
-14099 14124 0
-3807 -14099 14125 0
-14100 14125 0
-3807 -14100 14126 0
-14101 14126 0
-3807 -14101 14127 0
-14102 14127 0
-3807 -14102 14128 0
-14103 14128 0
-3807 -14103 14129 0
-14104 14129 0
-3807 -14104 14130 0
-14105 14130 0
-3807 -14105 14131 0
-14106 14131 0
-3807 -14106 14132 0
-14107 14132 0
-3807 -14107 14133 0
-14108 14133 0
-3807 -14108 14134 0
-14109 14134 0
-3807 -14109 0
-3817 14135 0
-14110 14135 0
-3817 -14110 14136 0
-14111 14136 0
-3817 -14111 14137 0
-14112 14137 0
-3817 -14112 14138 0
-14113 14138 0
-3817 -14113 14139 0
-14114 14139 0
-3817 -14114 14140 0
-14115 14140 0
-3817 -14115 14141 0
-14116 14141 0
-3817 -14116 14142 0
-14117 14142 0
-3817 -14117 14143 0
-14118 14143 0
-3817 -14118 14144 0
-14119 14144 0
-3817 -14119 14145 0
-14120 14145 0
-3817 -14120 14146 0
-14121 14146 0
-3817 -14121 14147 0
-14122 14147 0
-3817 -14122 14148 0
-14123 14148 0
-3817 -14123 14149 0
-14124 14149 0
-3817 -14124 14150 0
-14125 14150 0
-3817 -14125 14151 0
-14126 14151 0
-3817 -14126 14152 0
-14127 14152 0
-3817 -14127 14153 0
-14128 14153 0
-3817 -14128 14154 0
-14129 14154 0
-3817 -14129 14155 0
-14130 14155 0
-3817 -14130 14156 0
-14131 14156 0
-3817 -14131 14157 0
-14132 14157 0
-3817 -14132 14158 0
-14133 14158 0
-3817 -14133 14159 0
-14134 14159 0
-3817 -14134 0
-3817 14160 0
-14135 14160 0
-3817 -14135 14161 0
-14136 14161 0
-3817 -14136 14162 0
-14137 14162 0
-3817 -14137 14163 0
-14138 14163 0
-3817 -14138 14164 0
-14139 14164 0
-3817 -14139 14165 0
-14140 14165 0
-3817 -14140 14166 0
-14141 14166 0
-3817 -14141 14167 0
-14142 14167 0
-3817 -14142 14168 0
-14143 14168 0
-3817 -14143 14169 0
-14144 14169 0
-3817 -14144 14170 0
-14145 14170 0
-3817 -14145 14171 0
-14146 14171 0
-3817 -14146 14172 0
-14147 14172 0
-3817 -14147 14173 0
-14148 14173 0
-3817 -14148 14174 0
-14149 14174 0
-3817 -14149 14175 0
-14150 14175 0
-3817 -14150 14176 0
-14151 14176 0
-3817 -14151 14177 0
-14152 14177 0
-3817 -14152 14178 0
-14153 14178 0
-3817 -14153 14179 0
-14154 14179 0
-3817 -14154 14180 0
-14155 14180 0
-3817 -14155 14181 0
-14156 14181 0
-3817 -14156 14182 0
-14157 14182 0
-3817 -14157 14183 0
-14158 14183 0
-3817 -14158 14184 0
-14159 14184 0
-3817 -14159 0
-3817 14185 0
-14160 14185 0
-3817 -14160 14186 0
-14161 14186 0
-3817 -14161 14187 0
-14162 14187 0
-3817 -14162 14188 0
-14163 14188 0
-3817 -14163 14189 0
-14164 14189 0
-3817 -14164 14190 0
-14165 14190 0
-3817 -14165 14191 0
-14166 14191 0
-3817 -14166 14192 0
-14167 14192 0
-3817 -14167 14193 0
-14168 14193 0
-3817 -14168 14194 0
-14169 14194 0
-3817 -14169 14195 0
-14170 14195 0
-3817 -14170 14196 0
-14171 14196 0
-3817 -14171 14197 0
-14172 14197 0
-3817 -14172 14198 0
-14173 14198 0
-3817 -14173 14199 0
-14174 14199 0
-3817 -14174 14200 0
-14175 14200 0
-3817 -14175 14201 0
-14176 14201 0
-3817 -14176 14202 0
-14177 14202 0
-3817 -14177 14203 0
-14178 14203 0
-3817 -14178 14204 0
-14179 14204 0
-3817 -14179 14205 0
-14180 14205 0
-3817 -14180 14206 0
-14181 14206 0
-3817 -14181 14207 0
-14182 14207 0
-3817 -14182 14208 0
-14183 14208 0
-3817 -14183 14209 0
-14184 14209 0
-3817 -14184 0
-3818 14210 0
-14185 14210 0
-3818 -14185 14211 0
-14186 14211 0
-3818 -14186 14212 0
-14187 14212 0
-3818 -14187 14213 0
-14188 14213 0
-3818 -14188 14214 0
-14189 14214 0
-3818 -14189 14215 0
-14190 14215 0
-3818 -14190 14216 0
-14191 14216 0
-3818 -14191 14217 0
-14192 14217 0
-3818 -14192 14218 0
-14193 14218 0
-3818 -14193 14219 0
-14194 14219 0
-3818 -14194 14220 0
-14195 14220 0
-3818 -14195 14221 0
-14196 14221 0
-3818 -14196 14222 0
-14197 14222 0
-3818 -14197 14223 0
-14198 14223 0
-3818 -14198 14224 0
-14199 14224 0
-3818 -14199 14225 0
-14200 14225 0
-3818 -14200 14226 0
-14201 14226 0
-3818 -14201 14227 0
-14202 14227 0
-3818 -14202 14228 0
-14203 14228 0
-3818 -14203 14229 0
-14204 14229 0
-3818 -14204 14230 0
-14205 14230 0
-3818 -14205 14231 0
-14206 14231 0
-3818 -14206 14232 0
-14207 14232 0
-3818 -14207 14233 0
-14208 14233 0
-3818 -14208 14234 0
-14209 14234 0
-3818 -14209 0
-3818 14235 0
-14210 14235 0
-3818 -14210 14236 0
-14211 14236 0
-3818 -14211 14237 0
-14212 14237 0
-3818 -14212 14238 0
-14213 14238 0
-3818 -14213 14239 0
-14214 14239 0
-3818 -14214 14240 0
-14215 14240 0
-3818 -14215 14241 0
-14216 14241 0
-3818 -14216 14242 0
-14217 14242 0
-3818 -14217 14243 0
-14218 14243 0
-3818 -14218 14244 0
-14219 14244 0
-3818 -14219 14245 0
-14220 14245 0
-3818 -14220 14246 0
-14221 14246 0
-3818 -14221 14247 0
-14222 14247 0
-3818 -14222 14248 0
-14223 14248 0
-3818 -14223 14249 0
-14224 14249 0
-3818 -14224 14250 0
-14225 14250 0
-3818 -14225 14251 0
-14226 14251 0
-3818 -14226 14252 0
-14227 14252 0
-3818 -14227 14253 0
-14228 14253 0
-3818 -14228 14254 0
-14229 14254 0
-3818 -14229 14255 0
-14230 14255 0
-3818 -14230 14256 0
-14231 14256 0
-3818 -14231 14257 0
-14232 14257 0
-3818 -14232 14258 0
-14233 14258 0
-3818 -14233 14259 0
-14234 14259 0
-3818 -14234 0
-3828 14260 0
-14235 14260 0
-3828 -14235 14261 0
-14236 14261 0
-3828 -14236 14262 0
-14237 14262 0
-3828 -14237 14263 0
-14238 14263 0
-3828 -14238 14264 0
-14239 14264 0
-3828 -14239 14265 0
-14240 14265 0
-3828 -14240 14266 0
-14241 14266 0
-3828 -14241 14267 0
-14242 14267 0
-3828 -14242 14268 0
-14243 14268 0
-3828 -14243 14269 0
-14244 14269 0
-3828 -14244 14270 0
-14245 14270 0
-3828 -14245 14271 0
-14246 14271 0
-3828 -14246 14272 0
-14247 14272 0
-3828 -14247 14273 0
-14248 14273 0
-3828 -14248 14274 0
-14249 14274 0
-3828 -14249 14275 0
-14250 14275 0
-3828 -14250 14276 0
-14251 14276 0
-3828 -14251 14277 0
-14252 14277 0
-3828 -14252 14278 0
-14253 14278 0
-3828 -14253 14279 0
-14254 14279 0
-3828 -14254 14280 0
-14255 14280 0
-3828 -14255 14281 0
-14256 14281 0
-3828 -14256 14282 0
-14257 14282 0
-3828 -14257 14283 0
-14258 14283 0
-3828 -14258 14284 0
-14259 14284 0
-3828 -14259 0
-3828 14285 0
-14260 14285 0
-3828 -14260 14286 0
-14261 14286 0
-3828 -14261 14287 0
-14262 14287 0
-3828 -14262 14288 0
-14263 14288 0
-3828 -14263 14289 0
-14264 14289 0
-3828 -14264 14290 0
-14265 14290 0
-3828 -14265 14291 0
-14266 14291 0
-3828 -14266 14292 0
-14267 14292 0
-3828 -14267 14293 0
-14268 14293 0
-3828 -14268 14294 0
-14269 14294 0
-3828 -14269 14295 0
-14270 14295 0
-3828 -14270 14296 0
-14271 14296 0
-3828 -14271 14297 0
-14272 14297 0
-3828 -14272 14298 0
-14273 14298 0
-3828 -14273 14299 0
-14274 14299 0
-3828 -14274 14300 0
-14275 14300 0
-3828 -14275 14301 0
-14276 14301 0
-3828 -14276 14302 0
-14277 14302 0
-3828 -14277 14303 0
-14278 14303 0
-3828 -14278 14304 0
-14279 14304 0
-3828 -14279 14305 0
-14280 14305 0
-3828 -14280 14306 0
-14281 14306 0
-3828 -14281 14307 0
-14282 14307 0
-3828 -14282 14308 0
-14283 14308 0
-3828 -14283 14309 0
-14284 14309 0
-3828 -14284 0
-3828 14310 0
-14285 14310 0
-3828 -14285 14311 0
-14286 14311 0
-3828 -14286 14312 0
-14287 14312 0
-3828 -14287 14313 0
-14288 14313 0
-3828 -14288 14314 0
-14289 14314 0
-3828 -14289 14315 0
-14290 14315 0
-3828 -14290 14316 0
-14291 14316 0
-3828 -14291 14317 0
-14292 14317 0
-3828 -14292 14318 0
-14293 14318 0
-3828 -14293 14319 0
-14294 14319 0
-3828 -14294 14320 0
-14295 14320 0
-3828 -14295 14321 0
-14296 14321 0
-3828 -14296 14322 0
-14297 14322 0
-3828 -14297 14323 0
-14298 14323 0
-3828 -14298 14324 0
-14299 14324 0
-3828 -14299 14325 0
-14300 14325 0
-3828 -14300 14326 0
-14301 14326 0
-3828 -14301 14327 0
-14302 14327 0
-3828 -14302 14328 0
-14303 14328 0
-3828 -14303 14329 0
-14304 14329 0
-3828 -14304 14330 0
-14305 14330 0
-3828 -14305 14331 0
-14306 14331 0
-3828 -14306 14332 0
-14307 14332 0
-3828 -14307 14333 0
-14308 14333 0
-3828 -14308 14334 0
-14309 14334 0
-3828 -14309 0
-3829 14335 0
-14310 14335 0
-3829 -14310 14336 0
-14311 14336 0
-3829 -14311 14337 0
-14312 14337 0
-3829 -14312 14338 0
-14313 14338 0
-3829 -14313 14339 0
-14314 14339 0
-3829 -14314 14340 0
-14315 14340 0
-3829 -14315 14341 0
-14316 14341 0
-3829 -14316 14342 0
-14317 14342 0
-3829 -14317 14343 0
-14318 14343 0
-3829 -14318 14344 0
-14319 14344 0
-3829 -14319 14345 0
-14320 14345 0
-3829 -14320 14346 0
-14321 14346 0
-3829 -14321 14347 0
-14322 14347 0
-3829 -14322 14348 0
-14323 14348 0
-3829 -14323 14349 0
-14324 14349 0
-3829 -14324 14350 0
-14325 14350 0
-3829 -14325 14351 0
-14326 14351 0
-3829 -14326 14352 0
-14327 14352 0
-3829 -14327 14353 0
-14328 14353 0
-3829 -14328 14354 0
-14329 14354 0
-3829 -14329 14355 0
-14330 14355 0
-3829 -14330 14356 0
-14331 14356 0
-3829 -14331 14357 0
-14332 14357 0
-3829 -14332 14358 0
-14333 14358 0
-3829 -14333 14359 0
-14334 14359 0
-3829 -14334 0
-3829 14360 0
-14335 14360 0
-3829 -14335 14361 0
-14336 14361 0
-3829 -14336 14362 0
-14337 14362 0
-3829 -14337 14363 0
-14338 14363 0
-3829 -14338 14364 0
-14339 14364 0
-3829 -14339 14365 0
-14340 14365 0
-3829 -14340 14366 0
-14341 14366 0
-3829 -14341 14367 0
-14342 14367 0
-3829 -14342 14368 0
-14343 14368 0
-3829 -14343 14369 0
-14344 14369 0
-3829 -14344 14370 0
-14345 14370 0
-3829 -14345 14371 0
-14346 14371 0
-3829 -14346 14372 0
-14347 14372 0
-3829 -14347 14373 0
-14348 14373 0
-3829 -14348 14374 0
-14349 14374 0
-3829 -14349 14375 0
-14350 14375 0
-3829 -14350 14376 0
-14351 14376 0
-3829 -14351 14377 0
-14352 14377 0
-3829 -14352 14378 0
-14353 14378 0
-3829 -14353 14379 0
-14354 14379 0
-3829 -14354 14380 0
-14355 14380 0
-3829 -14355 14381 0
-14356 14381 0
-3829 -14356 14382 0
-14357 14382 0
-3829 -14357 14383 0
-14358 14383 0
-3829 -14358 14384 0
-14359 14384 0
-3829 -14359 0
-3839 14385 0
-14360 14385 0
-3839 -14360 14386 0
-14361 14386 0
-3839 -14361 14387 0
-14362 14387 0
-3839 -14362 14388 0
-14363 14388 0
-3839 -14363 14389 0
-14364 14389 0
-3839 -14364 14390 0
-14365 14390 0
-3839 -14365 14391 0
-14366 14391 0
-3839 -14366 14392 0
-14367 14392 0
-3839 -14367 14393 0
-14368 14393 0
-3839 -14368 14394 0
-14369 14394 0
-3839 -14369 14395 0
-14370 14395 0
-3839 -14370 14396 0
-14371 14396 0
-3839 -14371 14397 0
-14372 14397 0
-3839 -14372 14398 0
-14373 14398 0
-3839 -14373 14399 0
-14374 14399 0
-3839 -14374 14400 0
-14375 14400 0
-3839 -14375 14401 0
-14376 14401 0
-3839 -14376 14402 0
-14377 14402 0
-3839 -14377 14403 0
-14378 14403 0
-3839 -14378 14404 0
-14379 14404 0
-3839 -14379 14405 0
-14380 14405 0
-3839 -14380 14406 0
-14381 14406 0
-3839 -14381 14407 0
-14382 14407 0
-3839 -14382 14408 0
-14383 14408 0
-3839 -14383 14409 0
-14384 14409 0
-3839 -14384 0
-3839 14410 0
-14385 14410 0
-3839 -14385 14411 0
-14386 14411 0
-3839 -14386 14412 0
-14387 14412 0
-3839 -14387 14413 0
-14388 14413 0
-3839 -14388 14414 0
-14389 14414 0
-3839 -14389 14415 0
-14390 14415 0
-3839 -14390 14416 0
-14391 14416 0
-3839 -14391 14417 0
-14392 14417 0
-3839 -14392 14418 0
-14393 14418 0
-3839 -14393 14419 0
-14394 14419 0
-3839 -14394 14420 0
-14395 14420 0
-3839 -14395 14421 0
-14396 14421 0
-3839 -14396 14422 0
-14397 14422 0
-3839 -14397 14423 0
-14398 14423 0
-3839 -14398 14424 0
-14399 14424 0
-3839 -14399 14425 0
-14400 14425 0
-3839 -14400 14426 0
-14401 14426 0
-3839 -14401 14427 0
-14402 14427 0
-3839 -14402 14428 0
-14403 14428 0
-3839 -14403 14429 0
-14404 14429 0
-3839 -14404 14430 0
-14405 14430 0
-3839 -14405 14431 0
-14406 14431 0
-3839 -14406 14432 0
-14407 14432 0
-3839 -14407 14433 0
-14408 14433 0
-3839 -14408 14434 0
-14409 14434 0
-3839 -14409 0
-3839 14435 0
-14410 14435 0
-3839 -14410 14436 0
-14411 14436 0
-3839 -14411 14437 0
-14412 14437 0
-3839 -14412 14438 0
-14413 14438 0
-3839 -14413 14439 0
-14414 14439 0
-3839 -14414 14440 0
-14415 14440 0
-3839 -14415 14441 0
-14416 14441 0
-3839 -14416 14442 0
-14417 14442 0
-3839 -14417 14443 0
-14418 14443 0
-3839 -14418 14444 0
-14419 14444 0
-3839 -14419 14445 0
-14420 14445 0
-3839 -14420 14446 0
-14421 14446 0
-3839 -14421 14447 0
-14422 14447 0
-3839 -14422 14448 0
-14423 14448 0
-3839 -14423 14449 0
-14424 14449 0
-3839 -14424 14450 0
-14425 14450 0
-3839 -14425 14451 0
-14426 14451 0
-3839 -14426 14452 0
-14427 14452 0
-3839 -14427 14453 0
-14428 14453 0
-3839 -14428 14454 0
-14429 14454 0
-3839 -14429 14455 0
-14430 14455 0
-3839 -14430 14456 0
-14431 14456 0
-3839 -14431 14457 0
-14432 14457 0
-3839 -14432 14458 0
-14433 14458 0
-3839 -14433 14459 0
-14434 14459 0
-3839 -14434 0
-3840 14460 0
-14435 14460 0
-3840 -14435 14461 0
-14436 14461 0
-3840 -14436 14462 0
-14437 14462 0
-3840 -14437 14463 0
-14438 14463 0
-3840 -14438 14464 0
-14439 14464 0
-3840 -14439 14465 0
-14440 14465 0
-3840 -14440 14466 0
-14441 14466 0
-3840 -14441 14467 0
-14442 14467 0
-3840 -14442 14468 0
-14443 14468 0
-3840 -14443 14469 0
-14444 14469 0
-3840 -14444 14470 0
-14445 14470 0
-3840 -14445 14471 0
-14446 14471 0
-3840 -14446 14472 0
-14447 14472 0
-3840 -14447 14473 0
-14448 14473 0
-3840 -14448 14474 0
-14449 14474 0
-3840 -14449 14475 0
-14450 14475 0
-3840 -14450 14476 0
-14451 14476 0
-3840 -14451 14477 0
-14452 14477 0
-3840 -14452 14478 0
-14453 14478 0
-3840 -14453 14479 0
-14454 14479 0
-3840 -14454 14480 0
-14455 14480 0
-3840 -14455 14481 0
-14456 14481 0
-3840 -14456 14482 0
-14457 14482 0
-3840 -14457 14483 0
-14458 14483 0
-3840 -14458 14484 0
-14459 14484 0
-3840 -14459 0
-3840 14485 0
-14460 14485 0
-3840 -14460 14486 0
-14461 14486 0
-3840 -14461 14487 0
-14462 14487 0
-3840 -14462 14488 0
-14463 14488 0
-3840 -14463 14489 0
-14464 14489 0
-3840 -14464 14490 0
-14465 14490 0
-3840 -14465 14491 0
-14466 14491 0
-3840 -14466 14492 0
-14467 14492 0
-3840 -14467 14493 0
-14468 14493 0
-3840 -14468 14494 0
-14469 14494 0
-3840 -14469 14495 0
-14470 14495 0
-3840 -14470 14496 0
-14471 14496 0
-3840 -14471 14497 0
-14472 14497 0
-3840 -14472 14498 0
-14473 14498 0
-3840 -14473 14499 0
-14474 14499 0
-3840 -14474 14500 0
-14475 14500 0
-3840 -14475 14501 0
-14476 14501 0
-3840 -14476 14502 0
-14477 14502 0
-3840 -14477 14503 0
-14478 14503 0
-3840 -14478 14504 0
-14479 14504 0
-3840 -14479 14505 0
-14480 14505 0
-3840 -14480 14506 0
-14481 14506 0
-3840 -14481 14507 0
-14482 14507 0
-3840 -14482 14508 0
-14483 14508 0
-3840 -14483 14509 0
-14484 14509 0
-3840 -14484 0
-3850 14510 0
-14485 14510 0
-3850 -14485 14511 0
-14486 14511 0
-3850 -14486 14512 0
-14487 14512 0
-3850 -14487 14513 0
-14488 14513 0
-3850 -14488 14514 0
-14489 14514 0
-3850 -14489 14515 0
-14490 14515 0
-3850 -14490 14516 0
-14491 14516 0
-3850 -14491 14517 0
-14492 14517 0
-3850 -14492 14518 0
-14493 14518 0
-3850 -14493 14519 0
-14494 14519 0
-3850 -14494 14520 0
-14495 14520 0
-3850 -14495 14521 0
-14496 14521 0
-3850 -14496 14522 0
-14497 14522 0
-3850 -14497 14523 0
-14498 14523 0
-3850 -14498 14524 0
-14499 14524 0
-3850 -14499 14525 0
-14500 14525 0
-3850 -14500 14526 0
-14501 14526 0
-3850 -14501 14527 0
-14502 14527 0
-3850 -14502 14528 0
-14503 14528 0
-3850 -14503 14529 0
-14504 14529 0
-3850 -14504 14530 0
-14505 14530 0
-3850 -14505 14531 0
-14506 14531 0
-3850 -14506 14532 0
-14507 14532 0
-3850 -14507 14533 0
-14508 14533 0
-3850 -14508 14534 0
-14509 14534 0
-3850 -14509 0
-3850 14535 0
-14510 14535 0
-3850 -14510 14536 0
-14511 14536 0
-3850 -14511 14537 0
-14512 14537 0
-3850 -14512 14538 0
-14513 14538 0
-3850 -14513 14539 0
-14514 14539 0
-3850 -14514 14540 0
-14515 14540 0
-3850 -14515 14541 0
-14516 14541 0
-3850 -14516 14542 0
-14517 14542 0
-3850 -14517 14543 0
-14518 14543 0
-3850 -14518 14544 0
-14519 14544 0
-3850 -14519 14545 0
-14520 14545 0
-3850 -14520 14546 0
-14521 14546 0
-3850 -14521 14547 0
-14522 14547 0
-3850 -14522 14548 0
-14523 14548 0
-3850 -14523 14549 0
-14524 14549 0
-3850 -14524 14550 0
-14525 14550 0
-3850 -14525 14551 0
-14526 14551 0
-3850 -14526 14552 0
-14527 14552 0
-3850 -14527 14553 0
-14528 14553 0
-3850 -14528 14554 0
-14529 14554 0
-3850 -14529 14555 0
-14530 14555 0
-3850 -14530 14556 0
-14531 14556 0
-3850 -14531 14557 0
-14532 14557 0
-3850 -14532 14558 0
-14533 14558 0
-3850 -14533 14559 0
-14534 14559 0
-3850 -14534 0
-3850 14560 0
-14535 14560 0
-3850 -14535 14561 0
-14536 14561 0
-3850 -14536 14562 0
-14537 14562 0
-3850 -14537 14563 0
-14538 14563 0
-3850 -14538 14564 0
-14539 14564 0
-3850 -14539 14565 0
-14540 14565 0
-3850 -14540 14566 0
-14541 14566 0
-3850 -14541 14567 0
-14542 14567 0
-3850 -14542 14568 0
-14543 14568 0
-3850 -14543 14569 0
-14544 14569 0
-3850 -14544 14570 0
-14545 14570 0
-3850 -14545 14571 0
-14546 14571 0
-3850 -14546 14572 0
-14547 14572 0
-3850 -14547 14573 0
-14548 14573 0
-3850 -14548 14574 0
-14549 14574 0
-3850 -14549 14575 0
-14550 14575 0
-3850 -14550 14576 0
-14551 14576 0
-3850 -14551 14577 0
-14552 14577 0
-3850 -14552 14578 0
-14553 14578 0
-3850 -14553 14579 0
-14554 14579 0
-3850 -14554 14580 0
-14555 14580 0
-3850 -14555 14581 0
-14556 14581 0
-3850 -14556 14582 0
-14557 14582 0
-3850 -14557 14583 0
-14558 14583 0
-3850 -14558 14584 0
-14559 14584 0
-3850 -14559 0
-3851 14585 0
-14560 14585 0
-3851 -14560 14586 0
-14561 14586 0
-3851 -14561 14587 0
-14562 14587 0
-3851 -14562 14588 0
-14563 14588 0
-3851 -14563 14589 0
-14564 14589 0
-3851 -14564 14590 0
-14565 14590 0
-3851 -14565 14591 0
-14566 14591 0
-3851 -14566 14592 0
-14567 14592 0
-3851 -14567 14593 0
-14568 14593 0
-3851 -14568 14594 0
-14569 14594 0
-3851 -14569 14595 0
-14570 14595 0
-3851 -14570 14596 0
-14571 14596 0
-3851 -14571 14597 0
-14572 14597 0
-3851 -14572 14598 0
-14573 14598 0
-3851 -14573 14599 0
-14574 14599 0
-3851 -14574 14600 0
-14575 14600 0
-3851 -14575 14601 0
-14576 14601 0
-3851 -14576 14602 0
-14577 14602 0
-3851 -14577 14603 0
-14578 14603 0
-3851 -14578 14604 0
-14579 14604 0
-3851 -14579 14605 0
-14580 14605 0
-3851 -14580 14606 0
-14581 14606 0
-3851 -14581 14607 0
-14582 14607 0
-3851 -14582 14608 0
-14583 14608 0
-3851 -14583 14609 0
-14584 14609 0
-3851 -14584 0
-3851 14610 0
-14585 14610 0
-3851 -14585 14611 0
-14586 14611 0
-3851 -14586 14612 0
-14587 14612 0
-3851 -14587 14613 0
-14588 14613 0
-3851 -14588 14614 0
-14589 14614 0
-3851 -14589 14615 0
-14590 14615 0
-3851 -14590 14616 0
-14591 14616 0
-3851 -14591 14617 0
-14592 14617 0
-3851 -14592 14618 0
-14593 14618 0
-3851 -14593 14619 0
-14594 14619 0
-3851 -14594 14620 0
-14595 14620 0
-3851 -14595 14621 0
-14596 14621 0
-3851 -14596 14622 0
-14597 14622 0
-3851 -14597 14623 0
-14598 14623 0
-3851 -14598 14624 0
-14599 14624 0
-3851 -14599 14625 0
-14600 14625 0
-3851 -14600 14626 0
-14601 14626 0
-3851 -14601 14627 0
-14602 14627 0
-3851 -14602 14628 0
-14603 14628 0
-3851 -14603 14629 0
-14604 14629 0
-3851 -14604 14630 0
-14605 14630 0
-3851 -14605 14631 0
-14606 14631 0
-3851 -14606 14632 0
-14607 14632 0
-3851 -14607 14633 0
-14608 14633 0
-3851 -14608 14634 0
-14609 14634 0
-3851 -14609 0
-3861 14635 0
-14610 14635 0
-3861 -14610 14636 0
-14611 14636 0
-3861 -14611 14637 0
-14612 14637 0
-3861 -14612 14638 0
-14613 14638 0
-3861 -14613 14639 0
-14614 14639 0
-3861 -14614 14640 0
-14615 14640 0
-3861 -14615 14641 0
-14616 14641 0
-3861 -14616 14642 0
-14617 14642 0
-3861 -14617 14643 0
-14618 14643 0
-3861 -14618 14644 0
-14619 14644 0
-3861 -14619 14645 0
-14620 14645 0
-3861 -14620 14646 0
-14621 14646 0
-3861 -14621 14647 0
-14622 14647 0
-3861 -14622 14648 0
-14623 14648 0
-3861 -14623 14649 0
-14624 14649 0
-3861 -14624 14650 0
-14625 14650 0
-3861 -14625 14651 0
-14626 14651 0
-3861 -14626 14652 0
-14627 14652 0
-3861 -14627 14653 0
-14628 14653 0
-3861 -14628 14654 0
-14629 14654 0
-3861 -14629 14655 0
-14630 14655 0
-3861 -14630 14656 0
-14631 14656 0
-3861 -14631 14657 0
-14632 14657 0
-3861 -14632 14658 0
-14633 14658 0
-3861 -14633 14659 0
-14634 14659 0
-3861 -14634 0
-3861 14660 0
-14635 14660 0
-3861 -14635 14661 0
-14636 14661 0
-3861 -14636 14662 0
-14637 14662 0
-3861 -14637 14663 0
-14638 14663 0
-3861 -14638 14664 0
-14639 14664 0
-3861 -14639 14665 0
-14640 14665 0
-3861 -14640 14666 0
-14641 14666 0
-3861 -14641 14667 0
-14642 14667 0
-3861 -14642 14668 0
-14643 14668 0
-3861 -14643 14669 0
-14644 14669 0
-3861 -14644 14670 0
-14645 14670 0
-3861 -14645 14671 0
-14646 14671 0
-3861 -14646 14672 0
-14647 14672 0
-3861 -14647 14673 0
-14648 14673 0
-3861 -14648 14674 0
-14649 14674 0
-3861 -14649 14675 0
-14650 14675 0
-3861 -14650 14676 0
-14651 14676 0
-3861 -14651 14677 0
-14652 14677 0
-3861 -14652 14678 0
-14653 14678 0
-3861 -14653 14679 0
-14654 14679 0
-3861 -14654 14680 0
-14655 14680 0
-3861 -14655 14681 0
-14656 14681 0
-3861 -14656 14682 0
-14657 14682 0
-3861 -14657 14683 0
-14658 14683 0
-3861 -14658 14684 0
-14659 14684 0
-3861 -14659 0
-3861 14685 0
-14660 14685 0
-3861 -14660 14686 0
-14661 14686 0
-3861 -14661 14687 0
-14662 14687 0
-3861 -14662 14688 0
-14663 14688 0
-3861 -14663 14689 0
-14664 14689 0
-3861 -14664 14690 0
-14665 14690 0
-3861 -14665 14691 0
-14666 14691 0
-3861 -14666 14692 0
-14667 14692 0
-3861 -14667 14693 0
-14668 14693 0
-3861 -14668 14694 0
-14669 14694 0
-3861 -14669 14695 0
-14670 14695 0
-3861 -14670 14696 0
-14671 14696 0
-3861 -14671 14697 0
-14672 14697 0
-3861 -14672 14698 0
-14673 14698 0
-3861 -14673 14699 0
-14674 14699 0
-3861 -14674 14700 0
-14675 14700 0
-3861 -14675 14701 0
-14676 14701 0
-3861 -14676 14702 0
-14677 14702 0
-3861 -14677 14703 0
-14678 14703 0
-3861 -14678 14704 0
-14679 14704 0
-3861 -14679 14705 0
-14680 14705 0
-3861 -14680 14706 0
-14681 14706 0
-3861 -14681 14707 0
-14682 14707 0
-3861 -14682 14708 0
-14683 14708 0
-3861 -14683 14709 0
-14684 14709 0
-3861 -14684 0
-3862 14710 0
-14685 14710 0
-3862 -14685 14711 0
-14686 14711 0
-3862 -14686 14712 0
-14687 14712 0
-3862 -14687 14713 0
-14688 14713 0
-3862 -14688 14714 0
-14689 14714 0
-3862 -14689 14715 0
-14690 14715 0
-3862 -14690 14716 0
-14691 14716 0
-3862 -14691 14717 0
-14692 14717 0
-3862 -14692 14718 0
-14693 14718 0
-3862 -14693 14719 0
-14694 14719 0
-3862 -14694 14720 0
-14695 14720 0
-3862 -14695 14721 0
-14696 14721 0
-3862 -14696 14722 0
-14697 14722 0
-3862 -14697 14723 0
-14698 14723 0
-3862 -14698 14724 0
-14699 14724 0
-3862 -14699 14725 0
-14700 14725 0
-3862 -14700 14726 0
-14701 14726 0
-3862 -14701 14727 0
-14702 14727 0
-3862 -14702 14728 0
-14703 14728 0
-3862 -14703 14729 0
-14704 14729 0
-3862 -14704 14730 0
-14705 14730 0
-3862 -14705 14731 0
-14706 14731 0
-3862 -14706 14732 0
-14707 14732 0
-3862 -14707 14733 0
-14708 14733 0
-3862 -14708 14734 0
-14709 14734 0
-3862 -14709 0
-3862 14735 0
-14710 14735 0
-3862 -14710 14736 0
-14711 14736 0
-3862 -14711 14737 0
-14712 14737 0
-3862 -14712 14738 0
-14713 14738 0
-3862 -14713 14739 0
-14714 14739 0
-3862 -14714 14740 0
-14715 14740 0
-3862 -14715 14741 0
-14716 14741 0
-3862 -14716 14742 0
-14717 14742 0
-3862 -14717 14743 0
-14718 14743 0
-3862 -14718 14744 0
-14719 14744 0
-3862 -14719 14745 0
-14720 14745 0
-3862 -14720 14746 0
-14721 14746 0
-3862 -14721 14747 0
-14722 14747 0
-3862 -14722 14748 0
-14723 14748 0
-3862 -14723 14749 0
-14724 14749 0
-3862 -14724 14750 0
-14725 14750 0
-3862 -14725 14751 0
-14726 14751 0
-3862 -14726 14752 0
-14727 14752 0
-3862 -14727 14753 0
-14728 14753 0
-3862 -14728 14754 0
-14729 14754 0
-3862 -14729 14755 0
-14730 14755 0
-3862 -14730 14756 0
-14731 14756 0
-3862 -14731 14757 0
-14732 14757 0
-3862 -14732 14758 0
-14733 14758 0
-3862 -14733 14759 0
-14734 14759 0
-3862 -14734 0
-3872 14760 0
-14735 14760 0
-3872 -14735 14761 0
-14736 14761 0
-3872 -14736 14762 0
-14737 14762 0
-3872 -14737 14763 0
-14738 14763 0
-3872 -14738 14764 0
-14739 14764 0
-3872 -14739 14765 0
-14740 14765 0
-3872 -14740 14766 0
-14741 14766 0
-3872 -14741 14767 0
-14742 14767 0
-3872 -14742 14768 0
-14743 14768 0
-3872 -14743 14769 0
-14744 14769 0
-3872 -14744 14770 0
-14745 14770 0
-3872 -14745 14771 0
-14746 14771 0
-3872 -14746 14772 0
-14747 14772 0
-3872 -14747 14773 0
-14748 14773 0
-3872 -14748 14774 0
-14749 14774 0
-3872 -14749 14775 0
-14750 14775 0
-3872 -14750 14776 0
-14751 14776 0
-3872 -14751 14777 0
-14752 14777 0
-3872 -14752 14778 0
-14753 14778 0
-3872 -14753 14779 0
-14754 14779 0
-3872 -14754 14780 0
-14755 14780 0
-3872 -14755 14781 0
-14756 14781 0
-3872 -14756 14782 0
-14757 14782 0
-3872 -14757 14783 0
-14758 14783 0
-3872 -14758 14784 0
-14759 14784 0
-3872 -14759 0
-3872 14785 0
-14760 14785 0
-3872 -14760 14786 0
-14761 14786 0
-3872 -14761 14787 0
-14762 14787 0
-3872 -14762 14788 0
-14763 14788 0
-3872 -14763 14789 0
-14764 14789 0
-3872 -14764 14790 0
-14765 14790 0
-3872 -14765 14791 0
-14766 14791 0
-3872 -14766 14792 0
-14767 14792 0
-3872 -14767 14793 0
-14768 14793 0
-3872 -14768 14794 0
-14769 14794 0
-3872 -14769 14795 0
-14770 14795 0
-3872 -14770 14796 0
-14771 14796 0
-3872 -14771 14797 0
-14772 14797 0
-3872 -14772 14798 0
-14773 14798 0
-3872 -14773 14799 0
-14774 14799 0
-3872 -14774 14800 0
-14775 14800 0
-3872 -14775 14801 0
-14776 14801 0
-3872 -14776 14802 0
-14777 14802 0
-3872 -14777 14803 0
-14778 14803 0
-3872 -14778 14804 0
-14779 14804 0
-3872 -14779 14805 0
-14780 14805 0
-3872 -14780 14806 0
-14781 14806 0
-3872 -14781 14807 0
-14782 14807 0
-3872 -14782 14808 0
-14783 14808 0
-3872 -14783 14809 0
-14784 14809 0
-3872 -14784 0
-3872 14810 0
-14785 14810 0
-3872 -14785 14811 0
-14786 14811 0
-3872 -14786 14812 0
-14787 14812 0
-3872 -14787 14813 0
-14788 14813 0
-3872 -14788 14814 0
-14789 14814 0
-3872 -14789 14815 0
-14790 14815 0
-3872 -14790 14816 0
-14791 14816 0
-3872 -14791 14817 0
-14792 14817 0
-3872 -14792 14818 0
-14793 14818 0
-3872 -14793 14819 0
-14794 14819 0
-3872 -14794 14820 0
-14795 14820 0
-3872 -14795 14821 0
-14796 14821 0
-3872 -14796 14822 0
-14797 14822 0
-3872 -14797 14823 0
-14798 14823 0
-3872 -14798 14824 0
-14799 14824 0
-3872 -14799 14825 0
-14800 14825 0
-3872 -14800 14826 0
-14801 14826 0
-3872 -14801 14827 0
-14802 14827 0
-3872 -14802 14828 0
-14803 14828 0
-3872 -14803 14829 0
-14804 14829 0
-3872 -14804 14830 0
-14805 14830 0
-3872 -14805 14831 0
-14806 14831 0
-3872 -14806 14832 0
-14807 14832 0
-3872 -14807 14833 0
-14808 14833 0
-3872 -14808 14834 0
-14809 14834 0
-3872 -14809 0
-3873 14835 0
-14810 14835 0
-3873 -14810 14836 0
-14811 14836 0
-3873 -14811 14837 0
-14812 14837 0
-3873 -14812 14838 0
-14813 14838 0
-3873 -14813 14839 0
-14814 14839 0
-3873 -14814 14840 0
-14815 14840 0
-3873 -14815 14841 0
-14816 14841 0
-3873 -14816 14842 0
-14817 14842 0
-3873 -14817 14843 0
-14818 14843 0
-3873 -14818 14844 0
-14819 14844 0
-3873 -14819 14845 0
-14820 14845 0
-3873 -14820 14846 0
-14821 14846 0
-3873 -14821 14847 0
-14822 14847 0
-3873 -14822 14848 0
-14823 14848 0
-3873 -14823 14849 0
-14824 14849 0
-3873 -14824 14850 0
-14825 14850 0
-3873 -14825 14851 0
-14826 14851 0
-3873 -14826 14852 0
-14827 14852 0
-3873 -14827 14853 0
-14828 14853 0
-3873 -14828 14854 0
-14829 14854 0
-3873 -14829 14855 0
-14830 14855 0
-3873 -14830 14856 0
-14831 14856 0
-3873 -14831 14857 0
-14832 14857 0
-3873 -14832 14858 0
-14833 14858 0
-3873 -14833 14859 0
-14834 14859 0
-3873 -14834 0
-3873 14860 0
-14835 14860 0
-3873 -14835 14861 0
-14836 14861 0
-3873 -14836 14862 0
-14837 14862 0
-3873 -14837 14863 0
-14838 14863 0
-3873 -14838 14864 0
-14839 14864 0
-3873 -14839 14865 0
-14840 14865 0
-3873 -14840 14866 0
-14841 14866 0
-3873 -14841 14867 0
-14842 14867 0
-3873 -14842 14868 0
-14843 14868 0
-3873 -14843 14869 0
-14844 14869 0
-3873 -14844 14870 0
-14845 14870 0
-3873 -14845 14871 0
-14846 14871 0
-3873 -14846 14872 0
-14847 14872 0
-3873 -14847 14873 0
-14848 14873 0
-3873 -14848 14874 0
-14849 14874 0
-3873 -14849 14875 0
-14850 14875 0
-3873 -14850 14876 0
-14851 14876 0
-3873 -14851 14877 0
-14852 14877 0
-3873 -14852 14878 0
-14853 14878 0
-3873 -14853 14879 0
-14854 14879 0
-3873 -14854 14880 0
-14855 14880 0
-3873 -14855 14881 0
-14856 14881 0
-3873 -14856 14882 0
-14857 14882 0
-3873 -14857 14883 0
-14858 14883 0
-3873 -14858 14884 0
-14859 14884 0
-3873 -14859 0
-5517 14885 0
-14860 14885 0
-5517 -14860 14886 0
-14861 14886 0
-5517 -14861 14887 0
-14862 14887 0
-5517 -14862 14888 0
-14863 14888 0
-5517 -14863 14889 0
-14864 14889 0
-5517 -14864 14890 0
-14865 14890 0
-5517 -14865 14891 0
-14866 14891 0
-5517 -14866 14892 0
-14867 14892 0
-5517 -14867 14893 0
-14868 14893 0
-5517 -14868 14894 0
-14869 14894 0
-5517 -14869 14895 0
-14870 14895 0
-5517 -14870 14896 0
-14871 14896 0
-5517 -14871 14897 0
-14872 14897 0
-5517 -14872 14898 0
-14873 14898 0
-5517 -14873 14899 0
-14874 14899 0
-5517 -14874 14900 0
-14875 14900 0
-5517 -14875 14901 0
-14876 14901 0
-5517 -14876 14902 0
-14877 14902 0
-5517 -14877 14903 0
-14878 14903 0
-5517 -14878 14904 0
-14879 14904 0
-5517 -14879 14905 0
-14880 14905 0
-5517 -14880 14906 0
-14881 14906 0
-5517 -14881 14907 0
-14882 14907 0
-5517 -14882 14908 0
-14883 14908 0
-5517 -14883 14909 0
-14884 14909 0
-5517 -14884 0
-5517 14910 0
-14885 14910 0
-5517 -14885 14911 0
-14886 14911 0
-5517 -14886 14912 0
-14887 14912 0
-5517 -14887 14913 0
-14888 14913 0
-5517 -14888 14914 0
-14889 14914 0
-5517 -14889 14915 0
-14890 14915 0
-5517 -14890 14916 0
-14891 14916 0
-5517 -14891 14917 0
-14892 14917 0
-5517 -14892 14918 0
-14893 14918 0
-5517 -14893 14919 0
-14894 14919 0
-5517 -14894 14920 0
-14895 14920 0
-5517 -14895 14921 0
-14896 14921 0
-5517 -14896 14922 0
-14897 14922 0
-5517 -14897 14923 0
-14898 14923 0
-5517 -14898 14924 0
-14899 14924 0
-5517 -14899 14925 0
-14900 14925 0
-5517 -14900 14926 0
-14901 14926 0
-5517 -14901 14927 0
-14902 14927 0
-5517 -14902 14928 0
-14903 14928 0
-5517 -14903 14929 0
-14904 14929 0
-5517 -14904 14930 0
-14905 14930 0
-5517 -14905 14931 0
-14906 14931 0
-5517 -14906 14932 0
-14907 14932 0
-5517 -14907 14933 0
-14908 14933 0
-5517 -14908 14934 0
-14909 14934 0
-5517 -14909 0
-5517 14935 0
-14910 14935 0
-5517 -14910 14936 0
-14911 14936 0
-5517 -14911 14937 0
-14912 14937 0
-5517 -14912 14938 0
-14913 14938 0
-5517 -14913 14939 0
-14914 14939 0
-5517 -14914 14940 0
-14915 14940 0
-5517 -14915 14941 0
-14916 14941 0
-5517 -14916 14942 0
-14917 14942 0
-5517 -14917 14943 0
-14918 14943 0
-5517 -14918 14944 0
-14919 14944 0
-5517 -14919 14945 0
-14920 14945 0
-5517 -14920 14946 0
-14921 14946 0
-5517 -14921 14947 0
-14922 14947 0
-5517 -14922 14948 0
-14923 14948 0
-5517 -14923 14949 0
-14924 14949 0
-5517 -14924 14950 0
-14925 14950 0
-5517 -14925 14951 0
-14926 14951 0
-5517 -14926 14952 0
-14927 14952 0
-5517 -14927 14953 0
-14928 14953 0
-5517 -14928 14954 0
-14929 14954 0
-5517 -14929 14955 0
-14930 14955 0
-5517 -14930 14956 0
-14931 14956 0
-5517 -14931 14957 0
-14932 14957 0
-5517 -14932 14958 0
-14933 14958 0
-5517 -14933 14959 0
-14934 14959 0
-5517 -14934 0
-5518 14960 0
-14935 14960 0
-5518 -14935 14961 0
-14936 14961 0
-5518 -14936 14962 0
-14937 14962 0
-5518 -14937 14963 0
-14938 14963 0
-5518 -14938 14964 0
-14939 14964 0
-5518 -14939 14965 0
-14940 14965 0
-5518 -14940 14966 0
-14941 14966 0
-5518 -14941 14967 0
-14942 14967 0
-5518 -14942 14968 0
-14943 14968 0
-5518 -14943 14969 0
-14944 14969 0
-5518 -14944 14970 0
-14945 14970 0
-5518 -14945 14971 0
-14946 14971 0
-5518 -14946 14972 0
-14947 14972 0
-5518 -14947 14973 0
-14948 14973 0
-5518 -14948 14974 0
-14949 14974 0
-5518 -14949 14975 0
-14950 14975 0
-5518 -14950 14976 0
-14951 14976 0
-5518 -14951 14977 0
-14952 14977 0
-5518 -14952 14978 0
-14953 14978 0
-5518 -14953 14979 0
-14954 14979 0
-5518 -14954 14980 0
-14955 14980 0
-5518 -14955 14981 0
-14956 14981 0
-5518 -14956 14982 0
-14957 14982 0
-5518 -14957 14983 0
-14958 14983 0
-5518 -14958 14984 0
-14959 14984 0
-5518 -14959 0
-5518 14985 0
-14960 14985 0
-5518 -14960 14986 0
-14961 14986 0
-5518 -14961 14987 0
-14962 14987 0
-5518 -14962 14988 0
-14963 14988 0
-5518 -14963 14989 0
-14964 14989 0
-5518 -14964 14990 0
-14965 14990 0
-5518 -14965 14991 0
-14966 14991 0
-5518 -14966 14992 0
-14967 14992 0
-5518 -14967 14993 0
-14968 14993 0
-5518 -14968 14994 0
-14969 14994 0
-5518 -14969 14995 0
-14970 14995 0
-5518 -14970 14996 0
-14971 14996 0
-5518 -14971 14997 0
-14972 14997 0
-5518 -14972 14998 0
-14973 14998 0
-5518 -14973 14999 0
-14974 14999 0
-5518 -14974 15000 0
-14975 15000 0
-5518 -14975 15001 0
-14976 15001 0
-5518 -14976 15002 0
-14977 15002 0
-5518 -14977 15003 0
-14978 15003 0
-5518 -14978 15004 0
-14979 15004 0
-5518 -14979 15005 0
-14980 15005 0
-5518 -14980 15006 0
-14981 15006 0
-5518 -14981 15007 0
-14982 15007 0
-5518 -14982 15008 0
-14983 15008 0
-5518 -14983 15009 0
-14984 15009 0
-5518 -14984 0
-5528 15010 0
-14985 15010 0
-5528 -14985 15011 0
-14986 15011 0
-5528 -14986 15012 0
-14987 15012 0
-5528 -14987 15013 0
-14988 15013 0
-5528 -14988 15014 0
-14989 15014 0
-5528 -14989 15015 0
-14990 15015 0
-5528 -14990 15016 0
-14991 15016 0
-5528 -14991 15017 0
-14992 15017 0
-5528 -14992 15018 0
-14993 15018 0
-5528 -14993 15019 0
-14994 15019 0
-5528 -14994 15020 0
-14995 15020 0
-5528 -14995 15021 0
-14996 15021 0
-5528 -14996 15022 0
-14997 15022 0
-5528 -14997 15023 0
-14998 15023 0
-5528 -14998 15024 0
-14999 15024 0
-5528 -14999 15025 0
-15000 15025 0
-5528 -15000 15026 0
-15001 15026 0
-5528 -15001 15027 0
-15002 15027 0
-5528 -15002 15028 0
-15003 15028 0
-5528 -15003 15029 0
-15004 15029 0
-5528 -15004 15030 0
-15005 15030 0
-5528 -15005 15031 0
-15006 15031 0
-5528 -15006 15032 0
-15007 15032 0
-5528 -15007 15033 0
-15008 15033 0
-5528 -15008 15034 0
-15009 15034 0
-5528 -15009 0
-5528 15035 0
-15010 15035 0
-5528 -15010 15036 0
-15011 15036 0
-5528 -15011 15037 0
-15012 15037 0
-5528 -15012 15038 0
-15013 15038 0
-5528 -15013 15039 0
-15014 15039 0
-5528 -15014 15040 0
-15015 15040 0
-5528 -15015 15041 0
-15016 15041 0
-5528 -15016 15042 0
-15017 15042 0
-5528 -15017 15043 0
-15018 15043 0
-5528 -15018 15044 0
-15019 15044 0
-5528 -15019 15045 0
-15020 15045 0
-5528 -15020 15046 0
-15021 15046 0
-5528 -15021 15047 0
-15022 15047 0
-5528 -15022 15048 0
-15023 15048 0
-5528 -15023 15049 0
-15024 15049 0
-5528 -15024 15050 0
-15025 15050 0
-5528 -15025 15051 0
-15026 15051 0
-5528 -15026 15052 0
-15027 15052 0
-5528 -15027 15053 0
-15028 15053 0
-5528 -15028 15054 0
-15029 15054 0
-5528 -15029 15055 0
-15030 15055 0
-5528 -15030 15056 0
-15031 15056 0
-5528 -15031 15057 0
-15032 15057 0
-5528 -15032 15058 0
-15033 15058 0
-5528 -15033 15059 0
-15034 15059 0
-5528 -15034 0
-5528 15060 0
-15035 15060 0
-5528 -15035 15061 0
-15036 15061 0
-5528 -15036 15062 0
-15037 15062 0
-5528 -15037 15063 0
-15038 15063 0
-5528 -15038 15064 0
-15039 15064 0
-5528 -15039 15065 0
-15040 15065 0
-5528 -15040 15066 0
-15041 15066 0
-5528 -15041 15067 0
-15042 15067 0
-5528 -15042 15068 0
-15043 15068 0
-5528 -15043 15069 0
-15044 15069 0
-5528 -15044 15070 0
-15045 15070 0
-5528 -15045 15071 0
-15046 15071 0
-5528 -15046 15072 0
-15047 15072 0
-5528 -15047 15073 0
-15048 15073 0
-5528 -15048 15074 0
-15049 15074 0
-5528 -15049 15075 0
-15050 15075 0
-5528 -15050 15076 0
-15051 15076 0
-5528 -15051 15077 0
-15052 15077 0
-5528 -15052 15078 0
-15053 15078 0
-5528 -15053 15079 0
-15054 15079 0
-5528 -15054 15080 0
-15055 15080 0
-5528 -15055 15081 0
-15056 15081 0
-5528 -15056 15082 0
-15057 15082 0
-5528 -15057 15083 0
-15058 15083 0
-5528 -15058 15084 0
-15059 15084 0
-5528 -15059 0
-5529 15085 0
-15060 15085 0
-5529 -15060 15086 0
-15061 15086 0
-5529 -15061 15087 0
-15062 15087 0
-5529 -15062 15088 0
-15063 15088 0
-5529 -15063 15089 0
-15064 15089 0
-5529 -15064 15090 0
-15065 15090 0
-5529 -15065 15091 0
-15066 15091 0
-5529 -15066 15092 0
-15067 15092 0
-5529 -15067 15093 0
-15068 15093 0
-5529 -15068 15094 0
-15069 15094 0
-5529 -15069 15095 0
-15070 15095 0
-5529 -15070 15096 0
-15071 15096 0
-5529 -15071 15097 0
-15072 15097 0
-5529 -15072 15098 0
-15073 15098 0
-5529 -15073 15099 0
-15074 15099 0
-5529 -15074 15100 0
-15075 15100 0
-5529 -15075 15101 0
-15076 15101 0
-5529 -15076 15102 0
-15077 15102 0
-5529 -15077 15103 0
-15078 15103 0
-5529 -15078 15104 0
-15079 15104 0
-5529 -15079 15105 0
-15080 15105 0
-5529 -15080 15106 0
-15081 15106 0
-5529 -15081 15107 0
-15082 15107 0
-5529 -15082 15108 0
-15083 15108 0
-5529 -15083 15109 0
-15084 15109 0
-5529 -15084 0
-5529 15110 0
-15085 15110 0
-5529 -15085 15111 0
-15086 15111 0
-5529 -15086 15112 0
-15087 15112 0
-5529 -15087 15113 0
-15088 15113 0
-5529 -15088 15114 0
-15089 15114 0
-5529 -15089 15115 0
-15090 15115 0
-5529 -15090 15116 0
-15091 15116 0
-5529 -15091 15117 0
-15092 15117 0
-5529 -15092 15118 0
-15093 15118 0
-5529 -15093 15119 0
-15094 15119 0
-5529 -15094 15120 0
-15095 15120 0
-5529 -15095 15121 0
-15096 15121 0
-5529 -15096 15122 0
-15097 15122 0
-5529 -15097 15123 0
-15098 15123 0
-5529 -15098 15124 0
-15099 15124 0
-5529 -15099 15125 0
-15100 15125 0
-5529 -15100 15126 0
-15101 15126 0
-5529 -15101 15127 0
-15102 15127 0
-5529 -15102 15128 0
-15103 15128 0
-5529 -15103 15129 0
-15104 15129 0
-5529 -15104 15130 0
-15105 15130 0
-5529 -15105 15131 0
-15106 15131 0
-5529 -15106 15132 0
-15107 15132 0
-5529 -15107 15133 0
-15108 15133 0
-5529 -15108 15134 0
-15109 15134 0
-5529 -15109 0
-5539 15135 0
-15110 15135 0
-5539 -15110 15136 0
-15111 15136 0
-5539 -15111 15137 0
-15112 15137 0
-5539 -15112 15138 0
-15113 15138 0
-5539 -15113 15139 0
-15114 15139 0
-5539 -15114 15140 0
-15115 15140 0
-5539 -15115 15141 0
-15116 15141 0
-5539 -15116 15142 0
-15117 15142 0
-5539 -15117 15143 0
-15118 15143 0
-5539 -15118 15144 0
-15119 15144 0
-5539 -15119 15145 0
-15120 15145 0
-5539 -15120 15146 0
-15121 15146 0
-5539 -15121 15147 0
-15122 15147 0
-5539 -15122 15148 0
-15123 15148 0
-5539 -15123 15149 0
-15124 15149 0
-5539 -15124 15150 0
-15125 15150 0
-5539 -15125 15151 0
-15126 15151 0
-5539 -15126 15152 0
-15127 15152 0
-5539 -15127 15153 0
-15128 15153 0
-5539 -15128 15154 0
-15129 15154 0
-5539 -15129 15155 0
-15130 15155 0
-5539 -15130 15156 0
-15131 15156 0
-5539 -15131 15157 0
-15132 15157 0
-5539 -15132 15158 0
-15133 15158 0
-5539 -15133 15159 0
-15134 15159 0
-5539 -15134 0
-5539 15160 0
-15135 15160 0
-5539 -15135 15161 0
-15136 15161 0
-5539 -15136 15162 0
-15137 15162 0
-5539 -15137 15163 0
-15138 15163 0
-5539 -15138 15164 0
-15139 15164 0
-5539 -15139 15165 0
-15140 15165 0
-5539 -15140 15166 0
-15141 15166 0
-5539 -15141 15167 0
-15142 15167 0
-5539 -15142 15168 0
-15143 15168 0
-5539 -15143 15169 0
-15144 15169 0
-5539 -15144 15170 0
-15145 15170 0
-5539 -15145 15171 0
-15146 15171 0
-5539 -15146 15172 0
-15147 15172 0
-5539 -15147 15173 0
-15148 15173 0
-5539 -15148 15174 0
-15149 15174 0
-5539 -15149 15175 0
-15150 15175 0
-5539 -15150 15176 0
-15151 15176 0
-5539 -15151 15177 0
-15152 15177 0
-5539 -15152 15178 0
-15153 15178 0
-5539 -15153 15179 0
-15154 15179 0
-5539 -15154 15180 0
-15155 15180 0
-5539 -15155 15181 0
-15156 15181 0
-5539 -15156 15182 0
-15157 15182 0
-5539 -15157 15183 0
-15158 15183 0
-5539 -15158 15184 0
-15159 15184 0
-5539 -15159 0
-5539 15185 0
-15160 15185 0
-5539 -15160 15186 0
-15161 15186 0
-5539 -15161 15187 0
-15162 15187 0
-5539 -15162 15188 0
-15163 15188 0
-5539 -15163 15189 0
-15164 15189 0
-5539 -15164 15190 0
-15165 15190 0
-5539 -15165 15191 0
-15166 15191 0
-5539 -15166 15192 0
-15167 15192 0
-5539 -15167 15193 0
-15168 15193 0
-5539 -15168 15194 0
-15169 15194 0
-5539 -15169 15195 0
-15170 15195 0
-5539 -15170 15196 0
-15171 15196 0
-5539 -15171 15197 0
-15172 15197 0
-5539 -15172 15198 0
-15173 15198 0
-5539 -15173 15199 0
-15174 15199 0
-5539 -15174 15200 0
-15175 15200 0
-5539 -15175 15201 0
-15176 15201 0
-5539 -15176 15202 0
-15177 15202 0
-5539 -15177 15203 0
-15178 15203 0
-5539 -15178 15204 0
-15179 15204 0
-5539 -15179 15205 0
-15180 15205 0
-5539 -15180 15206 0
-15181 15206 0
-5539 -15181 15207 0
-15182 15207 0
-5539 -15182 15208 0
-15183 15208 0
-5539 -15183 15209 0
-15184 15209 0
-5539 -15184 0
-5540 15210 0
-15185 15210 0
-5540 -15185 15211 0
-15186 15211 0
-5540 -15186 15212 0
-15187 15212 0
-5540 -15187 15213 0
-15188 15213 0
-5540 -15188 15214 0
-15189 15214 0
-5540 -15189 15215 0
-15190 15215 0
-5540 -15190 15216 0
-15191 15216 0
-5540 -15191 15217 0
-15192 15217 0
-5540 -15192 15218 0
-15193 15218 0
-5540 -15193 15219 0
-15194 15219 0
-5540 -15194 15220 0
-15195 15220 0
-5540 -15195 15221 0
-15196 15221 0
-5540 -15196 15222 0
-15197 15222 0
-5540 -15197 15223 0
-15198 15223 0
-5540 -15198 15224 0
-15199 15224 0
-5540 -15199 15225 0
-15200 15225 0
-5540 -15200 15226 0
-15201 15226 0
-5540 -15201 15227 0
-15202 15227 0
-5540 -15202 15228 0
-15203 15228 0
-5540 -15203 15229 0
-15204 15229 0
-5540 -15204 15230 0
-15205 15230 0
-5540 -15205 15231 0
-15206 15231 0
-5540 -15206 15232 0
-15207 15232 0
-5540 -15207 15233 0
-15208 15233 0
-5540 -15208 15234 0
-15209 15234 0
-5540 -15209 0
-5540 15235 0
-15210 15235 0
-5540 -15210 15236 0
-15211 15236 0
-5540 -15211 15237 0
-15212 15237 0
-5540 -15212 15238 0
-15213 15238 0
-5540 -15213 15239 0
-15214 15239 0
-5540 -15214 15240 0
-15215 15240 0
-5540 -15215 15241 0
-15216 15241 0
-5540 -15216 15242 0
-15217 15242 0
-5540 -15217 15243 0
-15218 15243 0
-5540 -15218 15244 0
-15219 15244 0
-5540 -15219 15245 0
-15220 15245 0
-5540 -15220 15246 0
-15221 15246 0
-5540 -15221 15247 0
-15222 15247 0
-5540 -15222 15248 0
-15223 15248 0
-5540 -15223 15249 0
-15224 15249 0
-5540 -15224 15250 0
-15225 15250 0
-5540 -15225 15251 0
-15226 15251 0
-5540 -15226 15252 0
-15227 15252 0
-5540 -15227 15253 0
-15228 15253 0
-5540 -15228 15254 0
-15229 15254 0
-5540 -15229 15255 0
-15230 15255 0
-5540 -15230 15256 0
-15231 15256 0
-5540 -15231 15257 0
-15232 15257 0
-5540 -15232 15258 0
-15233 15258 0
-5540 -15233 15259 0
-15234 15259 0
-5540 -15234 0
-5550 15260 0
-15235 15260 0
-5550 -15235 15261 0
-15236 15261 0
-5550 -15236 15262 0
-15237 15262 0
-5550 -15237 15263 0
-15238 15263 0
-5550 -15238 15264 0
-15239 15264 0
-5550 -15239 15265 0
-15240 15265 0
-5550 -15240 15266 0
-15241 15266 0
-5550 -15241 15267 0
-15242 15267 0
-5550 -15242 15268 0
-15243 15268 0
-5550 -15243 15269 0
-15244 15269 0
-5550 -15244 15270 0
-15245 15270 0
-5550 -15245 15271 0
-15246 15271 0
-5550 -15246 15272 0
-15247 15272 0
-5550 -15247 15273 0
-15248 15273 0
-5550 -15248 15274 0
-15249 15274 0
-5550 -15249 15275 0
-15250 15275 0
-5550 -15250 15276 0
-15251 15276 0
-5550 -15251 15277 0
-15252 15277 0
-5550 -15252 15278 0
-15253 15278 0
-5550 -15253 15279 0
-15254 15279 0
-5550 -15254 15280 0
-15255 15280 0
-5550 -15255 15281 0
-15256 15281 0
-5550 -15256 15282 0
-15257 15282 0
-5550 -15257 15283 0
-15258 15283 0
-5550 -15258 15284 0
-15259 15284 0
-5550 -15259 0
-5550 15285 0
-15260 15285 0
-5550 -15260 15286 0
-15261 15286 0
-5550 -15261 15287 0
-15262 15287 0
-5550 -15262 15288 0
-15263 15288 0
-5550 -15263 15289 0
-15264 15289 0
-5550 -15264 15290 0
-15265 15290 0
-5550 -15265 15291 0
-15266 15291 0
-5550 -15266 15292 0
-15267 15292 0
-5550 -15267 15293 0
-15268 15293 0
-5550 -15268 15294 0
-15269 15294 0
-5550 -15269 15295 0
-15270 15295 0
-5550 -15270 15296 0
-15271 15296 0
-5550 -15271 15297 0
-15272 15297 0
-5550 -15272 15298 0
-15273 15298 0
-5550 -15273 15299 0
-15274 15299 0
-5550 -15274 15300 0
-15275 15300 0
-5550 -15275 15301 0
-15276 15301 0
-5550 -15276 15302 0
-15277 15302 0
-5550 -15277 15303 0
-15278 15303 0
-5550 -15278 15304 0
-15279 15304 0
-5550 -15279 15305 0
-15280 15305 0
-5550 -15280 15306 0
-15281 15306 0
-5550 -15281 15307 0
-15282 15307 0
-5550 -15282 15308 0
-15283 15308 0
-5550 -15283 15309 0
-15284 15309 0
-5550 -15284 0
-5550 15310 0
-15285 15310 0
-5550 -15285 15311 0
-15286 15311 0
-5550 -15286 15312 0
-15287 15312 0
-5550 -15287 15313 0
-15288 15313 0
-5550 -15288 15314 0
-15289 15314 0
-5550 -15289 15315 0
-15290 15315 0
-5550 -15290 15316 0
-15291 15316 0
-5550 -15291 15317 0
-15292 15317 0
-5550 -15292 15318 0
-15293 15318 0
-5550 -15293 15319 0
-15294 15319 0
-5550 -15294 15320 0
-15295 15320 0
-5550 -15295 15321 0
-15296 15321 0
-5550 -15296 15322 0
-15297 15322 0
-5550 -15297 15323 0
-15298 15323 0
-5550 -15298 15324 0
-15299 15324 0
-5550 -15299 15325 0
-15300 15325 0
-5550 -15300 15326 0
-15301 15326 0
-5550 -15301 15327 0
-15302 15327 0
-5550 -15302 15328 0
-15303 15328 0
-5550 -15303 15329 0
-15304 15329 0
-5550 -15304 15330 0
-15305 15330 0
-5550 -15305 15331 0
-15306 15331 0
-5550 -15306 15332 0
-15307 15332 0
-5550 -15307 15333 0
-15308 15333 0
-5550 -15308 15334 0
-15309 15334 0
-5550 -15309 0
-5551 15335 0
-15310 15335 0
-5551 -15310 15336 0
-15311 15336 0
-5551 -15311 15337 0
-15312 15337 0
-5551 -15312 15338 0
-15313 15338 0
-5551 -15313 15339 0
-15314 15339 0
-5551 -15314 15340 0
-15315 15340 0
-5551 -15315 15341 0
-15316 15341 0
-5551 -15316 15342 0
-15317 15342 0
-5551 -15317 15343 0
-15318 15343 0
-5551 -15318 15344 0
-15319 15344 0
-5551 -15319 15345 0
-15320 15345 0
-5551 -15320 15346 0
-15321 15346 0
-5551 -15321 15347 0
-15322 15347 0
-5551 -15322 15348 0
-15323 15348 0
-5551 -15323 15349 0
-15324 15349 0
-5551 -15324 15350 0
-15325 15350 0
-5551 -15325 15351 0
-15326 15351 0
-5551 -15326 15352 0
-15327 15352 0
-5551 -15327 15353 0
-15328 15353 0
-5551 -15328 15354 0
-15329 15354 0
-5551 -15329 15355 0
-15330 15355 0
-5551 -15330 15356 0
-15331 15356 0
-5551 -15331 15357 0
-15332 15357 0
-5551 -15332 15358 0
-15333 15358 0
-5551 -15333 15359 0
-15334 15359 0
-5551 -15334 0
-5551 15360 0
-15335 15360 0
-5551 -15335 15361 0
-15336 15361 0
-5551 -15336 15362 0
-15337 15362 0
-5551 -15337 15363 0
-15338 15363 0
-5551 -15338 15364 0
-15339 15364 0
-5551 -15339 15365 0
-15340 15365 0
-5551 -15340 15366 0
-15341 15366 0
-5551 -15341 15367 0
-15342 15367 0
-5551 -15342 15368 0
-15343 15368 0
-5551 -15343 15369 0
-15344 15369 0
-5551 -15344 15370 0
-15345 15370 0
-5551 -15345 15371 0
-15346 15371 0
-5551 -15346 15372 0
-15347 15372 0
-5551 -15347 15373 0
-15348 15373 0
-5551 -15348 15374 0
-15349 15374 0
-5551 -15349 15375 0
-15350 15375 0
-5551 -15350 15376 0
-15351 15376 0
-5551 -15351 15377 0
-15352 15377 0
-5551 -15352 15378 0
-15353 15378 0
-5551 -15353 15379 0
-15354 15379 0
-5551 -15354 15380 0
-15355 15380 0
-5551 -15355 15381 0
-15356 15381 0
-5551 -15356 15382 0
-15357 15382 0
-5551 -15357 15383 0
-15358 15383 0
-5551 -15358 15384 0
-15359 15384 0
-5551 -15359 0
-5561 15385 0
-15360 15385 0
-5561 -15360 15386 0
-15361 15386 0
-5561 -15361 15387 0
-15362 15387 0
-5561 -15362 15388 0
-15363 15388 0
-5561 -15363 15389 0
-15364 15389 0
-5561 -15364 15390 0
-15365 15390 0
-5561 -15365 15391 0
-15366 15391 0
-5561 -15366 15392 0
-15367 15392 0
-5561 -15367 15393 0
-15368 15393 0
-5561 -15368 15394 0
-15369 15394 0
-5561 -15369 15395 0
-15370 15395 0
-5561 -15370 15396 0
-15371 15396 0
-5561 -15371 15397 0
-15372 15397 0
-5561 -15372 15398 0
-15373 15398 0
-5561 -15373 15399 0
-15374 15399 0
-5561 -15374 15400 0
-15375 15400 0
-5561 -15375 15401 0
-15376 15401 0
-5561 -15376 15402 0
-15377 15402 0
-5561 -15377 15403 0
-15378 15403 0
-5561 -15378 15404 0
-15379 15404 0
-5561 -15379 15405 0
-15380 15405 0
-5561 -15380 15406 0
-15381 15406 0
-5561 -15381 15407 0
-15382 15407 0
-5561 -15382 15408 0
-15383 15408 0
-5561 -15383 15409 0
-15384 15409 0
-5561 -15384 0
-5561 15410 0
-15385 15410 0
-5561 -15385 15411 0
-15386 15411 0
-5561 -15386 15412 0
-15387 15412 0
-5561 -15387 15413 0
-15388 15413 0
-5561 -15388 15414 0
-15389 15414 0
-5561 -15389 15415 0
-15390 15415 0
-5561 -15390 15416 0
-15391 15416 0
-5561 -15391 15417 0
-15392 15417 0
-5561 -15392 15418 0
-15393 15418 0
-5561 -15393 15419 0
-15394 15419 0
-5561 -15394 15420 0
-15395 15420 0
-5561 -15395 15421 0
-15396 15421 0
-5561 -15396 15422 0
-15397 15422 0
-5561 -15397 15423 0
-15398 15423 0
-5561 -15398 15424 0
-15399 15424 0
-5561 -15399 15425 0
-15400 15425 0
-5561 -15400 15426 0
-15401 15426 0
-5561 -15401 15427 0
-15402 15427 0
-5561 -15402 15428 0
-15403 15428 0
-5561 -15403 15429 0
-15404 15429 0
-5561 -15404 15430 0
-15405 15430 0
-5561 -15405 15431 0
-15406 15431 0
-5561 -15406 15432 0
-15407 15432 0
-5561 -15407 15433 0
-15408 15433 0
-5561 -15408 15434 0
-15409 15434 0
-5561 -15409 0
-5561 15435 0
-15410 15435 0
-5561 -15410 15436 0
-15411 15436 0
-5561 -15411 15437 0
-15412 15437 0
-5561 -15412 15438 0
-15413 15438 0
-5561 -15413 15439 0
-15414 15439 0
-5561 -15414 15440 0
-15415 15440 0
-5561 -15415 15441 0
-15416 15441 0
-5561 -15416 15442 0
-15417 15442 0
-5561 -15417 15443 0
-15418 15443 0
-5561 -15418 15444 0
-15419 15444 0
-5561 -15419 15445 0
-15420 15445 0
-5561 -15420 15446 0
-15421 15446 0
-5561 -15421 15447 0
-15422 15447 0
-5561 -15422 15448 0
-15423 15448 0
-5561 -15423 15449 0
-15424 15449 0
-5561 -15424 15450 0
-15425 15450 0
-5561 -15425 15451 0
-15426 15451 0
-5561 -15426 15452 0
-15427 15452 0
-5561 -15427 15453 0
-15428 15453 0
-5561 -15428 15454 0
-15429 15454 0
-5561 -15429 15455 0
-15430 15455 0
-5561 -15430 15456 0
-15431 15456 0
-5561 -15431 15457 0
-15432 15457 0
-5561 -15432 15458 0
-15433 15458 0
-5561 -15433 15459 0
-15434 15459 0
-5561 -15434 0
-5562 15460 0
-15435 15460 0
-5562 -15435 15461 0
-15436 15461 0
-5562 -15436 15462 0
-15437 15462 0
-5562 -15437 15463 0
-15438 15463 0
-5562 -15438 15464 0
-15439 15464 0
-5562 -15439 15465 0
-15440 15465 0
-5562 -15440 15466 0
-15441 15466 0
-5562 -15441 15467 0
-15442 15467 0
-5562 -15442 15468 0
-15443 15468 0
-5562 -15443 15469 0
-15444 15469 0
-5562 -15444 15470 0
-15445 15470 0
-5562 -15445 15471 0
-15446 15471 0
-5562 -15446 15472 0
-15447 15472 0
-5562 -15447 15473 0
-15448 15473 0
-5562 -15448 15474 0
-15449 15474 0
-5562 -15449 15475 0
-15450 15475 0
-5562 -15450 15476 0
-15451 15476 0
-5562 -15451 15477 0
-15452 15477 0
-5562 -15452 15478 0
-15453 15478 0
-5562 -15453 15479 0
-15454 15479 0
-5562 -15454 15480 0
-15455 15480 0
-5562 -15455 15481 0
-15456 15481 0
-5562 -15456 15482 0
-15457 15482 0
-5562 -15457 15483 0
-15458 15483 0
-5562 -15458 15484 0
-15459 15484 0
-5562 -15459 0
-5562 15485 0
-15460 15485 0
-5562 -15460 15486 0
-15461 15486 0
-5562 -15461 15487 0
-15462 15487 0
-5562 -15462 15488 0
-15463 15488 0
-5562 -15463 15489 0
-15464 15489 0
-5562 -15464 15490 0
-15465 15490 0
-5562 -15465 15491 0
-15466 15491 0
-5562 -15466 15492 0
-15467 15492 0
-5562 -15467 15493 0
-15468 15493 0
-5562 -15468 15494 0
-15469 15494 0
-5562 -15469 15495 0
-15470 15495 0
-5562 -15470 15496 0
-15471 15496 0
-5562 -15471 15497 0
-15472 15497 0
-5562 -15472 15498 0
-15473 15498 0
-5562 -15473 15499 0
-15474 15499 0
-5562 -15474 15500 0
-15475 15500 0
-5562 -15475 15501 0
-15476 15501 0
-5562 -15476 15502 0
-15477 15502 0
-5562 -15477 15503 0
-15478 15503 0
-5562 -15478 15504 0
-15479 15504 0
-5562 -15479 15505 0
-15480 15505 0
-5562 -15480 15506 0
-15481 15506 0
-5562 -15481 15507 0
-15482 15507 0
-5562 -15482 15508 0
-15483 15508 0
-5562 -15483 15509 0
-15484 15509 0
-5562 -15484 0
-5572 15510 0
-15485 15510 0
-5572 -15485 15511 0
-15486 15511 0
-5572 -15486 15512 0
-15487 15512 0
-5572 -15487 15513 0
-15488 15513 0
-5572 -15488 15514 0
-15489 15514 0
-5572 -15489 15515 0
-15490 15515 0
-5572 -15490 15516 0
-15491 15516 0
-5572 -15491 15517 0
-15492 15517 0
-5572 -15492 15518 0
-15493 15518 0
-5572 -15493 15519 0
-15494 15519 0
-5572 -15494 15520 0
-15495 15520 0
-5572 -15495 15521 0
-15496 15521 0
-5572 -15496 15522 0
-15497 15522 0
-5572 -15497 15523 0
-15498 15523 0
-5572 -15498 15524 0
-15499 15524 0
-5572 -15499 15525 0
-15500 15525 0
-5572 -15500 15526 0
-15501 15526 0
-5572 -15501 15527 0
-15502 15527 0
-5572 -15502 15528 0
-15503 15528 0
-5572 -15503 15529 0
-15504 15529 0
-5572 -15504 15530 0
-15505 15530 0
-5572 -15505 15531 0
-15506 15531 0
-5572 -15506 15532 0
-15507 15532 0
-5572 -15507 15533 0
-15508 15533 0
-5572 -15508 15534 0
-15509 15534 0
-5572 -15509 0
-5572 15535 0
-15510 15535 0
-5572 -15510 15536 0
-15511 15536 0
-5572 -15511 15537 0
-15512 15537 0
-5572 -15512 15538 0
-15513 15538 0
-5572 -15513 15539 0
-15514 15539 0
-5572 -15514 15540 0
-15515 15540 0
-5572 -15515 15541 0
-15516 15541 0
-5572 -15516 15542 0
-15517 15542 0
-5572 -15517 15543 0
-15518 15543 0
-5572 -15518 15544 0
-15519 15544 0
-5572 -15519 15545 0
-15520 15545 0
-5572 -15520 15546 0
-15521 15546 0
-5572 -15521 15547 0
-15522 15547 0
-5572 -15522 15548 0
-15523 15548 0
-5572 -15523 15549 0
-15524 15549 0
-5572 -15524 15550 0
-15525 15550 0
-5572 -15525 15551 0
-15526 15551 0
-5572 -15526 15552 0
-15527 15552 0
-5572 -15527 15553 0
-15528 15553 0
-5572 -15528 15554 0
-15529 15554 0
-5572 -15529 15555 0
-15530 15555 0
-5572 -15530 15556 0
-15531 15556 0
-5572 -15531 15557 0
-15532 15557 0
-5572 -15532 15558 0
-15533 15558 0
-5572 -15533 15559 0
-15534 15559 0
-5572 -15534 0
-5572 15560 0
-15535 15560 0
-5572 -15535 15561 0
-15536 15561 0
-5572 -15536 15562 0
-15537 15562 0
-5572 -15537 15563 0
-15538 15563 0
-5572 -15538 15564 0
-15539 15564 0
-5572 -15539 15565 0
-15540 15565 0
-5572 -15540 15566 0
-15541 15566 0
-5572 -15541 15567 0
-15542 15567 0
-5572 -15542 15568 0
-15543 15568 0
-5572 -15543 15569 0
-15544 15569 0
-5572 -15544 15570 0
-15545 15570 0
-5572 -15545 15571 0
-15546 15571 0
-5572 -15546 15572 0
-15547 15572 0
-5572 -15547 15573 0
-15548 15573 0
-5572 -15548 15574 0
-15549 15574 0
-5572 -15549 15575 0
-15550 15575 0
-5572 -15550 15576 0
-15551 15576 0
-5572 -15551 15577 0
-15552 15577 0
-5572 -15552 15578 0
-15553 15578 0
-5572 -15553 15579 0
-15554 15579 0
-5572 -15554 15580 0
-15555 15580 0
-5572 -15555 15581 0
-15556 15581 0
-5572 -15556 15582 0
-15557 15582 0
-5572 -15557 15583 0
-15558 15583 0
-5572 -15558 15584 0
-15559 15584 0
-5572 -15559 0
-5573 15585 0
-15560 15585 0
-5573 -15560 15586 0
-15561 15586 0
-5573 -15561 15587 0
-15562 15587 0
-5573 -15562 15588 0
-15563 15588 0
-5573 -15563 15589 0
-15564 15589 0
-5573 -15564 15590 0
-15565 15590 0
-5573 -15565 15591 0
-15566 15591 0
-5573 -15566 15592 0
-15567 15592 0
-5573 -15567 15593 0
-15568 15593 0
-5573 -15568 15594 0
-15569 15594 0
-5573 -15569 15595 0
-15570 15595 0
-5573 -15570 15596 0
-15571 15596 0
-5573 -15571 15597 0
-15572 15597 0
-5573 -15572 15598 0
-15573 15598 0
-5573 -15573 15599 0
-15574 15599 0
-5573 -15574 15600 0
-15575 15600 0
-5573 -15575 15601 0
-15576 15601 0
-5573 -15576 15602 0
-15577 15602 0
-5573 -15577 15603 0
-15578 15603 0
-5573 -15578 15604 0
-15579 15604 0
-5573 -15579 15605 0
-15580 15605 0
-5573 -15580 15606 0
-15581 15606 0
-5573 -15581 15607 0
-15582 15607 0
-5573 -15582 15608 0
-15583 15608 0
-5573 -15583 15609 0
-15584 15609 0
-5573 -15584 0
-5573 15610 0
-15585 15610 0
-5573 -15585 15611 0
-15586 15611 0
-5573 -15586 15612 0
-15587 15612 0
-5573 -15587 15613 0
-15588 15613 0
-5573 -15588 15614 0
-15589 15614 0
-5573 -15589 15615 0
-15590 15615 0
-5573 -15590 15616 0
-15591 15616 0
-5573 -15591 15617 0
-15592 15617 0
-5573 -15592 15618 0
-15593 15618 0
-5573 -15593 15619 0
-15594 15619 0
-5573 -15594 15620 0
-15595 15620 0
-5573 -15595 15621 0
-15596 15621 0
-5573 -15596 15622 0
-15597 15622 0
-5573 -15597 15623 0
-15598 15623 0
-5573 -15598 15624 0
-15599 15624 0
-5573 -15599 15625 0
-15600 15625 0
-5573 -15600 15626 0
-15601 15626 0
-5573 -15601 15627 0
-15602 15627 0
-5573 -15602 15628 0
-15603 15628 0
-5573 -15603 15629 0
-15604 15629 0
-5573 -15604 15630 0
-15605 15630 0
-5573 -15605 15631 0
-15606 15631 0
-5573 -15606 15632 0
-15607 15632 0
-5573 -15607 15633 0
-15608 15633 0
-5573 -15608 15634 0
-15609 15634 0
-5573 -15609 0
-5583 15635 0
-15610 15635 0
-5583 -15610 15636 0
-15611 15636 0
-5583 -15611 15637 0
-15612 15637 0
-5583 -15612 15638 0
-15613 15638 0
-5583 -15613 15639 0
-15614 15639 0
-5583 -15614 15640 0
-15615 15640 0
-5583 -15615 15641 0
-15616 15641 0
-5583 -15616 15642 0
-15617 15642 0
-5583 -15617 15643 0
-15618 15643 0
-5583 -15618 15644 0
-15619 15644 0
-5583 -15619 15645 0
-15620 15645 0
-5583 -15620 15646 0
-15621 15646 0
-5583 -15621 15647 0
-15622 15647 0
-5583 -15622 15648 0
-15623 15648 0
-5583 -15623 15649 0
-15624 15649 0
-5583 -15624 15650 0
-15625 15650 0
-5583 -15625 15651 0
-15626 15651 0
-5583 -15626 15652 0
-15627 15652 0
-5583 -15627 15653 0
-15628 15653 0
-5583 -15628 15654 0
-15629 15654 0
-5583 -15629 15655 0
-15630 15655 0
-5583 -15630 15656 0
-15631 15656 0
-5583 -15631 15657 0
-15632 15657 0
-5583 -15632 15658 0
-15633 15658 0
-5583 -15633 15659 0
-15634 15659 0
-5583 -15634 0
-5583 15660 0
-15635 15660 0
-5583 -15635 15661 0
-15636 15661 0
-5583 -15636 15662 0
-15637 15662 0
-5583 -15637 15663 0
-15638 15663 0
-5583 -15638 15664 0
-15639 15664 0
-5583 -15639 15665 0
-15640 15665 0
-5583 -15640 15666 0
-15641 15666 0
-5583 -15641 15667 0
-15642 15667 0
-5583 -15642 15668 0
-15643 15668 0
-5583 -15643 15669 0
-15644 15669 0
-5583 -15644 15670 0
-15645 15670 0
-5583 -15645 15671 0
-15646 15671 0
-5583 -15646 15672 0
-15647 15672 0
-5583 -15647 15673 0
-15648 15673 0
-5583 -15648 15674 0
-15649 15674 0
-5583 -15649 15675 0
-15650 15675 0
-5583 -15650 15676 0
-15651 15676 0
-5583 -15651 15677 0
-15652 15677 0
-5583 -15652 15678 0
-15653 15678 0
-5583 -15653 15679 0
-15654 15679 0
-5583 -15654 15680 0
-15655 15680 0
-5583 -15655 15681 0
-15656 15681 0
-5583 -15656 15682 0
-15657 15682 0
-5583 -15657 15683 0
-15658 15683 0
-5583 -15658 15684 0
-15659 15684 0
-5583 -15659 0
-5583 15685 0
-15660 15685 0
-5583 -15660 15686 0
-15661 15686 0
-5583 -15661 15687 0
-15662 15687 0
-5583 -15662 15688 0
-15663 15688 0
-5583 -15663 15689 0
-15664 15689 0
-5583 -15664 15690 0
-15665 15690 0
-5583 -15665 15691 0
-15666 15691 0
-5583 -15666 15692 0
-15667 15692 0
-5583 -15667 15693 0
-15668 15693 0
-5583 -15668 15694 0
-15669 15694 0
-5583 -15669 15695 0
-15670 15695 0
-5583 -15670 15696 0
-15671 15696 0
-5583 -15671 15697 0
-15672 15697 0
-5583 -15672 15698 0
-15673 15698 0
-5583 -15673 15699 0
-15674 15699 0
-5583 -15674 15700 0
-15675 15700 0
-5583 -15675 15701 0
-15676 15701 0
-5583 -15676 15702 0
-15677 15702 0
-5583 -15677 15703 0
-15678 15703 0
-5583 -15678 15704 0
-15679 15704 0
-5583 -15679 15705 0
-15680 15705 0
-5583 -15680 15706 0
-15681 15706 0
-5583 -15681 15707 0
-15682 15707 0
-5583 -15682 15708 0
-15683 15708 0
-5583 -15683 15709 0
-15684 15709 0
-5583 -15684 0
-5584 15710 0
-15685 15710 0
-5584 -15685 15711 0
-15686 15711 0
-5584 -15686 15712 0
-15687 15712 0
-5584 -15687 15713 0
-15688 15713 0
-5584 -15688 15714 0
-15689 15714 0
-5584 -15689 15715 0
-15690 15715 0
-5584 -15690 15716 0
-15691 15716 0
-5584 -15691 15717 0
-15692 15717 0
-5584 -15692 15718 0
-15693 15718 0
-5584 -15693 15719 0
-15694 15719 0
-5584 -15694 15720 0
-15695 15720 0
-5584 -15695 15721 0
-15696 15721 0
-5584 -15696 15722 0
-15697 15722 0
-5584 -15697 15723 0
-15698 15723 0
-5584 -15698 15724 0
-15699 15724 0
-5584 -15699 15725 0
-15700 15725 0
-5584 -15700 15726 0
-15701 15726 0
-5584 -15701 15727 0
-15702 15727 0
-5584 -15702 15728 0
-15703 15728 0
-5584 -15703 15729 0
-15704 15729 0
-5584 -15704 15730 0
-15705 15730 0
-5584 -15705 15731 0
-15706 15731 0
-5584 -15706 15732 0
-15707 15732 0
-5584 -15707 15733 0
-15708 15733 0
-5584 -15708 15734 0
-15709 15734 0
-5584 -15709 0
-5584 15735 0
-15710 15735 0
-5584 -15710 15736 0
-15711 15736 0
-5584 -15711 15737 0
-15712 15737 0
-5584 -15712 15738 0
-15713 15738 0
-5584 -15713 15739 0
-15714 15739 0
-5584 -15714 15740 0
-15715 15740 0
-5584 -15715 15741 0
-15716 15741 0
-5584 -15716 15742 0
-15717 15742 0
-5584 -15717 15743 0
-15718 15743 0
-5584 -15718 15744 0
-15719 15744 0
-5584 -15719 15745 0
-15720 15745 0
-5584 -15720 15746 0
-15721 15746 0
-5584 -15721 15747 0
-15722 15747 0
-5584 -15722 15748 0
-15723 15748 0
-5584 -15723 15749 0
-15724 15749 0
-5584 -15724 15750 0
-15725 15750 0
-5584 -15725 15751 0
-15726 15751 0
-5584 -15726 15752 0
-15727 15752 0
-5584 -15727 15753 0
-15728 15753 0
-5584 -15728 15754 0
-15729 15754 0
-5584 -15729 15755 0
-15730 15755 0
-5584 -15730 15756 0
-15731 15756 0
-5584 -15731 15757 0
-15732 15757 0
-5584 -15732 15758 0
-15733 15758 0
-5584 -15733 15759 0
-15734 15759 0
-5584 -15734 0
-5594 15760 0
-15735 15760 0
-5594 -15735 15761 0
-15736 15761 0
-5594 -15736 15762 0
-15737 15762 0
-5594 -15737 15763 0
-15738 15763 0
-5594 -15738 15764 0
-15739 15764 0
-5594 -15739 15765 0
-15740 15765 0
-5594 -15740 15766 0
-15741 15766 0
-5594 -15741 15767 0
-15742 15767 0
-5594 -15742 15768 0
-15743 15768 0
-5594 -15743 15769 0
-15744 15769 0
-5594 -15744 15770 0
-15745 15770 0
-5594 -15745 15771 0
-15746 15771 0
-5594 -15746 15772 0
-15747 15772 0
-5594 -15747 15773 0
-15748 15773 0
-5594 -15748 15774 0
-15749 15774 0
-5594 -15749 15775 0
-15750 15775 0
-5594 -15750 15776 0
-15751 15776 0
-5594 -15751 15777 0
-15752 15777 0
-5594 -15752 15778 0
-15753 15778 0
-5594 -15753 15779 0
-15754 15779 0
-5594 -15754 15780 0
-15755 15780 0
-5594 -15755 15781 0
-15756 15781 0
-5594 -15756 15782 0
-15757 15782 0
-5594 -15757 15783 0
-15758 15783 0
-5594 -15758 15784 0
-15759 15784 0
-5594 -15759 0
-5594 15785 0
-15760 15785 0
-5594 -15760 15786 0
-15761 15786 0
-5594 -15761 15787 0
-15762 15787 0
-5594 -15762 15788 0
-15763 15788 0
-5594 -15763 15789 0
-15764 15789 0
-5594 -15764 15790 0
-15765 15790 0
-5594 -15765 15791 0
-15766 15791 0
-5594 -15766 15792 0
-15767 15792 0
-5594 -15767 15793 0
-15768 15793 0
-5594 -15768 15794 0
-15769 15794 0
-5594 -15769 15795 0
-15770 15795 0
-5594 -15770 15796 0
-15771 15796 0
-5594 -15771 15797 0
-15772 15797 0
-5594 -15772 15798 0
-15773 15798 0
-5594 -15773 15799 0
-15774 15799 0
-5594 -15774 15800 0
-15775 15800 0
-5594 -15775 15801 0
-15776 15801 0
-5594 -15776 15802 0
-15777 15802 0
-5594 -15777 15803 0
-15778 15803 0
-5594 -15778 15804 0
-15779 15804 0
-5594 -15779 15805 0
-15780 15805 0
-5594 -15780 15806 0
-15781 15806 0
-5594 -15781 15807 0
-15782 15807 0
-5594 -15782 15808 0
-15783 15808 0
-5594 -15783 15809 0
-15784 15809 0
-5594 -15784 0
-5594 15810 0
-15785 15810 0
-5594 -15785 15811 0
-15786 15811 0
-5594 -15786 15812 0
-15787 15812 0
-5594 -15787 15813 0
-15788 15813 0
-5594 -15788 15814 0
-15789 15814 0
-5594 -15789 15815 0
-15790 15815 0
-5594 -15790 15816 0
-15791 15816 0
-5594 -15791 15817 0
-15792 15817 0
-5594 -15792 15818 0
-15793 15818 0
-5594 -15793 15819 0
-15794 15819 0
-5594 -15794 15820 0
-15795 15820 0
-5594 -15795 15821 0
-15796 15821 0
-5594 -15796 15822 0
-15797 15822 0
-5594 -15797 15823 0
-15798 15823 0
-5594 -15798 15824 0
-15799 15824 0
-5594 -15799 15825 0
-15800 15825 0
-5594 -15800 15826 0
-15801 15826 0
-5594 -15801 15827 0
-15802 15827 0
-5594 -15802 15828 0
-15803 15828 0
-5594 -15803 15829 0
-15804 15829 0
-5594 -15804 15830 0
-15805 15830 0
-5594 -15805 15831 0
-15806 15831 0
-5594 -15806 15832 0
-15807 15832 0
-5594 -15807 15833 0
-15808 15833 0
-5594 -15808 15834 0
-15809 15834 0
-5594 -15809 0
-5595 15835 0
-15810 15835 0
-5595 -15810 15836 0
-15811 15836 0
-5595 -15811 15837 0
-15812 15837 0
-5595 -15812 15838 0
-15813 15838 0
-5595 -15813 15839 0
-15814 15839 0
-5595 -15814 15840 0
-15815 15840 0
-5595 -15815 15841 0
-15816 15841 0
-5595 -15816 15842 0
-15817 15842 0
-5595 -15817 15843 0
-15818 15843 0
-5595 -15818 15844 0
-15819 15844 0
-5595 -15819 15845 0
-15820 15845 0
-5595 -15820 15846 0
-15821 15846 0
-5595 -15821 15847 0
-15822 15847 0
-5595 -15822 15848 0
-15823 15848 0
-5595 -15823 15849 0
-15824 15849 0
-5595 -15824 15850 0
-15825 15850 0
-5595 -15825 15851 0
-15826 15851 0
-5595 -15826 15852 0
-15827 15852 0
-5595 -15827 15853 0
-15828 15853 0
-5595 -15828 15854 0
-15829 15854 0
-5595 -15829 15855 0
-15830 15855 0
-5595 -15830 15856 0
-15831 15856 0
-5595 -15831 15857 0
-15832 15857 0
-5595 -15832 15858 0
-15833 15858 0
-5595 -15833 15859 0
-15834 15859 0
-5595 -15834 0
-5595 15860 0
-15835 15860 0
-5595 -15835 15861 0
-15836 15861 0
-5595 -15836 15862 0
-15837 15862 0
-5595 -15837 15863 0
-15838 15863 0
-5595 -15838 15864 0
-15839 15864 0
-5595 -15839 15865 0
-15840 15865 0
-5595 -15840 15866 0
-15841 15866 0
-5595 -15841 15867 0
-15842 15867 0
-5595 -15842 15868 0
-15843 15868 0
-5595 -15843 15869 0
-15844 15869 0
-5595 -15844 15870 0
-15845 15870 0
-5595 -15845 15871 0
-15846 15871 0
-5595 -15846 15872 0
-15847 15872 0
-5595 -15847 15873 0
-15848 15873 0
-5595 -15848 15874 0
-15849 15874 0
-5595 -15849 15875 0
-15850 15875 0
-5595 -15850 15876 0
-15851 15876 0
-5595 -15851 15877 0
-15852 15877 0
-5595 -15852 15878 0
-15853 15878 0
-5595 -15853 15879 0
-15854 15879 0
-5595 -15854 15880 0
-15855 15880 0
-5595 -15855 15881 0
-15856 15881 0
-5595 -15856 15882 0
-15857 15882 0
-5595 -15857 15883 0
-15858 15883 0
-5595 -15858 15884 0
-15859 15884 0
-5595 -15859 0
-5605 15885 0
-15860 15885 0
-5605 -15860 15886 0
-15861 15886 0
-5605 -15861 15887 0
-15862 15887 0
-5605 -15862 15888 0
-15863 15888 0
-5605 -15863 15889 0
-15864 15889 0
-5605 -15864 15890 0
-15865 15890 0
-5605 -15865 15891 0
-15866 15891 0
-5605 -15866 15892 0
-15867 15892 0
-5605 -15867 15893 0
-15868 15893 0
-5605 -15868 15894 0
-15869 15894 0
-5605 -15869 15895 0
-15870 15895 0
-5605 -15870 15896 0
-15871 15896 0
-5605 -15871 15897 0
-15872 15897 0
-5605 -15872 15898 0
-15873 15898 0
-5605 -15873 15899 0
-15874 15899 0
-5605 -15874 15900 0
-15875 15900 0
-5605 -15875 15901 0
-15876 15901 0
-5605 -15876 15902 0
-15877 15902 0
-5605 -15877 15903 0
-15878 15903 0
-5605 -15878 15904 0
-15879 15904 0
-5605 -15879 15905 0
-15880 15905 0
-5605 -15880 15906 0
-15881 15906 0
-5605 -15881 15907 0
-15882 15907 0
-5605 -15882 15908 0
-15883 15908 0
-5605 -15883 15909 0
-15884 15909 0
-5605 -15884 0
-5605 15910 0
-15885 15910 0
-5605 -15885 15911 0
-15886 15911 0
-5605 -15886 15912 0
-15887 15912 0
-5605 -15887 15913 0
-15888 15913 0
-5605 -15888 15914 0
-15889 15914 0
-5605 -15889 15915 0
-15890 15915 0
-5605 -15890 15916 0
-15891 15916 0
-5605 -15891 15917 0
-15892 15917 0
-5605 -15892 15918 0
-15893 15918 0
-5605 -15893 15919 0
-15894 15919 0
-5605 -15894 15920 0
-15895 15920 0
-5605 -15895 15921 0
-15896 15921 0
-5605 -15896 15922 0
-15897 15922 0
-5605 -15897 15923 0
-15898 15923 0
-5605 -15898 15924 0
-15899 15924 0
-5605 -15899 15925 0
-15900 15925 0
-5605 -15900 15926 0
-15901 15926 0
-5605 -15901 15927 0
-15902 15927 0
-5605 -15902 15928 0
-15903 15928 0
-5605 -15903 15929 0
-15904 15929 0
-5605 -15904 15930 0
-15905 15930 0
-5605 -15905 15931 0
-15906 15931 0
-5605 -15906 15932 0
-15907 15932 0
-5605 -15907 15933 0
-15908 15933 0
-5605 -15908 15934 0
-15909 15934 0
-5605 -15909 0
-5605 15935 0
-15910 15935 0
-5605 -15910 15936 0
-15911 15936 0
-5605 -15911 15937 0
-15912 15937 0
-5605 -15912 15938 0
-15913 15938 0
-5605 -15913 15939 0
-15914 15939 0
-5605 -15914 15940 0
-15915 15940 0
-5605 -15915 15941 0
-15916 15941 0
-5605 -15916 15942 0
-15917 15942 0
-5605 -15917 15943 0
-15918 15943 0
-5605 -15918 15944 0
-15919 15944 0
-5605 -15919 15945 0
-15920 15945 0
-5605 -15920 15946 0
-15921 15946 0
-5605 -15921 15947 0
-15922 15947 0
-5605 -15922 15948 0
-15923 15948 0
-5605 -15923 15949 0
-15924 15949 0
-5605 -15924 15950 0
-15925 15950 0
-5605 -15925 15951 0
-15926 15951 0
-5605 -15926 15952 0
-15927 15952 0
-5605 -15927 15953 0
-15928 15953 0
-5605 -15928 15954 0
-15929 15954 0
-5605 -15929 15955 0
-15930 15955 0
-5605 -15930 15956 0
-15931 15956 0
-5605 -15931 15957 0
-15932 15957 0
-5605 -15932 15958 0
-15933 15958 0
-5605 -15933 15959 0
-15934 15959 0
-5605 -15934 0
-5606 15960 0
-15935 15960 0
-5606 -15935 15961 0
-15936 15961 0
-5606 -15936 15962 0
-15937 15962 0
-5606 -15937 15963 0
-15938 15963 0
-5606 -15938 15964 0
-15939 15964 0
-5606 -15939 15965 0
-15940 15965 0
-5606 -15940 15966 0
-15941 15966 0
-5606 -15941 15967 0
-15942 15967 0
-5606 -15942 15968 0
-15943 15968 0
-5606 -15943 15969 0
-15944 15969 0
-5606 -15944 15970 0
-15945 15970 0
-5606 -15945 15971 0
-15946 15971 0
-5606 -15946 15972 0
-15947 15972 0
-5606 -15947 15973 0
-15948 15973 0
-5606 -15948 15974 0
-15949 15974 0
-5606 -15949 15975 0
-15950 15975 0
-5606 -15950 15976 0
-15951 15976 0
-5606 -15951 15977 0
-15952 15977 0
-5606 -15952 15978 0
-15953 15978 0
-5606 -15953 15979 0
-15954 15979 0
-5606 -15954 15980 0
-15955 15980 0
-5606 -15955 15981 0
-15956 15981 0
-5606 -15956 15982 0
-15957 15982 0
-5606 -15957 15983 0
-15958 15983 0
-5606 -15958 15984 0
-15959 15984 0
-5606 -15959 0
-5606 15985 0
-15960 15985 0
-5606 -15960 15986 0
-15961 15986 0
-5606 -15961 15987 0
-15962 15987 0
-5606 -15962 15988 0
-15963 15988 0
-5606 -15963 15989 0
-15964 15989 0
-5606 -15964 15990 0
-15965 15990 0
-5606 -15965 15991 0
-15966 15991 0
-5606 -15966 15992 0
-15967 15992 0
-5606 -15967 15993 0
-15968 15993 0
-5606 -15968 15994 0
-15969 15994 0
-5606 -15969 15995 0
-15970 15995 0
-5606 -15970 15996 0
-15971 15996 0
-5606 -15971 15997 0
-15972 15997 0
-5606 -15972 15998 0
-15973 15998 0
-5606 -15973 15999 0
-15974 15999 0
-5606 -15974 16000 0
-15975 16000 0
-5606 -15975 16001 0
-15976 16001 0
-5606 -15976 16002 0
-15977 16002 0
-5606 -15977 16003 0
-15978 16003 0
-5606 -15978 16004 0
-15979 16004 0
-5606 -15979 16005 0
-15980 16005 0
-5606 -15980 16006 0
-15981 16006 0
-5606 -15981 16007 0
-15982 16007 0
-5606 -15982 16008 0
-15983 16008 0
-5606 -15983 16009 0
-15984 16009 0
-5606 -15984 0
-5616 16010 0
-15985 16010 0
-5616 -15985 16011 0
-15986 16011 0
-5616 -15986 16012 0
-15987 16012 0
-5616 -15987 16013 0
-15988 16013 0
-5616 -15988 16014 0
-15989 16014 0
-5616 -15989 16015 0
-15990 16015 0
-5616 -15990 16016 0
-15991 16016 0
-5616 -15991 16017 0
-15992 16017 0
-5616 -15992 16018 0
-15993 16018 0
-5616 -15993 16019 0
-15994 16019 0
-5616 -15994 16020 0
-15995 16020 0
-5616 -15995 16021 0
-15996 16021 0
-5616 -15996 16022 0
-15997 16022 0
-5616 -15997 16023 0
-15998 16023 0
-5616 -15998 16024 0
-15999 16024 0
-5616 -15999 16025 0
-16000 16025 0
-5616 -16000 16026 0
-16001 16026 0
-5616 -16001 16027 0
-16002 16027 0
-5616 -16002 16028 0
-16003 16028 0
-5616 -16003 16029 0
-16004 16029 0
-5616 -16004 16030 0
-16005 16030 0
-5616 -16005 16031 0
-16006 16031 0
-5616 -16006 16032 0
-16007 16032 0
-5616 -16007 16033 0
-16008 16033 0
-5616 -16008 16034 0
-16009 16034 0
-5616 -16009 0
-5616 16035 0
-16010 16035 0
-5616 -16010 16036 0
-16011 16036 0
-5616 -16011 16037 0
-16012 16037 0
-5616 -16012 16038 0
-16013 16038 0
-5616 -16013 16039 0
-16014 16039 0
-5616 -16014 16040 0
-16015 16040 0
-5616 -16015 16041 0
-16016 16041 0
-5616 -16016 16042 0
-16017 16042 0
-5616 -16017 16043 0
-16018 16043 0
-5616 -16018 16044 0
-16019 16044 0
-5616 -16019 16045 0
-16020 16045 0
-5616 -16020 16046 0
-16021 16046 0
-5616 -16021 16047 0
-16022 16047 0
-5616 -16022 16048 0
-16023 16048 0
-5616 -16023 16049 0
-16024 16049 0
-5616 -16024 16050 0
-16025 16050 0
-5616 -16025 16051 0
-16026 16051 0
-5616 -16026 16052 0
-16027 16052 0
-5616 -16027 16053 0
-16028 16053 0
-5616 -16028 16054 0
-16029 16054 0
-5616 -16029 16055 0
-16030 16055 0
-5616 -16030 16056 0
-16031 16056 0
-5616 -16031 16057 0
-16032 16057 0
-5616 -16032 16058 0
-16033 16058 0
-5616 -16033 16059 0
-16034 16059 0
-5616 -16034 0
-5616 16060 0
-16035 16060 0
-5616 -16035 16061 0
-16036 16061 0
-5616 -16036 16062 0
-16037 16062 0
-5616 -16037 16063 0
-16038 16063 0
-5616 -16038 16064 0
-16039 16064 0
-5616 -16039 16065 0
-16040 16065 0
-5616 -16040 16066 0
-16041 16066 0
-5616 -16041 16067 0
-16042 16067 0
-5616 -16042 16068 0
-16043 16068 0
-5616 -16043 16069 0
-16044 16069 0
-5616 -16044 16070 0
-16045 16070 0
-5616 -16045 16071 0
-16046 16071 0
-5616 -16046 16072 0
-16047 16072 0
-5616 -16047 16073 0
-16048 16073 0
-5616 -16048 16074 0
-16049 16074 0
-5616 -16049 16075 0
-16050 16075 0
-5616 -16050 16076 0
-16051 16076 0
-5616 -16051 16077 0
-16052 16077 0
-5616 -16052 16078 0
-16053 16078 0
-5616 -16053 16079 0
-16054 16079 0
-5616 -16054 16080 0
-16055 16080 0
-5616 -16055 16081 0
-16056 16081 0
-5616 -16056 16082 0
-16057 16082 0
-5616 -16057 16083 0
-16058 16083 0
-5616 -16058 16084 0
-16059 16084 0
-5616 -16059 0
-5617 16085 0
-16060 16085 0
-5617 -16060 16086 0
-16061 16086 0
-5617 -16061 16087 0
-16062 16087 0
-5617 -16062 16088 0
-16063 16088 0
-5617 -16063 16089 0
-16064 16089 0
-5617 -16064 16090 0
-16065 16090 0
-5617 -16065 16091 0
-16066 16091 0
-5617 -16066 16092 0
-16067 16092 0
-5617 -16067 16093 0
-16068 16093 0
-5617 -16068 16094 0
-16069 16094 0
-5617 -16069 16095 0
-16070 16095 0
-5617 -16070 16096 0
-16071 16096 0
-5617 -16071 16097 0
-16072 16097 0
-5617 -16072 16098 0
-16073 16098 0
-5617 -16073 16099 0
-16074 16099 0
-5617 -16074 16100 0
-16075 16100 0
-5617 -16075 16101 0
-16076 16101 0
-5617 -16076 16102 0
-16077 16102 0
-5617 -16077 16103 0
-16078 16103 0
-5617 -16078 16104 0
-16079 16104 0
-5617 -16079 16105 0
-16080 16105 0
-5617 -16080 16106 0
-16081 16106 0
-5617 -16081 16107 0
-16082 16107 0
-5617 -16082 16108 0
-16083 16108 0
-5617 -16083 16109 0
-16084 16109 0
-5617 -16084 0
-5617 16110 0
-16085 16110 0
-5617 -16085 16111 0
-16086 16111 0
-5617 -16086 16112 0
-16087 16112 0
-5617 -16087 16113 0
-16088 16113 0
-5617 -16088 16114 0
-16089 16114 0
-5617 -16089 16115 0
-16090 16115 0
-5617 -16090 16116 0
-16091 16116 0
-5617 -16091 16117 0
-16092 16117 0
-5617 -16092 16118 0
-16093 16118 0
-5617 -16093 16119 0
-16094 16119 0
-5617 -16094 16120 0
-16095 16120 0
-5617 -16095 16121 0
-16096 16121 0
-5617 -16096 16122 0
-16097 16122 0
-5617 -16097 16123 0
-16098 16123 0
-5617 -16098 16124 0
-16099 16124 0
-5617 -16099 16125 0
-16100 16125 0
-5617 -16100 16126 0
-16101 16126 0
-5617 -16101 16127 0
-16102 16127 0
-5617 -16102 16128 0
-16103 16128 0
-5617 -16103 16129 0
-16104 16129 0
-5617 -16104 16130 0
-16105 16130 0
-5617 -16105 16131 0
-16106 16131 0
-5617 -16106 16132 0
-16107 16132 0
-5617 -16107 16133 0
-16108 16133 0
-5617 -16108 16134 0
-16109 16134 0
-5617 -16109 0
-5627 16135 0
-16110 16135 0
-5627 -16110 16136 0
-16111 16136 0
-5627 -16111 16137 0
-16112 16137 0
-5627 -16112 16138 0
-16113 16138 0
-5627 -16113 16139 0
-16114 16139 0
-5627 -16114 16140 0
-16115 16140 0
-5627 -16115 16141 0
-16116 16141 0
-5627 -16116 16142 0
-16117 16142 0
-5627 -16117 16143 0
-16118 16143 0
-5627 -16118 16144 0
-16119 16144 0
-5627 -16119 16145 0
-16120 16145 0
-5627 -16120 16146 0
-16121 16146 0
-5627 -16121 16147 0
-16122 16147 0
-5627 -16122 16148 0
-16123 16148 0
-5627 -16123 16149 0
-16124 16149 0
-5627 -16124 16150 0
-16125 16150 0
-5627 -16125 16151 0
-16126 16151 0
-5627 -16126 16152 0
-16127 16152 0
-5627 -16127 16153 0
-16128 16153 0
-5627 -16128 16154 0
-16129 16154 0
-5627 -16129 16155 0
-16130 16155 0
-5627 -16130 16156 0
-16131 16156 0
-5627 -16131 16157 0
-16132 16157 0
-5627 -16132 16158 0
-16133 16158 0
-5627 -16133 16159 0
-16134 16159 0
-5627 -16134 0
-5627 16160 0
-16135 16160 0
-5627 -16135 16161 0
-16136 16161 0
-5627 -16136 16162 0
-16137 16162 0
-5627 -16137 16163 0
-16138 16163 0
-5627 -16138 16164 0
-16139 16164 0
-5627 -16139 16165 0
-16140 16165 0
-5627 -16140 16166 0
-16141 16166 0
-5627 -16141 16167 0
-16142 16167 0
-5627 -16142 16168 0
-16143 16168 0
-5627 -16143 16169 0
-16144 16169 0
-5627 -16144 16170 0
-16145 16170 0
-5627 -16145 16171 0
-16146 16171 0
-5627 -16146 16172 0
-16147 16172 0
-5627 -16147 16173 0
-16148 16173 0
-5627 -16148 16174 0
-16149 16174 0
-5627 -16149 16175 0
-16150 16175 0
-5627 -16150 16176 0
-16151 16176 0
-5627 -16151 16177 0
-16152 16177 0
-5627 -16152 16178 0
-16153 16178 0
-5627 -16153 16179 0
-16154 16179 0
-5627 -16154 16180 0
-16155 16180 0
-5627 -16155 16181 0
-16156 16181 0
-5627 -16156 16182 0
-16157 16182 0
-5627 -16157 16183 0
-16158 16183 0
-5627 -16158 16184 0
-16159 16184 0
-5627 -16159 0
-5627 16185 0
-16160 16185 0
-5627 -16160 16186 0
-16161 16186 0
-5627 -16161 16187 0
-16162 16187 0
-5627 -16162 16188 0
-16163 16188 0
-5627 -16163 16189 0
-16164 16189 0
-5627 -16164 16190 0
-16165 16190 0
-5627 -16165 16191 0
-16166 16191 0
-5627 -16166 16192 0
-16167 16192 0
-5627 -16167 16193 0
-16168 16193 0
-5627 -16168 16194 0
-16169 16194 0
-5627 -16169 16195 0
-16170 16195 0
-5627 -16170 16196 0
-16171 16196 0
-5627 -16171 16197 0
-16172 16197 0
-5627 -16172 16198 0
-16173 16198 0
-5627 -16173 16199 0
-16174 16199 0
-5627 -16174 16200 0
-16175 16200 0
-5627 -16175 16201 0
-16176 16201 0
-5627 -16176 16202 0
-16177 16202 0
-5627 -16177 16203 0
-16178 16203 0
-5627 -16178 16204 0
-16179 16204 0
-5627 -16179 16205 0
-16180 16205 0
-5627 -16180 16206 0
-16181 16206 0
-5627 -16181 16207 0
-16182 16207 0
-5627 -16182 16208 0
-16183 16208 0
-5627 -16183 16209 0
-16184 16209 0
-5627 -16184 0
-5628 16210 0
-16185 16210 0
-5628 -16185 16211 0
-16186 16211 0
-5628 -16186 16212 0
-16187 16212 0
-5628 -16187 16213 0
-16188 16213 0
-5628 -16188 16214 0
-16189 16214 0
-5628 -16189 16215 0
-16190 16215 0
-5628 -16190 16216 0
-16191 16216 0
-5628 -16191 16217 0
-16192 16217 0
-5628 -16192 16218 0
-16193 16218 0
-5628 -16193 16219 0
-16194 16219 0
-5628 -16194 16220 0
-16195 16220 0
-5628 -16195 16221 0
-16196 16221 0
-5628 -16196 16222 0
-16197 16222 0
-5628 -16197 16223 0
-16198 16223 0
-5628 -16198 16224 0
-16199 16224 0
-5628 -16199 16225 0
-16200 16225 0
-5628 -16200 16226 0
-16201 16226 0
-5628 -16201 16227 0
-16202 16227 0
-5628 -16202 16228 0
-16203 16228 0
-5628 -16203 16229 0
-16204 16229 0
-5628 -16204 16230 0
-16205 16230 0
-5628 -16205 16231 0
-16206 16231 0
-5628 -16206 16232 0
-16207 16232 0
-5628 -16207 16233 0
-16208 16233 0
-5628 -16208 16234 0
-16209 16234 0
-5628 -16209 0
-5628 16235 0
-16210 16235 0
-5628 -16210 16236 0
-16211 16236 0
-5628 -16211 16237 0
-16212 16237 0
-5628 -16212 16238 0
-16213 16238 0
-5628 -16213 16239 0
-16214 16239 0
-5628 -16214 16240 0
-16215 16240 0
-5628 -16215 16241 0
-16216 16241 0
-5628 -16216 16242 0
-16217 16242 0
-5628 -16217 16243 0
-16218 16243 0
-5628 -16218 16244 0
-16219 16244 0
-5628 -16219 16245 0
-16220 16245 0
-5628 -16220 16246 0
-16221 16246 0
-5628 -16221 16247 0
-16222 16247 0
-5628 -16222 16248 0
-16223 16248 0
-5628 -16223 16249 0
-16224 16249 0
-5628 -16224 16250 0
-16225 16250 0
-5628 -16225 16251 0
-16226 16251 0
-5628 -16226 16252 0
-16227 16252 0
-5628 -16227 16253 0
-16228 16253 0
-5628 -16228 16254 0
-16229 16254 0
-5628 -16229 16255 0
-16230 16255 0
-5628 -16230 16256 0
-16231 16256 0
-5628 -16231 16257 0
-16232 16257 0
-5628 -16232 16258 0
-16233 16258 0
-5628 -16233 16259 0
-16234 16259 0
-5628 -16234 0
-5638 16260 0
-16235 16260 0
-5638 -16235 16261 0
-16236 16261 0
-5638 -16236 16262 0
-16237 16262 0
-5638 -16237 16263 0
-16238 16263 0
-5638 -16238 16264 0
-16239 16264 0
-5638 -16239 16265 0
-16240 16265 0
-5638 -16240 16266 0
-16241 16266 0
-5638 -16241 16267 0
-16242 16267 0
-5638 -16242 16268 0
-16243 16268 0
-5638 -16243 16269 0
-16244 16269 0
-5638 -16244 16270 0
-16245 16270 0
-5638 -16245 16271 0
-16246 16271 0
-5638 -16246 16272 0
-16247 16272 0
-5638 -16247 16273 0
-16248 16273 0
-5638 -16248 16274 0
-16249 16274 0
-5638 -16249 16275 0
-16250 16275 0
-5638 -16250 16276 0
-16251 16276 0
-5638 -16251 16277 0
-16252 16277 0
-5638 -16252 16278 0
-16253 16278 0
-5638 -16253 16279 0
-16254 16279 0
-5638 -16254 16280 0
-16255 16280 0
-5638 -16255 16281 0
-16256 16281 0
-5638 -16256 16282 0
-16257 16282 0
-5638 -16257 16283 0
-16258 16283 0
-5638 -16258 16284 0
-16259 16284 0
-5638 -16259 0
-5638 16285 0
-16260 16285 0
-5638 -16260 16286 0
-16261 16286 0
-5638 -16261 16287 0
-16262 16287 0
-5638 -16262 16288 0
-16263 16288 0
-5638 -16263 16289 0
-16264 16289 0
-5638 -16264 16290 0
-16265 16290 0
-5638 -16265 16291 0
-16266 16291 0
-5638 -16266 16292 0
-16267 16292 0
-5638 -16267 16293 0
-16268 16293 0
-5638 -16268 16294 0
-16269 16294 0
-5638 -16269 16295 0
-16270 16295 0
-5638 -16270 16296 0
-16271 16296 0
-5638 -16271 16297 0
-16272 16297 0
-5638 -16272 16298 0
-16273 16298 0
-5638 -16273 16299 0
-16274 16299 0
-5638 -16274 16300 0
-16275 16300 0
-5638 -16275 16301 0
-16276 16301 0
-5638 -16276 16302 0
-16277 16302 0
-5638 -16277 16303 0
-16278 16303 0
-5638 -16278 16304 0
-16279 16304 0
-5638 -16279 16305 0
-16280 16305 0
-5638 -16280 16306 0
-16281 16306 0
-5638 -16281 16307 0
-16282 16307 0
-5638 -16282 16308 0
-16283 16308 0
-5638 -16283 16309 0
-16284 16309 0
-5638 -16284 0
-5638 16310 0
-16285 16310 0
-5638 -16285 16311 0
-16286 16311 0
-5638 -16286 16312 0
-16287 16312 0
-5638 -16287 16313 0
-16288 16313 0
-5638 -16288 16314 0
-16289 16314 0
-5638 -16289 16315 0
-16290 16315 0
-5638 -16290 16316 0
-16291 16316 0
-5638 -16291 16317 0
-16292 16317 0
-5638 -16292 16318 0
-16293 16318 0
-5638 -16293 16319 0
-16294 16319 0
-5638 -16294 16320 0
-16295 16320 0
-5638 -16295 16321 0
-16296 16321 0
-5638 -16296 16322 0
-16297 16322 0
-5638 -16297 16323 0
-16298 16323 0
-5638 -16298 16324 0
-16299 16324 0
-5638 -16299 16325 0
-16300 16325 0
-5638 -16300 16326 0
-16301 16326 0
-5638 -16301 16327 0
-16302 16327 0
-5638 -16302 16328 0
-16303 16328 0
-5638 -16303 16329 0
-16304 16329 0
-5638 -16304 16330 0
-16305 16330 0
-5638 -16305 16331 0
-16306 16331 0
-5638 -16306 16332 0
-16307 16332 0
-5638 -16307 16333 0
-16308 16333 0
-5638 -16308 16334 0
-16309 16334 0
-5638 -16309 0
-5639 16335 0
-16310 16335 0
-5639 -16310 16336 0
-16311 16336 0
-5639 -16311 16337 0
-16312 16337 0
-5639 -16312 16338 0
-16313 16338 0
-5639 -16313 16339 0
-16314 16339 0
-5639 -16314 16340 0
-16315 16340 0
-5639 -16315 16341 0
-16316 16341 0
-5639 -16316 16342 0
-16317 16342 0
-5639 -16317 16343 0
-16318 16343 0
-5639 -16318 16344 0
-16319 16344 0
-5639 -16319 16345 0
-16320 16345 0
-5639 -16320 16346 0
-16321 16346 0
-5639 -16321 16347 0
-16322 16347 0
-5639 -16322 16348 0
-16323 16348 0
-5639 -16323 16349 0
-16324 16349 0
-5639 -16324 16350 0
-16325 16350 0
-5639 -16325 16351 0
-16326 16351 0
-5639 -16326 16352 0
-16327 16352 0
-5639 -16327 16353 0
-16328 16353 0
-5639 -16328 16354 0
-16329 16354 0
-5639 -16329 16355 0
-16330 16355 0
-5639 -16330 16356 0
-16331 16356 0
-5639 -16331 16357 0
-16332 16357 0
-5639 -16332 16358 0
-16333 16358 0
-5639 -16333 16359 0
-16334 16359 0
-5639 -16334 0
-5639 16360 0
-16335 16360 0
-5639 -16335 16361 0
-16336 16361 0
-5639 -16336 16362 0
-16337 16362 0
-5639 -16337 16363 0
-16338 16363 0
-5639 -16338 16364 0
-16339 16364 0
-5639 -16339 16365 0
-16340 16365 0
-5639 -16340 16366 0
-16341 16366 0
-5639 -16341 16367 0
-16342 16367 0
-5639 -16342 16368 0
-16343 16368 0
-5639 -16343 16369 0
-16344 16369 0
-5639 -16344 16370 0
-16345 16370 0
-5639 -16345 16371 0
-16346 16371 0
-5639 -16346 16372 0
-16347 16372 0
-5639 -16347 16373 0
-16348 16373 0
-5639 -16348 16374 0
-16349 16374 0
-5639 -16349 16375 0
-16350 16375 0
-5639 -16350 16376 0
-16351 16376 0
-5639 -16351 16377 0
-16352 16377 0
-5639 -16352 16378 0
-16353 16378 0
-5639 -16353 16379 0
-16354 16379 0
-5639 -16354 16380 0
-16355 16380 0
-5639 -16355 16381 0
-16356 16381 0
-5639 -16356 16382 0
-16357 16382 0
-5639 -16357 16383 0
-16358 16383 0
-5639 -16358 16384 0
-16359 16384 0
-5639 -16359 0
-5649 16385 0
-16360 16385 0
-5649 -16360 16386 0
-16361 16386 0
-5649 -16361 16387 0
-16362 16387 0
-5649 -16362 16388 0
-16363 16388 0
-5649 -16363 16389 0
-16364 16389 0
-5649 -16364 16390 0
-16365 16390 0
-5649 -16365 16391 0
-16366 16391 0
-5649 -16366 16392 0
-16367 16392 0
-5649 -16367 16393 0
-16368 16393 0
-5649 -16368 16394 0
-16369 16394 0
-5649 -16369 16395 0
-16370 16395 0
-5649 -16370 16396 0
-16371 16396 0
-5649 -16371 16397 0
-16372 16397 0
-5649 -16372 16398 0
-16373 16398 0
-5649 -16373 16399 0
-16374 16399 0
-5649 -16374 16400 0
-16375 16400 0
-5649 -16375 16401 0
-16376 16401 0
-5649 -16376 16402 0
-16377 16402 0
-5649 -16377 16403 0
-16378 16403 0
-5649 -16378 16404 0
-16379 16404 0
-5649 -16379 16405 0
-16380 16405 0
-5649 -16380 16406 0
-16381 16406 0
-5649 -16381 16407 0
-16382 16407 0
-5649 -16382 16408 0
-16383 16408 0
-5649 -16383 16409 0
-16384 16409 0
-5649 -16384 0
-5649 16410 0
-16385 16410 0
-5649 -16385 16411 0
-16386 16411 0
-5649 -16386 16412 0
-16387 16412 0
-5649 -16387 16413 0
-16388 16413 0
-5649 -16388 16414 0
-16389 16414 0
-5649 -16389 16415 0
-16390 16415 0
-5649 -16390 16416 0
-16391 16416 0
-5649 -16391 16417 0
-16392 16417 0
-5649 -16392 16418 0
-16393 16418 0
-5649 -16393 16419 0
-16394 16419 0
-5649 -16394 16420 0
-16395 16420 0
-5649 -16395 16421 0
-16396 16421 0
-5649 -16396 16422 0
-16397 16422 0
-5649 -16397 16423 0
-16398 16423 0
-5649 -16398 16424 0
-16399 16424 0
-5649 -16399 16425 0
-16400 16425 0
-5649 -16400 16426 0
-16401 16426 0
-5649 -16401 16427 0
-16402 16427 0
-5649 -16402 16428 0
-16403 16428 0
-5649 -16403 16429 0
-16404 16429 0
-5649 -16404 16430 0
-16405 16430 0
-5649 -16405 16431 0
-16406 16431 0
-5649 -16406 16432 0
-16407 16432 0
-5649 -16407 16433 0
-16408 16433 0
-5649 -16408 16434 0
-16409 16434 0
-5649 -16409 0
-5649 16435 0
-16410 16435 0
-5649 -16410 16436 0
-16411 16436 0
-5649 -16411 16437 0
-16412 16437 0
-5649 -16412 16438 0
-16413 16438 0
-5649 -16413 16439 0
-16414 16439 0
-5649 -16414 16440 0
-16415 16440 0
-5649 -16415 16441 0
-16416 16441 0
-5649 -16416 16442 0
-16417 16442 0
-5649 -16417 16443 0
-16418 16443 0
-5649 -16418 16444 0
-16419 16444 0
-5649 -16419 16445 0
-16420 16445 0
-5649 -16420 16446 0
-16421 16446 0
-5649 -16421 16447 0
-16422 16447 0
-5649 -16422 16448 0
-16423 16448 0
-5649 -16423 16449 0
-16424 16449 0
-5649 -16424 16450 0
-16425 16450 0
-5649 -16425 16451 0
-16426 16451 0
-5649 -16426 16452 0
-16427 16452 0
-5649 -16427 16453 0
-16428 16453 0
-5649 -16428 16454 0
-16429 16454 0
-5649 -16429 16455 0
-16430 16455 0
-5649 -16430 16456 0
-16431 16456 0
-5649 -16431 16457 0
-16432 16457 0
-5649 -16432 16458 0
-16433 16458 0
-5649 -16433 16459 0
-16434 16459 0
-5649 -16434 0
-5650 16460 0
-16435 16460 0
-5650 -16435 16461 0
-16436 16461 0
-5650 -16436 16462 0
-16437 16462 0
-5650 -16437 16463 0
-16438 16463 0
-5650 -16438 16464 0
-16439 16464 0
-5650 -16439 16465 0
-16440 16465 0
-5650 -16440 16466 0
-16441 16466 0
-5650 -16441 16467 0
-16442 16467 0
-5650 -16442 16468 0
-16443 16468 0
-5650 -16443 16469 0
-16444 16469 0
-5650 -16444 16470 0
-16445 16470 0
-5650 -16445 16471 0
-16446 16471 0
-5650 -16446 16472 0
-16447 16472 0
-5650 -16447 16473 0
-16448 16473 0
-5650 -16448 16474 0
-16449 16474 0
-5650 -16449 16475 0
-16450 16475 0
-5650 -16450 16476 0
-16451 16476 0
-5650 -16451 16477 0
-16452 16477 0
-5650 -16452 16478 0
-16453 16478 0
-5650 -16453 16479 0
-16454 16479 0
-5650 -16454 16480 0
-16455 16480 0
-5650 -16455 16481 0
-16456 16481 0
-5650 -16456 16482 0
-16457 16482 0
-5650 -16457 16483 0
-16458 16483 0
-5650 -16458 16484 0
-16459 16484 0
-5650 -16459 0
-5650 16485 0
-16460 16485 0
-5650 -16460 16486 0
-16461 16486 0
-5650 -16461 16487 0
-16462 16487 0
-5650 -16462 16488 0
-16463 16488 0
-5650 -16463 16489 0
-16464 16489 0
-5650 -16464 16490 0
-16465 16490 0
-5650 -16465 16491 0
-16466 16491 0
-5650 -16466 16492 0
-16467 16492 0
-5650 -16467 16493 0
-16468 16493 0
-5650 -16468 16494 0
-16469 16494 0
-5650 -16469 16495 0
-16470 16495 0
-5650 -16470 16496 0
-16471 16496 0
-5650 -16471 16497 0
-16472 16497 0
-5650 -16472 16498 0
-16473 16498 0
-5650 -16473 16499 0
-16474 16499 0
-5650 -16474 16500 0
-16475 16500 0
-5650 -16475 16501 0
-16476 16501 0
-5650 -16476 16502 0
-16477 16502 0
-5650 -16477 16503 0
-16478 16503 0
-5650 -16478 16504 0
-16479 16504 0
-5650 -16479 16505 0
-16480 16505 0
-5650 -16480 16506 0
-16481 16506 0
-5650 -16481 16507 0
-16482 16507 0
-5650 -16482 16508 0
-16483 16508 0
-5650 -16483 16509 0
-16484 16509 0
-5650 -16484 0
-5660 16510 0
-16485 16510 0
-5660 -16485 16511 0
-16486 16511 0
-5660 -16486 16512 0
-16487 16512 0
-5660 -16487 16513 0
-16488 16513 0
-5660 -16488 16514 0
-16489 16514 0
-5660 -16489 16515 0
-16490 16515 0
-5660 -16490 16516 0
-16491 16516 0
-5660 -16491 16517 0
-16492 16517 0
-5660 -16492 16518 0
-16493 16518 0
-5660 -16493 16519 0
-16494 16519 0
-5660 -16494 16520 0
-16495 16520 0
-5660 -16495 16521 0
-16496 16521 0
-5660 -16496 16522 0
-16497 16522 0
-5660 -16497 16523 0
-16498 16523 0
-5660 -16498 16524 0
-16499 16524 0
-5660 -16499 16525 0
-16500 16525 0
-5660 -16500 16526 0
-16501 16526 0
-5660 -16501 16527 0
-16502 16527 0
-5660 -16502 16528 0
-16503 16528 0
-5660 -16503 16529 0
-16504 16529 0
-5660 -16504 16530 0
-16505 16530 0
-5660 -16505 16531 0
-16506 16531 0
-5660 -16506 16532 0
-16507 16532 0
-5660 -16507 16533 0
-16508 16533 0
-5660 -16508 16534 0
-16509 16534 0
-5660 -16509 0
-5660 16535 0
-16510 16535 0
-5660 -16510 16536 0
-16511 16536 0
-5660 -16511 16537 0
-16512 16537 0
-5660 -16512 16538 0
-16513 16538 0
-5660 -16513 16539 0
-16514 16539 0
-5660 -16514 16540 0
-16515 16540 0
-5660 -16515 16541 0
-16516 16541 0
-5660 -16516 16542 0
-16517 16542 0
-5660 -16517 16543 0
-16518 16543 0
-5660 -16518 16544 0
-16519 16544 0
-5660 -16519 16545 0
-16520 16545 0
-5660 -16520 16546 0
-16521 16546 0
-5660 -16521 16547 0
-16522 16547 0
-5660 -16522 16548 0
-16523 16548 0
-5660 -16523 16549 0
-16524 16549 0
-5660 -16524 16550 0
-16525 16550 0
-5660 -16525 16551 0
-16526 16551 0
-5660 -16526 16552 0
-16527 16552 0
-5660 -16527 16553 0
-16528 16553 0
-5660 -16528 16554 0
-16529 16554 0
-5660 -16529 16555 0
-16530 16555 0
-5660 -16530 16556 0
-16531 16556 0
-5660 -16531 16557 0
-16532 16557 0
-5660 -16532 16558 0
-16533 16558 0
-5660 -16533 16559 0
-16534 16559 0
-5660 -16534 0
-5660 16560 0
-16535 16560 0
-5660 -16535 16561 0
-16536 16561 0
-5660 -16536 16562 0
-16537 16562 0
-5660 -16537 16563 0
-16538 16563 0
-5660 -16538 16564 0
-16539 16564 0
-5660 -16539 16565 0
-16540 16565 0
-5660 -16540 16566 0
-16541 16566 0
-5660 -16541 16567 0
-16542 16567 0
-5660 -16542 16568 0
-16543 16568 0
-5660 -16543 16569 0
-16544 16569 0
-5660 -16544 16570 0
-16545 16570 0
-5660 -16545 16571 0
-16546 16571 0
-5660 -16546 16572 0
-16547 16572 0
-5660 -16547 16573 0
-16548 16573 0
-5660 -16548 16574 0
-16549 16574 0
-5660 -16549 16575 0
-16550 16575 0
-5660 -16550 16576 0
-16551 16576 0
-5660 -16551 16577 0
-16552 16577 0
-5660 -16552 16578 0
-16553 16578 0
-5660 -16553 16579 0
-16554 16579 0
-5660 -16554 16580 0
-16555 16580 0
-5660 -16555 16581 0
-16556 16581 0
-5660 -16556 16582 0
-16557 16582 0
-5660 -16557 16583 0
-16558 16583 0
-5660 -16558 16584 0
-16559 16584 0
-5660 -16559 0
-5661 16585 0
-16560 16585 0
-5661 -16560 16586 0
-16561 16586 0
-5661 -16561 16587 0
-16562 16587 0
-5661 -16562 16588 0
-16563 16588 0
-5661 -16563 16589 0
-16564 16589 0
-5661 -16564 16590 0
-16565 16590 0
-5661 -16565 16591 0
-16566 16591 0
-5661 -16566 16592 0
-16567 16592 0
-5661 -16567 16593 0
-16568 16593 0
-5661 -16568 16594 0
-16569 16594 0
-5661 -16569 16595 0
-16570 16595 0
-5661 -16570 16596 0
-16571 16596 0
-5661 -16571 16597 0
-16572 16597 0
-5661 -16572 16598 0
-16573 16598 0
-5661 -16573 16599 0
-16574 16599 0
-5661 -16574 16600 0
-16575 16600 0
-5661 -16575 16601 0
-16576 16601 0
-5661 -16576 16602 0
-16577 16602 0
-5661 -16577 16603 0
-16578 16603 0
-5661 -16578 16604 0
-16579 16604 0
-5661 -16579 16605 0
-16580 16605 0
-5661 -16580 16606 0
-16581 16606 0
-5661 -16581 16607 0
-16582 16607 0
-5661 -16582 16608 0
-16583 16608 0
-5661 -16583 16609 0
-16584 16609 0
-5661 -16584 0
-5661 16610 0
-16585 16610 0
-5661 -16585 16611 0
-16586 16611 0
-5661 -16586 16612 0
-16587 16612 0
-5661 -16587 16613 0
-16588 16613 0
-5661 -16588 16614 0
-16589 16614 0
-5661 -16589 16615 0
-16590 16615 0
-5661 -16590 16616 0
-16591 16616 0
-5661 -16591 16617 0
-16592 16617 0
-5661 -16592 16618 0
-16593 16618 0
-5661 -16593 16619 0
-16594 16619 0
-5661 -16594 16620 0
-16595 16620 0
-5661 -16595 16621 0
-16596 16621 0
-5661 -16596 16622 0
-16597 16622 0
-5661 -16597 16623 0
-16598 16623 0
-5661 -16598 16624 0
-16599 16624 0
-5661 -16599 16625 0
-16600 16625 0
-5661 -16600 16626 0
-16601 16626 0
-5661 -16601 16627 0
-16602 16627 0
-5661 -16602 16628 0
-16603 16628 0
-5661 -16603 16629 0
-16604 16629 0
-5661 -16604 16630 0
-16605 16630 0
-5661 -16605 16631 0
-16606 16631 0
-5661 -16606 16632 0
-16607 16632 0
-5661 -16607 16633 0
-16608 16633 0
-5661 -16608 16634 0
-16609 16634 0
-5661 -16609 0
-5671 16635 0
-16610 16635 0
-5671 -16610 16636 0
-16611 16636 0
-5671 -16611 16637 0
-16612 16637 0
-5671 -16612 16638 0
-16613 16638 0
-5671 -16613 16639 0
-16614 16639 0
-5671 -16614 16640 0
-16615 16640 0
-5671 -16615 16641 0
-16616 16641 0
-5671 -16616 16642 0
-16617 16642 0
-5671 -16617 16643 0
-16618 16643 0
-5671 -16618 16644 0
-16619 16644 0
-5671 -16619 16645 0
-16620 16645 0
-5671 -16620 16646 0
-16621 16646 0
-5671 -16621 16647 0
-16622 16647 0
-5671 -16622 16648 0
-16623 16648 0
-5671 -16623 16649 0
-16624 16649 0
-5671 -16624 16650 0
-16625 16650 0
-5671 -16625 16651 0
-16626 16651 0
-5671 -16626 16652 0
-16627 16652 0
-5671 -16627 16653 0
-16628 16653 0
-5671 -16628 16654 0
-16629 16654 0
-5671 -16629 16655 0
-16630 16655 0
-5671 -16630 16656 0
-16631 16656 0
-5671 -16631 16657 0
-16632 16657 0
-5671 -16632 16658 0
-16633 16658 0
-5671 -16633 16659 0
-16634 16659 0
-5671 -16634 0
-5671 16660 0
-16635 16660 0
-5671 -16635 16661 0
-16636 16661 0
-5671 -16636 16662 0
-16637 16662 0
-5671 -16637 16663 0
-16638 16663 0
-5671 -16638 16664 0
-16639 16664 0
-5671 -16639 16665 0
-16640 16665 0
-5671 -16640 16666 0
-16641 16666 0
-5671 -16641 16667 0
-16642 16667 0
-5671 -16642 16668 0
-16643 16668 0
-5671 -16643 16669 0
-16644 16669 0
-5671 -16644 16670 0
-16645 16670 0
-5671 -16645 16671 0
-16646 16671 0
-5671 -16646 16672 0
-16647 16672 0
-5671 -16647 16673 0
-16648 16673 0
-5671 -16648 16674 0
-16649 16674 0
-5671 -16649 16675 0
-16650 16675 0
-5671 -16650 16676 0
-16651 16676 0
-5671 -16651 16677 0
-16652 16677 0
-5671 -16652 16678 0
-16653 16678 0
-5671 -16653 16679 0
-16654 16679 0
-5671 -16654 16680 0
-16655 16680 0
-5671 -16655 16681 0
-16656 16681 0
-5671 -16656 16682 0
-16657 16682 0
-5671 -16657 16683 0
-16658 16683 0
-5671 -16658 16684 0
-16659 16684 0
-5671 -16659 0
-5671 16685 0
-16660 16685 0
-5671 -16660 16686 0
-16661 16686 0
-5671 -16661 16687 0
-16662 16687 0
-5671 -16662 16688 0
-16663 16688 0
-5671 -16663 16689 0
-16664 16689 0
-5671 -16664 16690 0
-16665 16690 0
-5671 -16665 16691 0
-16666 16691 0
-5671 -16666 16692 0
-16667 16692 0
-5671 -16667 16693 0
-16668 16693 0
-5671 -16668 16694 0
-16669 16694 0
-5671 -16669 16695 0
-16670 16695 0
-5671 -16670 16696 0
-16671 16696 0
-5671 -16671 16697 0
-16672 16697 0
-5671 -16672 16698 0
-16673 16698 0
-5671 -16673 16699 0
-16674 16699 0
-5671 -16674 16700 0
-16675 16700 0
-5671 -16675 16701 0
-16676 16701 0
-5671 -16676 16702 0
-16677 16702 0
-5671 -16677 16703 0
-16678 16703 0
-5671 -16678 16704 0
-16679 16704 0
-5671 -16679 16705 0
-16680 16705 0
-5671 -16680 16706 0
-16681 16706 0
-5671 -16681 16707 0
-16682 16707 0
-5671 -16682 16708 0
-16683 16708 0
-5671 -16683 16709 0
-16684 16709 0
-5671 -16684 0
-5672 16710 0
-16685 16710 0
-5672 -16685 16711 0
-16686 16711 0
-5672 -16686 16712 0
-16687 16712 0
-5672 -16687 16713 0
-16688 16713 0
-5672 -16688 16714 0
-16689 16714 0
-5672 -16689 16715 0
-16690 16715 0
-5672 -16690 16716 0
-16691 16716 0
-5672 -16691 16717 0
-16692 16717 0
-5672 -16692 16718 0
-16693 16718 0
-5672 -16693 16719 0
-16694 16719 0
-5672 -16694 16720 0
-16695 16720 0
-5672 -16695 16721 0
-16696 16721 0
-5672 -16696 16722 0
-16697 16722 0
-5672 -16697 16723 0
-16698 16723 0
-5672 -16698 16724 0
-16699 16724 0
-5672 -16699 16725 0
-16700 16725 0
-5672 -16700 16726 0
-16701 16726 0
-5672 -16701 16727 0
-16702 16727 0
-5672 -16702 16728 0
-16703 16728 0
-5672 -16703 16729 0
-16704 16729 0
-5672 -16704 16730 0
-16705 16730 0
-5672 -16705 16731 0
-16706 16731 0
-5672 -16706 16732 0
-16707 16732 0
-5672 -16707 16733 0
-16708 16733 0
-5672 -16708 16734 0
-16709 16734 0
-5672 -16709 0
-5672 16735 0
-16710 16735 0
-5672 -16710 16736 0
-16711 16736 0
-5672 -16711 16737 0
-16712 16737 0
-5672 -16712 16738 0
-16713 16738 0
-5672 -16713 16739 0
-16714 16739 0
-5672 -16714 16740 0
-16715 16740 0
-5672 -16715 16741 0
-16716 16741 0
-5672 -16716 16742 0
-16717 16742 0
-5672 -16717 16743 0
-16718 16743 0
-5672 -16718 16744 0
-16719 16744 0
-5672 -16719 16745 0
-16720 16745 0
-5672 -16720 16746 0
-16721 16746 0
-5672 -16721 16747 0
-16722 16747 0
-5672 -16722 16748 0
-16723 16748 0
-5672 -16723 16749 0
-16724 16749 0
-5672 -16724 16750 0
-16725 16750 0
-5672 -16725 16751 0
-16726 16751 0
-5672 -16726 16752 0
-16727 16752 0
-5672 -16727 16753 0
-16728 16753 0
-5672 -16728 16754 0
-16729 16754 0
-5672 -16729 16755 0
-16730 16755 0
-5672 -16730 16756 0
-16731 16756 0
-5672 -16731 16757 0
-16732 16757 0
-5672 -16732 16758 0
-16733 16758 0
-5672 -16733 16759 0
-16734 16759 0
-5672 -16734 0
-5682 16760 0
-16735 16760 0
-5682 -16735 16761 0
-16736 16761 0
-5682 -16736 16762 0
-16737 16762 0
-5682 -16737 16763 0
-16738 16763 0
-5682 -16738 16764 0
-16739 16764 0
-5682 -16739 16765 0
-16740 16765 0
-5682 -16740 16766 0
-16741 16766 0
-5682 -16741 16767 0
-16742 16767 0
-5682 -16742 16768 0
-16743 16768 0
-5682 -16743 16769 0
-16744 16769 0
-5682 -16744 16770 0
-16745 16770 0
-5682 -16745 16771 0
-16746 16771 0
-5682 -16746 16772 0
-16747 16772 0
-5682 -16747 16773 0
-16748 16773 0
-5682 -16748 16774 0
-16749 16774 0
-5682 -16749 16775 0
-16750 16775 0
-5682 -16750 16776 0
-16751 16776 0
-5682 -16751 16777 0
-16752 16777 0
-5682 -16752 16778 0
-16753 16778 0
-5682 -16753 16779 0
-16754 16779 0
-5682 -16754 16780 0
-16755 16780 0
-5682 -16755 16781 0
-16756 16781 0
-5682 -16756 16782 0
-16757 16782 0
-5682 -16757 16783 0
-16758 16783 0
-5682 -16758 16784 0
-16759 16784 0
-5682 -16759 0
-5682 16785 0
-16760 16785 0
-5682 -16760 16786 0
-16761 16786 0
-5682 -16761 16787 0
-16762 16787 0
-5682 -16762 16788 0
-16763 16788 0
-5682 -16763 16789 0
-16764 16789 0
-5682 -16764 16790 0
-16765 16790 0
-5682 -16765 16791 0
-16766 16791 0
-5682 -16766 16792 0
-16767 16792 0
-5682 -16767 16793 0
-16768 16793 0
-5682 -16768 16794 0
-16769 16794 0
-5682 -16769 16795 0
-16770 16795 0
-5682 -16770 16796 0
-16771 16796 0
-5682 -16771 16797 0
-16772 16797 0
-5682 -16772 16798 0
-16773 16798 0
-5682 -16773 16799 0
-16774 16799 0
-5682 -16774 16800 0
-16775 16800 0
-5682 -16775 16801 0
-16776 16801 0
-5682 -16776 16802 0
-16777 16802 0
-5682 -16777 16803 0
-16778 16803 0
-5682 -16778 16804 0
-16779 16804 0
-5682 -16779 16805 0
-16780 16805 0
-5682 -16780 16806 0
-16781 16806 0
-5682 -16781 16807 0
-16782 16807 0
-5682 -16782 16808 0
-16783 16808 0
-5682 -16783 16809 0
-16784 16809 0
-5682 -16784 0
-5682 16810 0
-16785 16810 0
-5682 -16785 16811 0
-16786 16811 0
-5682 -16786 16812 0
-16787 16812 0
-5682 -16787 16813 0
-16788 16813 0
-5682 -16788 16814 0
-16789 16814 0
-5682 -16789 16815 0
-16790 16815 0
-5682 -16790 16816 0
-16791 16816 0
-5682 -16791 16817 0
-16792 16817 0
-5682 -16792 16818 0
-16793 16818 0
-5682 -16793 16819 0
-16794 16819 0
-5682 -16794 16820 0
-16795 16820 0
-5682 -16795 16821 0
-16796 16821 0
-5682 -16796 16822 0
-16797 16822 0
-5682 -16797 16823 0
-16798 16823 0
-5682 -16798 16824 0
-16799 16824 0
-5682 -16799 16825 0
-16800 16825 0
-5682 -16800 16826 0
-16801 16826 0
-5682 -16801 16827 0
-16802 16827 0
-5682 -16802 16828 0
-16803 16828 0
-5682 -16803 16829 0
-16804 16829 0
-5682 -16804 16830 0
-16805 16830 0
-5682 -16805 16831 0
-16806 16831 0
-5682 -16806 16832 0
-16807 16832 0
-5682 -16807 16833 0
-16808 16833 0
-5682 -16808 16834 0
-16809 16834 0
-5682 -16809 0
-5683 16835 0
-16810 16835 0
-5683 -16810 16836 0
-16811 16836 0
-5683 -16811 16837 0
-16812 16837 0
-5683 -16812 16838 0
-16813 16838 0
-5683 -16813 16839 0
-16814 16839 0
-5683 -16814 16840 0
-16815 16840 0
-5683 -16815 16841 0
-16816 16841 0
-5683 -16816 16842 0
-16817 16842 0
-5683 -16817 16843 0
-16818 16843 0
-5683 -16818 16844 0
-16819 16844 0
-5683 -16819 16845 0
-16820 16845 0
-5683 -16820 16846 0
-16821 16846 0
-5683 -16821 16847 0
-16822 16847 0
-5683 -16822 16848 0
-16823 16848 0
-5683 -16823 16849 0
-16824 16849 0
-5683 -16824 16850 0
-16825 16850 0
-5683 -16825 16851 0
-16826 16851 0
-5683 -16826 16852 0
-16827 16852 0
-5683 -16827 16853 0
-16828 16853 0
-5683 -16828 16854 0
-16829 16854 0
-5683 -16829 16855 0
-16830 16855 0
-5683 -16830 16856 0
-16831 16856 0
-5683 -16831 16857 0
-16832 16857 0
-5683 -16832 16858 0
-16833 16858 0
-5683 -16833 16859 0
-16834 16859 0
-5683 -16834 0
-5683 16860 0
-16835 16860 0
-5683 -16835 16861 0
-16836 16861 0
-5683 -16836 16862 0
-16837 16862 0
-5683 -16837 16863 0
-16838 16863 0
-5683 -16838 16864 0
-16839 16864 0
-5683 -16839 16865 0
-16840 16865 0
-5683 -16840 16866 0
-16841 16866 0
-5683 -16841 16867 0
-16842 16867 0
-5683 -16842 16868 0
-16843 16868 0
-5683 -16843 16869 0
-16844 16869 0
-5683 -16844 16870 0
-16845 16870 0
-5683 -16845 16871 0
-16846 16871 0
-5683 -16846 16872 0
-16847 16872 0
-5683 -16847 16873 0
-16848 16873 0
-5683 -16848 16874 0
-16849 16874 0
-5683 -16849 16875 0
-16850 16875 0
-5683 -16850 16876 0
-16851 16876 0
-5683 -16851 16877 0
-16852 16877 0
-5683 -16852 16878 0
-16853 16878 0
-5683 -16853 16879 0
-16854 16879 0
-5683 -16854 16880 0
-16855 16880 0
-5683 -16855 16881 0
-16856 16881 0
-5683 -16856 16882 0
-16857 16882 0
-5683 -16857 16883 0
-16858 16883 0
-5683 -16858 16884 0
-16859 16884 0
-5683 -16859 0
-5693 16885 0
-16860 16885 0
-5693 -16860 16886 0
-16861 16886 0
-5693 -16861 16887 0
-16862 16887 0
-5693 -16862 16888 0
-16863 16888 0
-5693 -16863 16889 0
-16864 16889 0
-5693 -16864 16890 0
-16865 16890 0
-5693 -16865 16891 0
-16866 16891 0
-5693 -16866 16892 0
-16867 16892 0
-5693 -16867 16893 0
-16868 16893 0
-5693 -16868 16894 0
-16869 16894 0
-5693 -16869 16895 0
-16870 16895 0
-5693 -16870 16896 0
-16871 16896 0
-5693 -16871 16897 0
-16872 16897 0
-5693 -16872 16898 0
-16873 16898 0
-5693 -16873 16899 0
-16874 16899 0
-5693 -16874 16900 0
-16875 16900 0
-5693 -16875 16901 0
-16876 16901 0
-5693 -16876 16902 0
-16877 16902 0
-5693 -16877 16903 0
-16878 16903 0
-5693 -16878 16904 0
-16879 16904 0
-5693 -16879 16905 0
-16880 16905 0
-5693 -16880 16906 0
-16881 16906 0
-5693 -16881 16907 0
-16882 16907 0
-5693 -16882 16908 0
-16883 16908 0
-5693 -16883 16909 0
-16884 16909 0
-5693 -16884 0
-5693 16910 0
-16885 16910 0
-5693 -16885 16911 0
-16886 16911 0
-5693 -16886 16912 0
-16887 16912 0
-5693 -16887 16913 0
-16888 16913 0
-5693 -16888 16914 0
-16889 16914 0
-5693 -16889 16915 0
-16890 16915 0
-5693 -16890 16916 0
-16891 16916 0
-5693 -16891 16917 0
-16892 16917 0
-5693 -16892 16918 0
-16893 16918 0
-5693 -16893 16919 0
-16894 16919 0
-5693 -16894 16920 0
-16895 16920 0
-5693 -16895 16921 0
-16896 16921 0
-5693 -16896 16922 0
-16897 16922 0
-5693 -16897 16923 0
-16898 16923 0
-5693 -16898 16924 0
-16899 16924 0
-5693 -16899 16925 0
-16900 16925 0
-5693 -16900 16926 0
-16901 16926 0
-5693 -16901 16927 0
-16902 16927 0
-5693 -16902 16928 0
-16903 16928 0
-5693 -16903 16929 0
-16904 16929 0
-5693 -16904 16930 0
-16905 16930 0
-5693 -16905 16931 0
-16906 16931 0
-5693 -16906 16932 0
-16907 16932 0
-5693 -16907 16933 0
-16908 16933 0
-5693 -16908 16934 0
-16909 16934 0
-5693 -16909 0
-5693 16935 0
-16910 16935 0
-5693 -16910 16936 0
-16911 16936 0
-5693 -16911 16937 0
-16912 16937 0
-5693 -16912 16938 0
-16913 16938 0
-5693 -16913 16939 0
-16914 16939 0
-5693 -16914 16940 0
-16915 16940 0
-5693 -16915 16941 0
-16916 16941 0
-5693 -16916 16942 0
-16917 16942 0
-5693 -16917 16943 0
-16918 16943 0
-5693 -16918 16944 0
-16919 16944 0
-5693 -16919 16945 0
-16920 16945 0
-5693 -16920 16946 0
-16921 16946 0
-5693 -16921 16947 0
-16922 16947 0
-5693 -16922 16948 0
-16923 16948 0
-5693 -16923 16949 0
-16924 16949 0
-5693 -16924 16950 0
-16925 16950 0
-5693 -16925 16951 0
-16926 16951 0
-5693 -16926 16952 0
-16927 16952 0
-5693 -16927 16953 0
-16928 16953 0
-5693 -16928 16954 0
-16929 16954 0
-5693 -16929 16955 0
-16930 16955 0
-5693 -16930 16956 0
-16931 16956 0
-5693 -16931 16957 0
-16932 16957 0
-5693 -16932 16958 0
-16933 16958 0
-5693 -16933 16959 0
-16934 16959 0
-5693 -16934 0
-5694 16960 0
-16935 16960 0
-5694 -16935 16961 0
-16936 16961 0
-5694 -16936 16962 0
-16937 16962 0
-5694 -16937 16963 0
-16938 16963 0
-5694 -16938 16964 0
-16939 16964 0
-5694 -16939 16965 0
-16940 16965 0
-5694 -16940 16966 0
-16941 16966 0
-5694 -16941 16967 0
-16942 16967 0
-5694 -16942 16968 0
-16943 16968 0
-5694 -16943 16969 0
-16944 16969 0
-5694 -16944 16970 0
-16945 16970 0
-5694 -16945 16971 0
-16946 16971 0
-5694 -16946 16972 0
-16947 16972 0
-5694 -16947 16973 0
-16948 16973 0
-5694 -16948 16974 0
-16949 16974 0
-5694 -16949 16975 0
-16950 16975 0
-5694 -16950 16976 0
-16951 16976 0
-5694 -16951 16977 0
-16952 16977 0
-5694 -16952 16978 0
-16953 16978 0
-5694 -16953 16979 0
-16954 16979 0
-5694 -16954 16980 0
-16955 16980 0
-5694 -16955 16981 0
-16956 16981 0
-5694 -16956 16982 0
-16957 16982 0
-5694 -16957 16983 0
-16958 16983 0
-5694 -16958 16984 0
-16959 16984 0
-5694 -16959 0
-5694 16985 0
-16960 16985 0
-5694 -16960 16986 0
-16961 16986 0
-5694 -16961 16987 0
-16962 16987 0
-5694 -16962 16988 0
-16963 16988 0
-5694 -16963 16989 0
-16964 16989 0
-5694 -16964 16990 0
-16965 16990 0
-5694 -16965 16991 0
-16966 16991 0
-5694 -16966 16992 0
-16967 16992 0
-5694 -16967 16993 0
-16968 16993 0
-5694 -16968 16994 0
-16969 16994 0
-5694 -16969 16995 0
-16970 16995 0
-5694 -16970 16996 0
-16971 16996 0
-5694 -16971 16997 0
-16972 16997 0
-5694 -16972 16998 0
-16973 16998 0
-5694 -16973 16999 0
-16974 16999 0
-5694 -16974 17000 0
-16975 17000 0
-5694 -16975 17001 0
-16976 17001 0
-5694 -16976 17002 0
-16977 17002 0
-5694 -16977 17003 0
-16978 17003 0
-5694 -16978 17004 0
-16979 17004 0
-5694 -16979 17005 0
-16980 17005 0
-5694 -16980 17006 0
-16981 17006 0
-5694 -16981 17007 0
-16982 17007 0
-5694 -16982 17008 0
-16983 17008 0
-5694 -16983 17009 0
-16984 17009 0
-5694 -16984 0
-5704 17010 0
-16985 17010 0
-5704 -16985 17011 0
-16986 17011 0
-5704 -16986 17012 0
-16987 17012 0
-5704 -16987 17013 0
-16988 17013 0
-5704 -16988 17014 0
-16989 17014 0
-5704 -16989 17015 0
-16990 17015 0
-5704 -16990 17016 0
-16991 17016 0
-5704 -16991 17017 0
-16992 17017 0
-5704 -16992 17018 0
-16993 17018 0
-5704 -16993 17019 0
-16994 17019 0
-5704 -16994 17020 0
-16995 17020 0
-5704 -16995 17021 0
-16996 17021 0
-5704 -16996 17022 0
-16997 17022 0
-5704 -16997 17023 0
-16998 17023 0
-5704 -16998 17024 0
-16999 17024 0
-5704 -16999 17025 0
-17000 17025 0
-5704 -17000 17026 0
-17001 17026 0
-5704 -17001 17027 0
-17002 17027 0
-5704 -17002 17028 0
-17003 17028 0
-5704 -17003 17029 0
-17004 17029 0
-5704 -17004 17030 0
-17005 17030 0
-5704 -17005 17031 0
-17006 17031 0
-5704 -17006 17032 0
-17007 17032 0
-5704 -17007 17033 0
-17008 17033 0
-5704 -17008 17034 0
-17009 17034 0
-5704 -17009 0
-5704 17035 0
-17010 17035 0
-5704 -17010 17036 0
-17011 17036 0
-5704 -17011 17037 0
-17012 17037 0
-5704 -17012 17038 0
-17013 17038 0
-5704 -17013 17039 0
-17014 17039 0
-5704 -17014 17040 0
-17015 17040 0
-5704 -17015 17041 0
-17016 17041 0
-5704 -17016 17042 0
-17017 17042 0
-5704 -17017 17043 0
-17018 17043 0
-5704 -17018 17044 0
-17019 17044 0
-5704 -17019 17045 0
-17020 17045 0
-5704 -17020 17046 0
-17021 17046 0
-5704 -17021 17047 0
-17022 17047 0
-5704 -17022 17048 0
-17023 17048 0
-5704 -17023 17049 0
-17024 17049 0
-5704 -17024 17050 0
-17025 17050 0
-5704 -17025 17051 0
-17026 17051 0
-5704 -17026 17052 0
-17027 17052 0
-5704 -17027 17053 0
-17028 17053 0
-5704 -17028 17054 0
-17029 17054 0
-5704 -17029 17055 0
-17030 17055 0
-5704 -17030 17056 0
-17031 17056 0
-5704 -17031 17057 0
-17032 17057 0
-5704 -17032 17058 0
-17033 17058 0
-5704 -17033 17059 0
-17034 17059 0
-5704 -17034 0
-5704 17060 0
-17035 17060 0
-5704 -17035 17061 0
-17036 17061 0
-5704 -17036 17062 0
-17037 17062 0
-5704 -17037 17063 0
-17038 17063 0
-5704 -17038 17064 0
-17039 17064 0
-5704 -17039 17065 0
-17040 17065 0
-5704 -17040 17066 0
-17041 17066 0
-5704 -17041 17067 0
-17042 17067 0
-5704 -17042 17068 0
-17043 17068 0
-5704 -17043 17069 0
-17044 17069 0
-5704 -17044 17070 0
-17045 17070 0
-5704 -17045 17071 0
-17046 17071 0
-5704 -17046 17072 0
-17047 17072 0
-5704 -17047 17073 0
-17048 17073 0
-5704 -17048 17074 0
-17049 17074 0
-5704 -17049 17075 0
-17050 17075 0
-5704 -17050 17076 0
-17051 17076 0
-5704 -17051 17077 0
-17052 17077 0
-5704 -17052 17078 0
-17053 17078 0
-5704 -17053 17079 0
-17054 17079 0
-5704 -17054 17080 0
-17055 17080 0
-5704 -17055 17081 0
-17056 17081 0
-5704 -17056 17082 0
-17057 17082 0
-5704 -17057 17083 0
-17058 17083 0
-5704 -17058 17084 0
-17059 17084 0
-5704 -17059 0
-5705 17085 0
-17060 17085 0
-5705 -17060 17086 0
-17061 17086 0
-5705 -17061 17087 0
-17062 17087 0
-5705 -17062 17088 0
-17063 17088 0
-5705 -17063 17089 0
-17064 17089 0
-5705 -17064 17090 0
-17065 17090 0
-5705 -17065 17091 0
-17066 17091 0
-5705 -17066 17092 0
-17067 17092 0
-5705 -17067 17093 0
-17068 17093 0
-5705 -17068 17094 0
-17069 17094 0
-5705 -17069 17095 0
-17070 17095 0
-5705 -17070 17096 0
-17071 17096 0
-5705 -17071 17097 0
-17072 17097 0
-5705 -17072 17098 0
-17073 17098 0
-5705 -17073 17099 0
-17074 17099 0
-5705 -17074 17100 0
-17075 17100 0
-5705 -17075 17101 0
-17076 17101 0
-5705 -17076 17102 0
-17077 17102 0
-5705 -17077 17103 0
-17078 17103 0
-5705 -17078 17104 0
-17079 17104 0
-5705 -17079 17105 0
-17080 17105 0
-5705 -17080 17106 0
-17081 17106 0
-5705 -17081 17107 0
-17082 17107 0
-5705 -17082 17108 0
-17083 17108 0
-5705 -17083 17109 0
-17084 17109 0
-5705 -17084 0
-5705 17110 0
-17085 17110 0
-5705 -17085 17111 0
-17086 17111 0
-5705 -17086 17112 0
-17087 17112 0
-5705 -17087 17113 0
-17088 17113 0
-5705 -17088 17114 0
-17089 17114 0
-5705 -17089 17115 0
-17090 17115 0
-5705 -17090 17116 0
-17091 17116 0
-5705 -17091 17117 0
-17092 17117 0
-5705 -17092 17118 0
-17093 17118 0
-5705 -17093 17119 0
-17094 17119 0
-5705 -17094 17120 0
-17095 17120 0
-5705 -17095 17121 0
-17096 17121 0
-5705 -17096 17122 0
-17097 17122 0
-5705 -17097 17123 0
-17098 17123 0
-5705 -17098 17124 0
-17099 17124 0
-5705 -17099 17125 0
-17100 17125 0
-5705 -17100 17126 0
-17101 17126 0
-5705 -17101 17127 0
-17102 17127 0
-5705 -17102 17128 0
-17103 17128 0
-5705 -17103 17129 0
-17104 17129 0
-5705 -17104 17130 0
-17105 17130 0
-5705 -17105 17131 0
-17106 17131 0
-5705 -17106 17132 0
-17107 17132 0
-5705 -17107 17133 0
-17108 17133 0
-5705 -17108 17134 0
-17109 17134 0
-5705 -17109 0
-5715 17135 0
-17110 17135 0
-5715 -17110 17136 0
-17111 17136 0
-5715 -17111 17137 0
-17112 17137 0
-5715 -17112 17138 0
-17113 17138 0
-5715 -17113 17139 0
-17114 17139 0
-5715 -17114 17140 0
-17115 17140 0
-5715 -17115 17141 0
-17116 17141 0
-5715 -17116 17142 0
-17117 17142 0
-5715 -17117 17143 0
-17118 17143 0
-5715 -17118 17144 0
-17119 17144 0
-5715 -17119 17145 0
-17120 17145 0
-5715 -17120 17146 0
-17121 17146 0
-5715 -17121 17147 0
-17122 17147 0
-5715 -17122 17148 0
-17123 17148 0
-5715 -17123 17149 0
-17124 17149 0
-5715 -17124 17150 0
-17125 17150 0
-5715 -17125 17151 0
-17126 17151 0
-5715 -17126 17152 0
-17127 17152 0
-5715 -17127 17153 0
-17128 17153 0
-5715 -17128 17154 0
-17129 17154 0
-5715 -17129 17155 0
-17130 17155 0
-5715 -17130 17156 0
-17131 17156 0
-5715 -17131 17157 0
-17132 17157 0
-5715 -17132 17158 0
-17133 17158 0
-5715 -17133 17159 0
-17134 17159 0
-5715 -17134 0
-5715 17160 0
-17135 17160 0
-5715 -17135 17161 0
-17136 17161 0
-5715 -17136 17162 0
-17137 17162 0
-5715 -17137 17163 0
-17138 17163 0
-5715 -17138 17164 0
-17139 17164 0
-5715 -17139 17165 0
-17140 17165 0
-5715 -17140 17166 0
-17141 17166 0
-5715 -17141 17167 0
-17142 17167 0
-5715 -17142 17168 0
-17143 17168 0
-5715 -17143 17169 0
-17144 17169 0
-5715 -17144 17170 0
-17145 17170 0
-5715 -17145 17171 0
-17146 17171 0
-5715 -17146 17172 0
-17147 17172 0
-5715 -17147 17173 0
-17148 17173 0
-5715 -17148 17174 0
-17149 17174 0
-5715 -17149 17175 0
-17150 17175 0
-5715 -17150 17176 0
-17151 17176 0
-5715 -17151 17177 0
-17152 17177 0
-5715 -17152 17178 0
-17153 17178 0
-5715 -17153 17179 0
-17154 17179 0
-5715 -17154 17180 0
-17155 17180 0
-5715 -17155 17181 0
-17156 17181 0
-5715 -17156 17182 0
-17157 17182 0
-5715 -17157 17183 0
-17158 17183 0
-5715 -17158 17184 0
-17159 17184 0
-5715 -17159 0
-5715 17185 0
-17160 17185 0
-5715 -17160 17186 0
-17161 17186 0
-5715 -17161 17187 0
-17162 17187 0
-5715 -17162 17188 0
-17163 17188 0
-5715 -17163 17189 0
-17164 17189 0
-5715 -17164 17190 0
-17165 17190 0
-5715 -17165 17191 0
-17166 17191 0
-5715 -17166 17192 0
-17167 17192 0
-5715 -17167 17193 0
-17168 17193 0
-5715 -17168 17194 0
-17169 17194 0
-5715 -17169 17195 0
-17170 17195 0
-5715 -17170 17196 0
-17171 17196 0
-5715 -17171 17197 0
-17172 17197 0
-5715 -17172 17198 0
-17173 17198 0
-5715 -17173 17199 0
-17174 17199 0
-5715 -17174 17200 0
-17175 17200 0
-5715 -17175 17201 0
-17176 17201 0
-5715 -17176 17202 0
-17177 17202 0
-5715 -17177 17203 0
-17178 17203 0
-5715 -17178 17204 0
-17179 17204 0
-5715 -17179 17205 0
-17180 17205 0
-5715 -17180 17206 0
-17181 17206 0
-5715 -17181 17207 0
-17182 17207 0
-5715 -17182 17208 0
-17183 17208 0
-5715 -17183 17209 0
-17184 17209 0
-5715 -17184 0
-5716 17210 0
-17185 17210 0
-5716 -17185 17211 0
-17186 17211 0
-5716 -17186 17212 0
-17187 17212 0
-5716 -17187 17213 0
-17188 17213 0
-5716 -17188 17214 0
-17189 17214 0
-5716 -17189 17215 0
-17190 17215 0
-5716 -17190 17216 0
-17191 17216 0
-5716 -17191 17217 0
-17192 17217 0
-5716 -17192 17218 0
-17193 17218 0
-5716 -17193 17219 0
-17194 17219 0
-5716 -17194 17220 0
-17195 17220 0
-5716 -17195 17221 0
-17196 17221 0
-5716 -17196 17222 0
-17197 17222 0
-5716 -17197 17223 0
-17198 17223 0
-5716 -17198 17224 0
-17199 17224 0
-5716 -17199 17225 0
-17200 17225 0
-5716 -17200 17226 0
-17201 17226 0
-5716 -17201 17227 0
-17202 17227 0
-5716 -17202 17228 0
-17203 17228 0
-5716 -17203 17229 0
-17204 17229 0
-5716 -17204 17230 0
-17205 17230 0
-5716 -17205 17231 0
-17206 17231 0
-5716 -17206 17232 0
-17207 17232 0
-5716 -17207 17233 0
-17208 17233 0
-5716 -17208 17234 0
-17209 17234 0
-5716 -17209 0
-5716 17235 0
-17210 17235 0
-5716 -17210 17236 0
-17211 17236 0
-5716 -17211 17237 0
-17212 17237 0
-5716 -17212 17238 0
-17213 17238 0
-5716 -17213 17239 0
-17214 17239 0
-5716 -17214 17240 0
-17215 17240 0
-5716 -17215 17241 0
-17216 17241 0
-5716 -17216 17242 0
-17217 17242 0
-5716 -17217 17243 0
-17218 17243 0
-5716 -17218 17244 0
-17219 17244 0
-5716 -17219 17245 0
-17220 17245 0
-5716 -17220 17246 0
-17221 17246 0
-5716 -17221 17247 0
-17222 17247 0
-5716 -17222 17248 0
-17223 17248 0
-5716 -17223 17249 0
-17224 17249 0
-5716 -17224 17250 0
-17225 17250 0
-5716 -17225 17251 0
-17226 17251 0
-5716 -17226 17252 0
-17227 17252 0
-5716 -17227 17253 0
-17228 17253 0
-5716 -17228 17254 0
-17229 17254 0
-5716 -17229 17255 0
-17230 17255 0
-5716 -17230 17256 0
-17231 17256 0
-5716 -17231 17257 0
-17232 17257 0
-5716 -17232 17258 0
-17233 17258 0
-5716 -17233 17259 0
-17234 17259 0
-5716 -17234 0
-5726 17260 0
-17235 17260 0
-5726 -17235 17261 0
-17236 17261 0
-5726 -17236 17262 0
-17237 17262 0
-5726 -17237 17263 0
-17238 17263 0
-5726 -17238 17264 0
-17239 17264 0
-5726 -17239 17265 0
-17240 17265 0
-5726 -17240 17266 0
-17241 17266 0
-5726 -17241 17267 0
-17242 17267 0
-5726 -17242 17268 0
-17243 17268 0
-5726 -17243 17269 0
-17244 17269 0
-5726 -17244 17270 0
-17245 17270 0
-5726 -17245 17271 0
-17246 17271 0
-5726 -17246 17272 0
-17247 17272 0
-5726 -17247 17273 0
-17248 17273 0
-5726 -17248 17274 0
-17249 17274 0
-5726 -17249 17275 0
-17250 17275 0
-5726 -17250 17276 0
-17251 17276 0
-5726 -17251 17277 0
-17252 17277 0
-5726 -17252 17278 0
-17253 17278 0
-5726 -17253 17279 0
-17254 17279 0
-5726 -17254 17280 0
-17255 17280 0
-5726 -17255 17281 0
-17256 17281 0
-5726 -17256 17282 0
-17257 17282 0
-5726 -17257 17283 0
-17258 17283 0
-5726 -17258 17284 0
-17259 17284 0
-5726 -17259 0
-5726 17285 0
-17260 17285 0
-5726 -17260 17286 0
-17261 17286 0
-5726 -17261 17287 0
-17262 17287 0
-5726 -17262 17288 0
-17263 17288 0
-5726 -17263 17289 0
-17264 17289 0
-5726 -17264 17290 0
-17265 17290 0
-5726 -17265 17291 0
-17266 17291 0
-5726 -17266 17292 0
-17267 17292 0
-5726 -17267 17293 0
-17268 17293 0
-5726 -17268 17294 0
-17269 17294 0
-5726 -17269 17295 0
-17270 17295 0
-5726 -17270 17296 0
-17271 17296 0
-5726 -17271 17297 0
-17272 17297 0
-5726 -17272 17298 0
-17273 17298 0
-5726 -17273 17299 0
-17274 17299 0
-5726 -17274 17300 0
-17275 17300 0
-5726 -17275 17301 0
-17276 17301 0
-5726 -17276 17302 0
-17277 17302 0
-5726 -17277 17303 0
-17278 17303 0
-5726 -17278 17304 0
-17279 17304 0
-5726 -17279 17305 0
-17280 17305 0
-5726 -17280 17306 0
-17281 17306 0
-5726 -17281 17307 0
-17282 17307 0
-5726 -17282 17308 0
-17283 17308 0
-5726 -17283 17309 0
-17284 17309 0
-5726 -17284 0
-5726 17310 0
-17285 17310 0
-5726 -17285 17311 0
-17286 17311 0
-5726 -17286 17312 0
-17287 17312 0
-5726 -17287 17313 0
-17288 17313 0
-5726 -17288 17314 0
-17289 17314 0
-5726 -17289 17315 0
-17290 17315 0
-5726 -17290 17316 0
-17291 17316 0
-5726 -17291 17317 0
-17292 17317 0
-5726 -17292 17318 0
-17293 17318 0
-5726 -17293 17319 0
-17294 17319 0
-5726 -17294 17320 0
-17295 17320 0
-5726 -17295 17321 0
-17296 17321 0
-5726 -17296 17322 0
-17297 17322 0
-5726 -17297 17323 0
-17298 17323 0
-5726 -17298 17324 0
-17299 17324 0
-5726 -17299 17325 0
-17300 17325 0
-5726 -17300 17326 0
-17301 17326 0
-5726 -17301 17327 0
-17302 17327 0
-5726 -17302 17328 0
-17303 17328 0
-5726 -17303 17329 0
-17304 17329 0
-5726 -17304 17330 0
-17305 17330 0
-5726 -17305 17331 0
-17306 17331 0
-5726 -17306 17332 0
-17307 17332 0
-5726 -17307 17333 0
-17308 17333 0
-5726 -17308 17334 0
-17309 17334 0
-5726 -17309 0
-5727 17335 0
-17310 17335 0
-5727 -17310 17336 0
-17311 17336 0
-5727 -17311 17337 0
-17312 17337 0
-5727 -17312 17338 0
-17313 17338 0
-5727 -17313 17339 0
-17314 17339 0
-5727 -17314 17340 0
-17315 17340 0
-5727 -17315 17341 0
-17316 17341 0
-5727 -17316 17342 0
-17317 17342 0
-5727 -17317 17343 0
-17318 17343 0
-5727 -17318 17344 0
-17319 17344 0
-5727 -17319 17345 0
-17320 17345 0
-5727 -17320 17346 0
-17321 17346 0
-5727 -17321 17347 0
-17322 17347 0
-5727 -17322 17348 0
-17323 17348 0
-5727 -17323 17349 0
-17324 17349 0
-5727 -17324 17350 0
-17325 17350 0
-5727 -17325 17351 0
-17326 17351 0
-5727 -17326 17352 0
-17327 17352 0
-5727 -17327 17353 0
-17328 17353 0
-5727 -17328 17354 0
-17329 17354 0
-5727 -17329 17355 0
-17330 17355 0
-5727 -17330 17356 0
-17331 17356 0
-5727 -17331 17357 0
-17332 17357 0
-5727 -17332 17358 0
-17333 17358 0
-5727 -17333 17359 0
-17334 17359 0
-5727 -17334 0
-5727 17360 0
-17335 17360 0
-5727 -17335 17361 0
-17336 17361 0
-5727 -17336 17362 0
-17337 17362 0
-5727 -17337 17363 0
-17338 17363 0
-5727 -17338 17364 0
-17339 17364 0
-5727 -17339 17365 0
-17340 17365 0
-5727 -17340 17366 0
-17341 17366 0
-5727 -17341 17367 0
-17342 17367 0
-5727 -17342 17368 0
-17343 17368 0
-5727 -17343 17369 0
-17344 17369 0
-5727 -17344 17370 0
-17345 17370 0
-5727 -17345 17371 0
-17346 17371 0
-5727 -17346 17372 0
-17347 17372 0
-5727 -17347 17373 0
-17348 17373 0
-5727 -17348 17374 0
-17349 17374 0
-5727 -17349 17375 0
-17350 17375 0
-5727 -17350 17376 0
-17351 17376 0
-5727 -17351 17377 0
-17352 17377 0
-5727 -17352 17378 0
-17353 17378 0
-5727 -17353 17379 0
-17354 17379 0
-5727 -17354 17380 0
-17355 17380 0
-5727 -17355 17381 0
-17356 17381 0
-5727 -17356 17382 0
-17357 17382 0
-5727 -17357 17383 0
-17358 17383 0
-5727 -17358 17384 0
-17359 17384 0
-5727 -17359 0
-5737 17385 0
-17360 17385 0
-5737 -17360 17386 0
-17361 17386 0
-5737 -17361 17387 0
-17362 17387 0
-5737 -17362 17388 0
-17363 17388 0
-5737 -17363 17389 0
-17364 17389 0
-5737 -17364 17390 0
-17365 17390 0
-5737 -17365 17391 0
-17366 17391 0
-5737 -17366 17392 0
-17367 17392 0
-5737 -17367 17393 0
-17368 17393 0
-5737 -17368 17394 0
-17369 17394 0
-5737 -17369 17395 0
-17370 17395 0
-5737 -17370 17396 0
-17371 17396 0
-5737 -17371 17397 0
-17372 17397 0
-5737 -17372 17398 0
-17373 17398 0
-5737 -17373 17399 0
-17374 17399 0
-5737 -17374 17400 0
-17375 17400 0
-5737 -17375 17401 0
-17376 17401 0
-5737 -17376 17402 0
-17377 17402 0
-5737 -17377 17403 0
-17378 17403 0
-5737 -17378 17404 0
-17379 17404 0
-5737 -17379 17405 0
-17380 17405 0
-5737 -17380 17406 0
-17381 17406 0
-5737 -17381 17407 0
-17382 17407 0
-5737 -17382 17408 0
-17383 17408 0
-5737 -17383 17409 0
-17384 17409 0
-5737 -17384 0
-5737 17410 0
-17385 17410 0
-5737 -17385 17411 0
-17386 17411 0
-5737 -17386 17412 0
-17387 17412 0
-5737 -17387 17413 0
-17388 17413 0
-5737 -17388 17414 0
-17389 17414 0
-5737 -17389 17415 0
-17390 17415 0
-5737 -17390 17416 0
-17391 17416 0
-5737 -17391 17417 0
-17392 17417 0
-5737 -17392 17418 0
-17393 17418 0
-5737 -17393 17419 0
-17394 17419 0
-5737 -17394 17420 0
-17395 17420 0
-5737 -17395 17421 0
-17396 17421 0
-5737 -17396 17422 0
-17397 17422 0
-5737 -17397 17423 0
-17398 17423 0
-5737 -17398 17424 0
-17399 17424 0
-5737 -17399 17425 0
-17400 17425 0
-5737 -17400 17426 0
-17401 17426 0
-5737 -17401 17427 0
-17402 17427 0
-5737 -17402 17428 0
-17403 17428 0
-5737 -17403 17429 0
-17404 17429 0
-5737 -17404 17430 0
-17405 17430 0
-5737 -17405 17431 0
-17406 17431 0
-5737 -17406 17432 0
-17407 17432 0
-5737 -17407 17433 0
-17408 17433 0
-5737 -17408 17434 0
-17409 17434 0
-5737 -17409 0
-5737 17435 0
-17410 17435 0
-5737 -17410 17436 0
-17411 17436 0
-5737 -17411 17437 0
-17412 17437 0
-5737 -17412 17438 0
-17413 17438 0
-5737 -17413 17439 0
-17414 17439 0
-5737 -17414 17440 0
-17415 17440 0
-5737 -17415 17441 0
-17416 17441 0
-5737 -17416 17442 0
-17417 17442 0
-5737 -17417 17443 0
-17418 17443 0
-5737 -17418 17444 0
-17419 17444 0
-5737 -17419 17445 0
-17420 17445 0
-5737 -17420 17446 0
-17421 17446 0
-5737 -17421 17447 0
-17422 17447 0
-5737 -17422 17448 0
-17423 17448 0
-5737 -17423 17449 0
-17424 17449 0
-5737 -17424 17450 0
-17425 17450 0
-5737 -17425 17451 0
-17426 17451 0
-5737 -17426 17452 0
-17427 17452 0
-5737 -17427 17453 0
-17428 17453 0
-5737 -17428 17454 0
-17429 17454 0
-5737 -17429 17455 0
-17430 17455 0
-5737 -17430 17456 0
-17431 17456 0
-5737 -17431 17457 0
-17432 17457 0
-5737 -17432 17458 0
-17433 17458 0
-5737 -17433 17459 0
-17434 17459 0
-5737 -17434 0
-5738 17460 0
-17435 17460 0
-5738 -17435 17461 0
-17436 17461 0
-5738 -17436 17462 0
-17437 17462 0
-5738 -17437 17463 0
-17438 17463 0
-5738 -17438 17464 0
-17439 17464 0
-5738 -17439 17465 0
-17440 17465 0
-5738 -17440 17466 0
-17441 17466 0
-5738 -17441 17467 0
-17442 17467 0
-5738 -17442 17468 0
-17443 17468 0
-5738 -17443 17469 0
-17444 17469 0
-5738 -17444 17470 0
-17445 17470 0
-5738 -17445 17471 0
-17446 17471 0
-5738 -17446 17472 0
-17447 17472 0
-5738 -17447 17473 0
-17448 17473 0
-5738 -17448 17474 0
-17449 17474 0
-5738 -17449 17475 0
-17450 17475 0
-5738 -17450 17476 0
-17451 17476 0
-5738 -17451 17477 0
-17452 17477 0
-5738 -17452 17478 0
-17453 17478 0
-5738 -17453 17479 0
-17454 17479 0
-5738 -17454 17480 0
-17455 17480 0
-5738 -17455 17481 0
-17456 17481 0
-5738 -17456 17482 0
-17457 17482 0
-5738 -17457 17483 0
-17458 17483 0
-5738 -17458 17484 0
-17459 17484 0
-5738 -17459 0
-5738 17485 0
-17460 17485 0
-5738 -17460 17486 0
-17461 17486 0
-5738 -17461 17487 0
-17462 17487 0
-5738 -17462 17488 0
-17463 17488 0
-5738 -17463 17489 0
-17464 17489 0
-5738 -17464 17490 0
-17465 17490 0
-5738 -17465 17491 0
-17466 17491 0
-5738 -17466 17492 0
-17467 17492 0
-5738 -17467 17493 0
-17468 17493 0
-5738 -17468 17494 0
-17469 17494 0
-5738 -17469 17495 0
-17470 17495 0
-5738 -17470 17496 0
-17471 17496 0
-5738 -17471 17497 0
-17472 17497 0
-5738 -17472 17498 0
-17473 17498 0
-5738 -17473 17499 0
-17474 17499 0
-5738 -17474 17500 0
-17475 17500 0
-5738 -17475 17501 0
-17476 17501 0
-5738 -17476 17502 0
-17477 17502 0
-5738 -17477 17503 0
-17478 17503 0
-5738 -17478 17504 0
-17479 17504 0
-5738 -17479 17505 0
-17480 17505 0
-5738 -17480 17506 0
-17481 17506 0
-5738 -17481 17507 0
-17482 17507 0
-5738 -17482 17508 0
-17483 17508 0
-5738 -17483 17509 0
-17484 17509 0
-5738 -17484 0
-5748 17510 0
-17485 17510 0
-5748 -17485 17511 0
-17486 17511 0
-5748 -17486 17512 0
-17487 17512 0
-5748 -17487 17513 0
-17488 17513 0
-5748 -17488 17514 0
-17489 17514 0
-5748 -17489 17515 0
-17490 17515 0
-5748 -17490 17516 0
-17491 17516 0
-5748 -17491 17517 0
-17492 17517 0
-5748 -17492 17518 0
-17493 17518 0
-5748 -17493 17519 0
-17494 17519 0
-5748 -17494 17520 0
-17495 17520 0
-5748 -17495 17521 0
-17496 17521 0
-5748 -17496 17522 0
-17497 17522 0
-5748 -17497 17523 0
-17498 17523 0
-5748 -17498 17524 0
-17499 17524 0
-5748 -17499 17525 0
-17500 17525 0
-5748 -17500 17526 0
-17501 17526 0
-5748 -17501 17527 0
-17502 17527 0
-5748 -17502 17528 0
-17503 17528 0
-5748 -17503 17529 0
-17504 17529 0
-5748 -17504 17530 0
-17505 17530 0
-5748 -17505 17531 0
-17506 17531 0
-5748 -17506 17532 0
-17507 17532 0
-5748 -17507 17533 0
-17508 17533 0
-5748 -17508 17534 0
-17509 17534 0
-5748 -17509 0
-5748 17535 0
-17510 17535 0
-5748 -17510 17536 0
-17511 17536 0
-5748 -17511 17537 0
-17512 17537 0
-5748 -17512 17538 0
-17513 17538 0
-5748 -17513 17539 0
-17514 17539 0
-5748 -17514 17540 0
-17515 17540 0
-5748 -17515 17541 0
-17516 17541 0
-5748 -17516 17542 0
-17517 17542 0
-5748 -17517 17543 0
-17518 17543 0
-5748 -17518 17544 0
-17519 17544 0
-5748 -17519 17545 0
-17520 17545 0
-5748 -17520 17546 0
-17521 17546 0
-5748 -17521 17547 0
-17522 17547 0
-5748 -17522 17548 0
-17523 17548 0
-5748 -17523 17549 0
-17524 17549 0
-5748 -17524 17550 0
-17525 17550 0
-5748 -17525 17551 0
-17526 17551 0
-5748 -17526 17552 0
-17527 17552 0
-5748 -17527 17553 0
-17528 17553 0
-5748 -17528 17554 0
-17529 17554 0
-5748 -17529 17555 0
-17530 17555 0
-5748 -17530 17556 0
-17531 17556 0
-5748 -17531 17557 0
-17532 17557 0
-5748 -17532 17558 0
-17533 17558 0
-5748 -17533 17559 0
-17534 17559 0
-5748 -17534 0
-5748 17560 0
-17535 17560 0
-5748 -17535 17561 0
-17536 17561 0
-5748 -17536 17562 0
-17537 17562 0
-5748 -17537 17563 0
-17538 17563 0
-5748 -17538 17564 0
-17539 17564 0
-5748 -17539 17565 0
-17540 17565 0
-5748 -17540 17566 0
-17541 17566 0
-5748 -17541 17567 0
-17542 17567 0
-5748 -17542 17568 0
-17543 17568 0
-5748 -17543 17569 0
-17544 17569 0
-5748 -17544 17570 0
-17545 17570 0
-5748 -17545 17571 0
-17546 17571 0
-5748 -17546 17572 0
-17547 17572 0
-5748 -17547 17573 0
-17548 17573 0
-5748 -17548 17574 0
-17549 17574 0
-5748 -17549 17575 0
-17550 17575 0
-5748 -17550 17576 0
-17551 17576 0
-5748 -17551 17577 0
-17552 17577 0
-5748 -17552 17578 0
-17553 17578 0
-5748 -17553 17579 0
-17554 17579 0
-5748 -17554 17580 0
-17555 17580 0
-5748 -17555 17581 0
-17556 17581 0
-5748 -17556 17582 0
-17557 17582 0
-5748 -17557 17583 0
-17558 17583 0
-5748 -17558 17584 0
-17559 17584 0
-5748 -17559 0
-5749 17585 0
-17560 17585 0
-5749 -17560 17586 0
-17561 17586 0
-5749 -17561 17587 0
-17562 17587 0
-5749 -17562 17588 0
-17563 17588 0
-5749 -17563 17589 0
-17564 17589 0
-5749 -17564 17590 0
-17565 17590 0
-5749 -17565 17591 0
-17566 17591 0
-5749 -17566 17592 0
-17567 17592 0
-5749 -17567 17593 0
-17568 17593 0
-5749 -17568 17594 0
-17569 17594 0
-5749 -17569 17595 0
-17570 17595 0
-5749 -17570 17596 0
-17571 17596 0
-5749 -17571 17597 0
-17572 17597 0
-5749 -17572 17598 0
-17573 17598 0
-5749 -17573 17599 0
-17574 17599 0
-5749 -17574 17600 0
-17575 17600 0
-5749 -17575 17601 0
-17576 17601 0
-5749 -17576 17602 0
-17577 17602 0
-5749 -17577 17603 0
-17578 17603 0
-5749 -17578 17604 0
-17579 17604 0
-5749 -17579 17605 0
-17580 17605 0
-5749 -17580 17606 0
-17581 17606 0
-5749 -17581 17607 0
-17582 17607 0
-5749 -17582 17608 0
-17583 17608 0
-5749 -17583 17609 0
-17584 17609 0
-5749 -17584 0
-5749 17610 0
-17585 17610 0
-5749 -17585 17611 0
-17586 17611 0
-5749 -17586 17612 0
-17587 17612 0
-5749 -17587 17613 0
-17588 17613 0
-5749 -17588 17614 0
-17589 17614 0
-5749 -17589 17615 0
-17590 17615 0
-5749 -17590 17616 0
-17591 17616 0
-5749 -17591 17617 0
-17592 17617 0
-5749 -17592 17618 0
-17593 17618 0
-5749 -17593 17619 0
-17594 17619 0
-5749 -17594 17620 0
-17595 17620 0
-5749 -17595 17621 0
-17596 17621 0
-5749 -17596 17622 0
-17597 17622 0
-5749 -17597 17623 0
-17598 17623 0
-5749 -17598 17624 0
-17599 17624 0
-5749 -17599 17625 0
-17600 17625 0
-5749 -17600 17626 0
-17601 17626 0
-5749 -17601 17627 0
-17602 17627 0
-5749 -17602 17628 0
-17603 17628 0
-5749 -17603 17629 0
-17604 17629 0
-5749 -17604 17630 0
-17605 17630 0
-5749 -17605 17631 0
-17606 17631 0
-5749 -17606 17632 0
-17607 17632 0
-5749 -17607 17633 0
-17608 17633 0
-5749 -17608 17634 0
-17609 17634 0
-5749 -17609 0
-5759 17635 0
-17610 17635 0
-5759 -17610 17636 0
-17611 17636 0
-5759 -17611 17637 0
-17612 17637 0
-5759 -17612 17638 0
-17613 17638 0
-5759 -17613 17639 0
-17614 17639 0
-5759 -17614 17640 0
-17615 17640 0
-5759 -17615 17641 0
-17616 17641 0
-5759 -17616 17642 0
-17617 17642 0
-5759 -17617 17643 0
-17618 17643 0
-5759 -17618 17644 0
-17619 17644 0
-5759 -17619 17645 0
-17620 17645 0
-5759 -17620 17646 0
-17621 17646 0
-5759 -17621 17647 0
-17622 17647 0
-5759 -17622 17648 0
-17623 17648 0
-5759 -17623 17649 0
-17624 17649 0
-5759 -17624 17650 0
-17625 17650 0
-5759 -17625 17651 0
-17626 17651 0
-5759 -17626 17652 0
-17627 17652 0
-5759 -17627 17653 0
-17628 17653 0
-5759 -17628 17654 0
-17629 17654 0
-5759 -17629 17655 0
-17630 17655 0
-5759 -17630 17656 0
-17631 17656 0
-5759 -17631 17657 0
-17632 17657 0
-5759 -17632 17658 0
-17633 17658 0
-5759 -17633 17659 0
-17634 17659 0
-5759 -17634 0
-5759 17660 0
-17635 17660 0
-5759 -17635 17661 0
-17636 17661 0
-5759 -17636 17662 0
-17637 17662 0
-5759 -17637 17663 0
-17638 17663 0
-5759 -17638 17664 0
-17639 17664 0
-5759 -17639 17665 0
-17640 17665 0
-5759 -17640 17666 0
-17641 17666 0
-5759 -17641 17667 0
-17642 17667 0
-5759 -17642 17668 0
-17643 17668 0
-5759 -17643 17669 0
-17644 17669 0
-5759 -17644 17670 0
-17645 17670 0
-5759 -17645 17671 0
-17646 17671 0
-5759 -17646 17672 0
-17647 17672 0
-5759 -17647 17673 0
-17648 17673 0
-5759 -17648 17674 0
-17649 17674 0
-5759 -17649 17675 0
-17650 17675 0
-5759 -17650 17676 0
-17651 17676 0
-5759 -17651 17677 0
-17652 17677 0
-5759 -17652 17678 0
-17653 17678 0
-5759 -17653 17679 0
-17654 17679 0
-5759 -17654 17680 0
-17655 17680 0
-5759 -17655 17681 0
-17656 17681 0
-5759 -17656 17682 0
-17657 17682 0
-5759 -17657 17683 0
-17658 17683 0
-5759 -17658 17684 0
-17659 17684 0
-5759 -17659 0
-5759 17685 0
-17660 17685 0
-5759 -17660 17686 0
-17661 17686 0
-5759 -17661 17687 0
-17662 17687 0
-5759 -17662 17688 0
-17663 17688 0
-5759 -17663 17689 0
-17664 17689 0
-5759 -17664 17690 0
-17665 17690 0
-5759 -17665 17691 0
-17666 17691 0
-5759 -17666 17692 0
-17667 17692 0
-5759 -17667 17693 0
-17668 17693 0
-5759 -17668 17694 0
-17669 17694 0
-5759 -17669 17695 0
-17670 17695 0
-5759 -17670 17696 0
-17671 17696 0
-5759 -17671 17697 0
-17672 17697 0
-5759 -17672 17698 0
-17673 17698 0
-5759 -17673 17699 0
-17674 17699 0
-5759 -17674 17700 0
-17675 17700 0
-5759 -17675 17701 0
-17676 17701 0
-5759 -17676 17702 0
-17677 17702 0
-5759 -17677 17703 0
-17678 17703 0
-5759 -17678 17704 0
-17679 17704 0
-5759 -17679 17705 0
-17680 17705 0
-5759 -17680 17706 0
-17681 17706 0
-5759 -17681 17707 0
-17682 17707 0
-5759 -17682 17708 0
-17683 17708 0
-5759 -17683 17709 0
-17684 17709 0
-5759 -17684 0
-5760 17710 0
-17685 17710 0
-5760 -17685 17711 0
-17686 17711 0
-5760 -17686 17712 0
-17687 17712 0
-5760 -17687 17713 0
-17688 17713 0
-5760 -17688 17714 0
-17689 17714 0
-5760 -17689 17715 0
-17690 17715 0
-5760 -17690 17716 0
-17691 17716 0
-5760 -17691 17717 0
-17692 17717 0
-5760 -17692 17718 0
-17693 17718 0
-5760 -17693 17719 0
-17694 17719 0
-5760 -17694 17720 0
-17695 17720 0
-5760 -17695 17721 0
-17696 17721 0
-5760 -17696 17722 0
-17697 17722 0
-5760 -17697 17723 0
-17698 17723 0
-5760 -17698 17724 0
-17699 17724 0
-5760 -17699 17725 0
-17700 17725 0
-5760 -17700 17726 0
-17701 17726 0
-5760 -17701 17727 0
-17702 17727 0
-5760 -17702 17728 0
-17703 17728 0
-5760 -17703 17729 0
-17704 17729 0
-5760 -17704 17730 0
-17705 17730 0
-5760 -17705 17731 0
-17706 17731 0
-5760 -17706 17732 0
-17707 17732 0
-5760 -17707 17733 0
-17708 17733 0
-5760 -17708 17734 0
-17709 17734 0
-5760 -17709 0
-5760 17735 0
-17710 17735 0
-5760 -17710 17736 0
-17711 17736 0
-5760 -17711 17737 0
-17712 17737 0
-5760 -17712 17738 0
-17713 17738 0
-5760 -17713 17739 0
-17714 17739 0
-5760 -17714 17740 0
-17715 17740 0
-5760 -17715 17741 0
-17716 17741 0
-5760 -17716 17742 0
-17717 17742 0
-5760 -17717 17743 0
-17718 17743 0
-5760 -17718 17744 0
-17719 17744 0
-5760 -17719 17745 0
-17720 17745 0
-5760 -17720 17746 0
-17721 17746 0
-5760 -17721 17747 0
-17722 17747 0
-5760 -17722 17748 0
-17723 17748 0
-5760 -17723 17749 0
-17724 17749 0
-5760 -17724 17750 0
-17725 17750 0
-5760 -17725 17751 0
-17726 17751 0
-5760 -17726 17752 0
-17727 17752 0
-5760 -17727 17753 0
-17728 17753 0
-5760 -17728 17754 0
-17729 17754 0
-5760 -17729 17755 0
-17730 17755 0
-5760 -17730 17756 0
-17731 17756 0
-5760 -17731 17757 0
-17732 17757 0
-5760 -17732 17758 0
-17733 17758 0
-5760 -17733 17759 0
-17734 17759 0
-5760 -17734 0
-5770 17760 0
-17735 17760 0
-5770 -17735 17761 0
-17736 17761 0
-5770 -17736 17762 0
-17737 17762 0
-5770 -17737 17763 0
-17738 17763 0
-5770 -17738 17764 0
-17739 17764 0
-5770 -17739 17765 0
-17740 17765 0
-5770 -17740 17766 0
-17741 17766 0
-5770 -17741 17767 0
-17742 17767 0
-5770 -17742 17768 0
-17743 17768 0
-5770 -17743 17769 0
-17744 17769 0
-5770 -17744 17770 0
-17745 17770 0
-5770 -17745 17771 0
-17746 17771 0
-5770 -17746 17772 0
-17747 17772 0
-5770 -17747 17773 0
-17748 17773 0
-5770 -17748 17774 0
-17749 17774 0
-5770 -17749 17775 0
-17750 17775 0
-5770 -17750 17776 0
-17751 17776 0
-5770 -17751 17777 0
-17752 17777 0
-5770 -17752 17778 0
-17753 17778 0
-5770 -17753 17779 0
-17754 17779 0
-5770 -17754 17780 0
-17755 17780 0
-5770 -17755 17781 0
-17756 17781 0
-5770 -17756 17782 0
-17757 17782 0
-5770 -17757 17783 0
-17758 17783 0
-5770 -17758 17784 0
-17759 17784 0
-5770 -17759 0
-5770 17785 0
-17760 17785 0
-5770 -17760 17786 0
-17761 17786 0
-5770 -17761 17787 0
-17762 17787 0
-5770 -17762 17788 0
-17763 17788 0
-5770 -17763 17789 0
-17764 17789 0
-5770 -17764 17790 0
-17765 17790 0
-5770 -17765 17791 0
-17766 17791 0
-5770 -17766 17792 0
-17767 17792 0
-5770 -17767 17793 0
-17768 17793 0
-5770 -17768 17794 0
-17769 17794 0
-5770 -17769 17795 0
-17770 17795 0
-5770 -17770 17796 0
-17771 17796 0
-5770 -17771 17797 0
-17772 17797 0
-5770 -17772 17798 0
-17773 17798 0
-5770 -17773 17799 0
-17774 17799 0
-5770 -17774 17800 0
-17775 17800 0
-5770 -17775 17801 0
-17776 17801 0
-5770 -17776 17802 0
-17777 17802 0
-5770 -17777 17803 0
-17778 17803 0
-5770 -17778 17804 0
-17779 17804 0
-5770 -17779 17805 0
-17780 17805 0
-5770 -17780 17806 0
-17781 17806 0
-5770 -17781 17807 0
-17782 17807 0
-5770 -17782 17808 0
-17783 17808 0
-5770 -17783 17809 0
-17784 17809 0
-5770 -17784 0
-5770 17810 0
-17785 17810 0
-5770 -17785 17811 0
-17786 17811 0
-5770 -17786 17812 0
-17787 17812 0
-5770 -17787 17813 0
-17788 17813 0
-5770 -17788 17814 0
-17789 17814 0
-5770 -17789 17815 0
-17790 17815 0
-5770 -17790 17816 0
-17791 17816 0
-5770 -17791 17817 0
-17792 17817 0
-5770 -17792 17818 0
-17793 17818 0
-5770 -17793 17819 0
-17794 17819 0
-5770 -17794 17820 0
-17795 17820 0
-5770 -17795 17821 0
-17796 17821 0
-5770 -17796 17822 0
-17797 17822 0
-5770 -17797 17823 0
-17798 17823 0
-5770 -17798 17824 0
-17799 17824 0
-5770 -17799 17825 0
-17800 17825 0
-5770 -17800 17826 0
-17801 17826 0
-5770 -17801 17827 0
-17802 17827 0
-5770 -17802 17828 0
-17803 17828 0
-5770 -17803 17829 0
-17804 17829 0
-5770 -17804 17830 0
-17805 17830 0
-5770 -17805 17831 0
-17806 17831 0
-5770 -17806 17832 0
-17807 17832 0
-5770 -17807 17833 0
-17808 17833 0
-5770 -17808 17834 0
-17809 17834 0
-5770 -17809 0
-5771 17835 0
-17810 17835 0
-5771 -17810 17836 0
-17811 17836 0
-5771 -17811 17837 0
-17812 17837 0
-5771 -17812 17838 0
-17813 17838 0
-5771 -17813 17839 0
-17814 17839 0
-5771 -17814 17840 0
-17815 17840 0
-5771 -17815 17841 0
-17816 17841 0
-5771 -17816 17842 0
-17817 17842 0
-5771 -17817 17843 0
-17818 17843 0
-5771 -17818 17844 0
-17819 17844 0
-5771 -17819 17845 0
-17820 17845 0
-5771 -17820 17846 0
-17821 17846 0
-5771 -17821 17847 0
-17822 17847 0
-5771 -17822 17848 0
-17823 17848 0
-5771 -17823 17849 0
-17824 17849 0
-5771 -17824 17850 0
-17825 17850 0
-5771 -17825 17851 0
-17826 17851 0
-5771 -17826 17852 0
-17827 17852 0
-5771 -17827 17853 0
-17828 17853 0
-5771 -17828 17854 0
-17829 17854 0
-5771 -17829 17855 0
-17830 17855 0
-5771 -17830 17856 0
-17831 17856 0
-5771 -17831 17857 0
-17832 17857 0
-5771 -17832 17858 0
-17833 17858 0
-5771 -17833 17859 0
-17834 17859 0
-5771 -17834 0
-5771 17860 0
-17835 17860 0
-5771 -17835 17861 0
-17836 17861 0
-5771 -17836 17862 0
-17837 17862 0
-5771 -17837 17863 0
-17838 17863 0
-5771 -17838 17864 0
-17839 17864 0
-5771 -17839 17865 0
-17840 17865 0
-5771 -17840 17866 0
-17841 17866 0
-5771 -17841 17867 0
-17842 17867 0
-5771 -17842 17868 0
-17843 17868 0
-5771 -17843 17869 0
-17844 17869 0
-5771 -17844 17870 0
-17845 17870 0
-5771 -17845 17871 0
-17846 17871 0
-5771 -17846 17872 0
-17847 17872 0
-5771 -17847 17873 0
-17848 17873 0
-5771 -17848 17874 0
-17849 17874 0
-5771 -17849 17875 0
-17850 17875 0
-5771 -17850 17876 0
-17851 17876 0
-5771 -17851 17877 0
-17852 17877 0
-5771 -17852 17878 0
-17853 17878 0
-5771 -17853 17879 0
-17854 17879 0
-5771 -17854 17880 0
-17855 17880 0
-5771 -17855 17881 0
-17856 17881 0
-5771 -17856 17882 0
-17857 17882 0
-5771 -17857 17883 0
-17858 17883 0
-5771 -17858 17884 0
-17859 17884 0
-5771 -17859 0
-5781 17885 0
-17860 17885 0
-5781 -17860 17886 0
-17861 17886 0
-5781 -17861 17887 0
-17862 17887 0
-5781 -17862 17888 0
-17863 17888 0
-5781 -17863 17889 0
-17864 17889 0
-5781 -17864 17890 0
-17865 17890 0
-5781 -17865 17891 0
-17866 17891 0
-5781 -17866 17892 0
-17867 17892 0
-5781 -17867 17893 0
-17868 17893 0
-5781 -17868 17894 0
-17869 17894 0
-5781 -17869 17895 0
-17870 17895 0
-5781 -17870 17896 0
-17871 17896 0
-5781 -17871 17897 0
-17872 17897 0
-5781 -17872 17898 0
-17873 17898 0
-5781 -17873 17899 0
-17874 17899 0
-5781 -17874 17900 0
-17875 17900 0
-5781 -17875 17901 0
-17876 17901 0
-5781 -17876 17902 0
-17877 17902 0
-5781 -17877 17903 0
-17878 17903 0
-5781 -17878 17904 0
-17879 17904 0
-5781 -17879 17905 0
-17880 17905 0
-5781 -17880 17906 0
-17881 17906 0
-5781 -17881 17907 0
-17882 17907 0
-5781 -17882 17908 0
-17883 17908 0
-5781 -17883 17909 0
-17884 17909 0
-5781 -17884 0
-5781 17910 0
-17885 17910 0
-5781 -17885 17911 0
-17886 17911 0
-5781 -17886 17912 0
-17887 17912 0
-5781 -17887 17913 0
-17888 17913 0
-5781 -17888 17914 0
-17889 17914 0
-5781 -17889 17915 0
-17890 17915 0
-5781 -17890 17916 0
-17891 17916 0
-5781 -17891 17917 0
-17892 17917 0
-5781 -17892 17918 0
-17893 17918 0
-5781 -17893 17919 0
-17894 17919 0
-5781 -17894 17920 0
-17895 17920 0
-5781 -17895 17921 0
-17896 17921 0
-5781 -17896 17922 0
-17897 17922 0
-5781 -17897 17923 0
-17898 17923 0
-5781 -17898 17924 0
-17899 17924 0
-5781 -17899 17925 0
-17900 17925 0
-5781 -17900 17926 0
-17901 17926 0
-5781 -17901 17927 0
-17902 17927 0
-5781 -17902 17928 0
-17903 17928 0
-5781 -17903 17929 0
-17904 17929 0
-5781 -17904 17930 0
-17905 17930 0
-5781 -17905 17931 0
-17906 17931 0
-5781 -17906 17932 0
-17907 17932 0
-5781 -17907 17933 0
-17908 17933 0
-5781 -17908 17934 0
-17909 17934 0
-5781 -17909 0
-5781 17935 0
-17910 17935 0
-5781 -17910 17936 0
-17911 17936 0
-5781 -17911 17937 0
-17912 17937 0
-5781 -17912 17938 0
-17913 17938 0
-5781 -17913 17939 0
-17914 17939 0
-5781 -17914 17940 0
-17915 17940 0
-5781 -17915 17941 0
-17916 17941 0
-5781 -17916 17942 0
-17917 17942 0
-5781 -17917 17943 0
-17918 17943 0
-5781 -17918 17944 0
-17919 17944 0
-5781 -17919 17945 0
-17920 17945 0
-5781 -17920 17946 0
-17921 17946 0
-5781 -17921 17947 0
-17922 17947 0
-5781 -17922 17948 0
-17923 17948 0
-5781 -17923 17949 0
-17924 17949 0
-5781 -17924 17950 0
-17925 17950 0
-5781 -17925 17951 0
-17926 17951 0
-5781 -17926 17952 0
-17927 17952 0
-5781 -17927 17953 0
-17928 17953 0
-5781 -17928 17954 0
-17929 17954 0
-5781 -17929 17955 0
-17930 17955 0
-5781 -17930 17956 0
-17931 17956 0
-5781 -17931 17957 0
-17932 17957 0
-5781 -17932 17958 0
-17933 17958 0
-5781 -17933 17959 0
-17934 17959 0
-5781 -17934 0
-5782 17960 0
-17935 17960 0
-5782 -17935 17961 0
-17936 17961 0
-5782 -17936 17962 0
-17937 17962 0
-5782 -17937 17963 0
-17938 17963 0
-5782 -17938 17964 0
-17939 17964 0
-5782 -17939 17965 0
-17940 17965 0
-5782 -17940 17966 0
-17941 17966 0
-5782 -17941 17967 0
-17942 17967 0
-5782 -17942 17968 0
-17943 17968 0
-5782 -17943 17969 0
-17944 17969 0
-5782 -17944 17970 0
-17945 17970 0
-5782 -17945 17971 0
-17946 17971 0
-5782 -17946 17972 0
-17947 17972 0
-5782 -17947 17973 0
-17948 17973 0
-5782 -17948 17974 0
-17949 17974 0
-5782 -17949 17975 0
-17950 17975 0
-5782 -17950 17976 0
-17951 17976 0
-5782 -17951 17977 0
-17952 17977 0
-5782 -17952 17978 0
-17953 17978 0
-5782 -17953 17979 0
-17954 17979 0
-5782 -17954 17980 0
-17955 17980 0
-5782 -17955 17981 0
-17956 17981 0
-5782 -17956 17982 0
-17957 17982 0
-5782 -17957 17983 0
-17958 17983 0
-5782 -17958 17984 0
-17959 17984 0
-5782 -17959 0
-5782 17985 0
-17960 17985 0
-5782 -17960 17986 0
-17961 17986 0
-5782 -17961 17987 0
-17962 17987 0
-5782 -17962 17988 0
-17963 17988 0
-5782 -17963 17989 0
-17964 17989 0
-5782 -17964 17990 0
-17965 17990 0
-5782 -17965 17991 0
-17966 17991 0
-5782 -17966 17992 0
-17967 17992 0
-5782 -17967 17993 0
-17968 17993 0
-5782 -17968 17994 0
-17969 17994 0
-5782 -17969 17995 0
-17970 17995 0
-5782 -17970 17996 0
-17971 17996 0
-5782 -17971 17997 0
-17972 17997 0
-5782 -17972 17998 0
-17973 17998 0
-5782 -17973 17999 0
-17974 17999 0
-5782 -17974 18000 0
-17975 18000 0
-5782 -17975 18001 0
-17976 18001 0
-5782 -17976 18002 0
-17977 18002 0
-5782 -17977 18003 0
-17978 18003 0
-5782 -17978 18004 0
-17979 18004 0
-5782 -17979 18005 0
-17980 18005 0
-5782 -17980 18006 0
-17981 18006 0
-5782 -17981 18007 0
-17982 18007 0
-5782 -17982 18008 0
-17983 18008 0
-5782 -17983 18009 0
-17984 18009 0
-5782 -17984 0
-5792 18010 0
-17985 18010 0
-5792 -17985 18011 0
-17986 18011 0
-5792 -17986 18012 0
-17987 18012 0
-5792 -17987 18013 0
-17988 18013 0
-5792 -17988 18014 0
-17989 18014 0
-5792 -17989 18015 0
-17990 18015 0
-5792 -17990 18016 0
-17991 18016 0
-5792 -17991 18017 0
-17992 18017 0
-5792 -17992 18018 0
-17993 18018 0
-5792 -17993 18019 0
-17994 18019 0
-5792 -17994 18020 0
-17995 18020 0
-5792 -17995 18021 0
-17996 18021 0
-5792 -17996 18022 0
-17997 18022 0
-5792 -17997 18023 0
-17998 18023 0
-5792 -17998 18024 0
-17999 18024 0
-5792 -17999 18025 0
-18000 18025 0
-5792 -18000 18026 0
-18001 18026 0
-5792 -18001 18027 0
-18002 18027 0
-5792 -18002 18028 0
-18003 18028 0
-5792 -18003 18029 0
-18004 18029 0
-5792 -18004 18030 0
-18005 18030 0
-5792 -18005 18031 0
-18006 18031 0
-5792 -18006 18032 0
-18007 18032 0
-5792 -18007 18033 0
-18008 18033 0
-5792 -18008 18034 0
-18009 18034 0
-5792 -18009 0
-5792 18035 0
-18010 18035 0
-5792 -18010 18036 0
-18011 18036 0
-5792 -18011 18037 0
-18012 18037 0
-5792 -18012 18038 0
-18013 18038 0
-5792 -18013 18039 0
-18014 18039 0
-5792 -18014 18040 0
-18015 18040 0
-5792 -18015 18041 0
-18016 18041 0
-5792 -18016 18042 0
-18017 18042 0
-5792 -18017 18043 0
-18018 18043 0
-5792 -18018 18044 0
-18019 18044 0
-5792 -18019 18045 0
-18020 18045 0
-5792 -18020 18046 0
-18021 18046 0
-5792 -18021 18047 0
-18022 18047 0
-5792 -18022 18048 0
-18023 18048 0
-5792 -18023 18049 0
-18024 18049 0
-5792 -18024 18050 0
-18025 18050 0
-5792 -18025 18051 0
-18026 18051 0
-5792 -18026 18052 0
-18027 18052 0
-5792 -18027 18053 0
-18028 18053 0
-5792 -18028 18054 0
-18029 18054 0
-5792 -18029 18055 0
-18030 18055 0
-5792 -18030 18056 0
-18031 18056 0
-5792 -18031 18057 0
-18032 18057 0
-5792 -18032 18058 0
-18033 18058 0
-5792 -18033 18059 0
-18034 18059 0
-5792 -18034 0
-5792 18060 0
-18035 18060 0
-5792 -18035 18061 0
-18036 18061 0
-5792 -18036 18062 0
-18037 18062 0
-5792 -18037 18063 0
-18038 18063 0
-5792 -18038 18064 0
-18039 18064 0
-5792 -18039 18065 0
-18040 18065 0
-5792 -18040 18066 0
-18041 18066 0
-5792 -18041 18067 0
-18042 18067 0
-5792 -18042 18068 0
-18043 18068 0
-5792 -18043 18069 0
-18044 18069 0
-5792 -18044 18070 0
-18045 18070 0
-5792 -18045 18071 0
-18046 18071 0
-5792 -18046 18072 0
-18047 18072 0
-5792 -18047 18073 0
-18048 18073 0
-5792 -18048 18074 0
-18049 18074 0
-5792 -18049 18075 0
-18050 18075 0
-5792 -18050 18076 0
-18051 18076 0
-5792 -18051 18077 0
-18052 18077 0
-5792 -18052 18078 0
-18053 18078 0
-5792 -18053 18079 0
-18054 18079 0
-5792 -18054 18080 0
-18055 18080 0
-5792 -18055 18081 0
-18056 18081 0
-5792 -18056 18082 0
-18057 18082 0
-5792 -18057 18083 0
-18058 18083 0
-5792 -18058 18084 0
-18059 18084 0
-5792 -18059 0
-5793 18085 0
-18060 18085 0
-5793 -18060 18086 0
-18061 18086 0
-5793 -18061 18087 0
-18062 18087 0
-5793 -18062 18088 0
-18063 18088 0
-5793 -18063 18089 0
-18064 18089 0
-5793 -18064 18090 0
-18065 18090 0
-5793 -18065 18091 0
-18066 18091 0
-5793 -18066 18092 0
-18067 18092 0
-5793 -18067 18093 0
-18068 18093 0
-5793 -18068 18094 0
-18069 18094 0
-5793 -18069 18095 0
-18070 18095 0
-5793 -18070 18096 0
-18071 18096 0
-5793 -18071 18097 0
-18072 18097 0
-5793 -18072 18098 0
-18073 18098 0
-5793 -18073 18099 0
-18074 18099 0
-5793 -18074 18100 0
-18075 18100 0
-5793 -18075 18101 0
-18076 18101 0
-5793 -18076 18102 0
-18077 18102 0
-5793 -18077 18103 0
-18078 18103 0
-5793 -18078 18104 0
-18079 18104 0
-5793 -18079 18105 0
-18080 18105 0
-5793 -18080 18106 0
-18081 18106 0
-5793 -18081 18107 0
-18082 18107 0
-5793 -18082 18108 0
-18083 18108 0
-5793 -18083 18109 0
-18084 18109 0
-5793 -18084 0
-5793 18110 0
-18085 18110 0
-5793 -18085 18111 0
-18086 18111 0
-5793 -18086 18112 0
-18087 18112 0
-5793 -18087 18113 0
-18088 18113 0
-5793 -18088 18114 0
-18089 18114 0
-5793 -18089 18115 0
-18090 18115 0
-5793 -18090 18116 0
-18091 18116 0
-5793 -18091 18117 0
-18092 18117 0
-5793 -18092 18118 0
-18093 18118 0
-5793 -18093 18119 0
-18094 18119 0
-5793 -18094 18120 0
-18095 18120 0
-5793 -18095 18121 0
-18096 18121 0
-5793 -18096 18122 0
-18097 18122 0
-5793 -18097 18123 0
-18098 18123 0
-5793 -18098 18124 0
-18099 18124 0
-5793 -18099 18125 0
-18100 18125 0
-5793 -18100 18126 0
-18101 18126 0
-5793 -18101 18127 0
-18102 18127 0
-5793 -18102 18128 0
-18103 18128 0
-5793 -18103 18129 0
-18104 18129 0
-5793 -18104 18130 0
-18105 18130 0
-5793 -18105 18131 0
-18106 18131 0
-5793 -18106 18132 0
-18107 18132 0
-5793 -18107 18133 0
-18108 18133 0
-5793 -18108 18134 0
-18109 18134 0
-5793 -18109 0
-5803 18135 0
-18110 18135 0
-5803 -18110 18136 0
-18111 18136 0
-5803 -18111 18137 0
-18112 18137 0
-5803 -18112 18138 0
-18113 18138 0
-5803 -18113 18139 0
-18114 18139 0
-5803 -18114 18140 0
-18115 18140 0
-5803 -18115 18141 0
-18116 18141 0
-5803 -18116 18142 0
-18117 18142 0
-5803 -18117 18143 0
-18118 18143 0
-5803 -18118 18144 0
-18119 18144 0
-5803 -18119 18145 0
-18120 18145 0
-5803 -18120 18146 0
-18121 18146 0
-5803 -18121 18147 0
-18122 18147 0
-5803 -18122 18148 0
-18123 18148 0
-5803 -18123 18149 0
-18124 18149 0
-5803 -18124 18150 0
-18125 18150 0
-5803 -18125 18151 0
-18126 18151 0
-5803 -18126 18152 0
-18127 18152 0
-5803 -18127 18153 0
-18128 18153 0
-5803 -18128 18154 0
-18129 18154 0
-5803 -18129 18155 0
-18130 18155 0
-5803 -18130 18156 0
-18131 18156 0
-5803 -18131 18157 0
-18132 18157 0
-5803 -18132 18158 0
-18133 18158 0
-5803 -18133 18159 0
-18134 18159 0
-5803 -18134 0
-5803 18160 0
-18135 18160 0
-5803 -18135 18161 0
-18136 18161 0
-5803 -18136 18162 0
-18137 18162 0
-5803 -18137 18163 0
-18138 18163 0
-5803 -18138 18164 0
-18139 18164 0
-5803 -18139 18165 0
-18140 18165 0
-5803 -18140 18166 0
-18141 18166 0
-5803 -18141 18167 0
-18142 18167 0
-5803 -18142 18168 0
-18143 18168 0
-5803 -18143 18169 0
-18144 18169 0
-5803 -18144 18170 0
-18145 18170 0
-5803 -18145 18171 0
-18146 18171 0
-5803 -18146 18172 0
-18147 18172 0
-5803 -18147 18173 0
-18148 18173 0
-5803 -18148 18174 0
-18149 18174 0
-5803 -18149 18175 0
-18150 18175 0
-5803 -18150 18176 0
-18151 18176 0
-5803 -18151 18177 0
-18152 18177 0
-5803 -18152 18178 0
-18153 18178 0
-5803 -18153 18179 0
-18154 18179 0
-5803 -18154 18180 0
-18155 18180 0
-5803 -18155 18181 0
-18156 18181 0
-5803 -18156 18182 0
-18157 18182 0
-5803 -18157 18183 0
-18158 18183 0
-5803 -18158 18184 0
-18159 18184 0
-5803 -18159 0
-5803 18185 0
-18160 18185 0
-5803 -18160 18186 0
-18161 18186 0
-5803 -18161 18187 0
-18162 18187 0
-5803 -18162 18188 0
-18163 18188 0
-5803 -18163 18189 0
-18164 18189 0
-5803 -18164 18190 0
-18165 18190 0
-5803 -18165 18191 0
-18166 18191 0
-5803 -18166 18192 0
-18167 18192 0
-5803 -18167 18193 0
-18168 18193 0
-5803 -18168 18194 0
-18169 18194 0
-5803 -18169 18195 0
-18170 18195 0
-5803 -18170 18196 0
-18171 18196 0
-5803 -18171 18197 0
-18172 18197 0
-5803 -18172 18198 0
-18173 18198 0
-5803 -18173 18199 0
-18174 18199 0
-5803 -18174 18200 0
-18175 18200 0
-5803 -18175 18201 0
-18176 18201 0
-5803 -18176 18202 0
-18177 18202 0
-5803 -18177 18203 0
-18178 18203 0
-5803 -18178 18204 0
-18179 18204 0
-5803 -18179 18205 0
-18180 18205 0
-5803 -18180 18206 0
-18181 18206 0
-5803 -18181 18207 0
-18182 18207 0
-5803 -18182 18208 0
-18183 18208 0
-5803 -18183 18209 0
-18184 18209 0
-5803 -18184 0
-5804 18210 0
-18185 18210 0
-5804 -18185 18211 0
-18186 18211 0
-5804 -18186 18212 0
-18187 18212 0
-5804 -18187 18213 0
-18188 18213 0
-5804 -18188 18214 0
-18189 18214 0
-5804 -18189 18215 0
-18190 18215 0
-5804 -18190 18216 0
-18191 18216 0
-5804 -18191 18217 0
-18192 18217 0
-5804 -18192 18218 0
-18193 18218 0
-5804 -18193 18219 0
-18194 18219 0
-5804 -18194 18220 0
-18195 18220 0
-5804 -18195 18221 0
-18196 18221 0
-5804 -18196 18222 0
-18197 18222 0
-5804 -18197 18223 0
-18198 18223 0
-5804 -18198 18224 0
-18199 18224 0
-5804 -18199 18225 0
-18200 18225 0
-5804 -18200 18226 0
-18201 18226 0
-5804 -18201 18227 0
-18202 18227 0
-5804 -18202 18228 0
-18203 18228 0
-5804 -18203 18229 0
-18204 18229 0
-5804 -18204 18230 0
-18205 18230 0
-5804 -18205 18231 0
-18206 18231 0
-5804 -18206 18232 0
-18207 18232 0
-5804 -18207 18233 0
-18208 18233 0
-5804 -18208 18234 0
-18209 18234 0
-5804 -18209 0
-5804 18235 0
-18210 18235 0
-5804 -18210 18236 0
-18211 18236 0
-5804 -18211 18237 0
-18212 18237 0
-5804 -18212 18238 0
-18213 18238 0
-5804 -18213 18239 0
-18214 18239 0
-5804 -18214 18240 0
-18215 18240 0
-5804 -18215 18241 0
-18216 18241 0
-5804 -18216 18242 0
-18217 18242 0
-5804 -18217 18243 0
-18218 18243 0
-5804 -18218 18244 0
-18219 18244 0
-5804 -18219 18245 0
-18220 18245 0
-5804 -18220 18246 0
-18221 18246 0
-5804 -18221 18247 0
-18222 18247 0
-5804 -18222 18248 0
-18223 18248 0
-5804 -18223 18249 0
-18224 18249 0
-5804 -18224 18250 0
-18225 18250 0
-5804 -18225 18251 0
-18226 18251 0
-5804 -18226 18252 0
-18227 18252 0
-5804 -18227 18253 0
-18228 18253 0
-5804 -18228 18254 0
-18229 18254 0
-5804 -18229 18255 0
-18230 18255 0
-5804 -18230 18256 0
-18231 18256 0
-5804 -18231 18257 0
-18232 18257 0
-5804 -18232 18258 0
-18233 18258 0
-5804 -18233 18259 0
-18234 18259 0
-5804 -18234 0
-5814 18260 0
-18235 18260 0
-5814 -18235 18261 0
-18236 18261 0
-5814 -18236 18262 0
-18237 18262 0
-5814 -18237 18263 0
-18238 18263 0
-5814 -18238 18264 0
-18239 18264 0
-5814 -18239 18265 0
-18240 18265 0
-5814 -18240 18266 0
-18241 18266 0
-5814 -18241 18267 0
-18242 18267 0
-5814 -18242 18268 0
-18243 18268 0
-5814 -18243 18269 0
-18244 18269 0
-5814 -18244 18270 0
-18245 18270 0
-5814 -18245 18271 0
-18246 18271 0
-5814 -18246 18272 0
-18247 18272 0
-5814 -18247 18273 0
-18248 18273 0
-5814 -18248 18274 0
-18249 18274 0
-5814 -18249 18275 0
-18250 18275 0
-5814 -18250 18276 0
-18251 18276 0
-5814 -18251 18277 0
-18252 18277 0
-5814 -18252 18278 0
-18253 18278 0
-5814 -18253 18279 0
-18254 18279 0
-5814 -18254 18280 0
-18255 18280 0
-5814 -18255 18281 0
-18256 18281 0
-5814 -18256 18282 0
-18257 18282 0
-5814 -18257 18283 0
-18258 18283 0
-5814 -18258 18284 0
-18259 18284 0
-5814 -18259 0
-5814 18285 0
-18260 18285 0
-5814 -18260 18286 0
-18261 18286 0
-5814 -18261 18287 0
-18262 18287 0
-5814 -18262 18288 0
-18263 18288 0
-5814 -18263 18289 0
-18264 18289 0
-5814 -18264 18290 0
-18265 18290 0
-5814 -18265 18291 0
-18266 18291 0
-5814 -18266 18292 0
-18267 18292 0
-5814 -18267 18293 0
-18268 18293 0
-5814 -18268 18294 0
-18269 18294 0
-5814 -18269 18295 0
-18270 18295 0
-5814 -18270 18296 0
-18271 18296 0
-5814 -18271 18297 0
-18272 18297 0
-5814 -18272 18298 0
-18273 18298 0
-5814 -18273 18299 0
-18274 18299 0
-5814 -18274 18300 0
-18275 18300 0
-5814 -18275 18301 0
-18276 18301 0
-5814 -18276 18302 0
-18277 18302 0
-5814 -18277 18303 0
-18278 18303 0
-5814 -18278 18304 0
-18279 18304 0
-5814 -18279 18305 0
-18280 18305 0
-5814 -18280 18306 0
-18281 18306 0
-5814 -18281 18307 0
-18282 18307 0
-5814 -18282 18308 0
-18283 18308 0
-5814 -18283 18309 0
-18284 18309 0
-5814 -18284 0
-5814 18310 0
-18285 18310 0
-5814 -18285 18311 0
-18286 18311 0
-5814 -18286 18312 0
-18287 18312 0
-5814 -18287 18313 0
-18288 18313 0
-5814 -18288 18314 0
-18289 18314 0
-5814 -18289 18315 0
-18290 18315 0
-5814 -18290 18316 0
-18291 18316 0
-5814 -18291 18317 0
-18292 18317 0
-5814 -18292 18318 0
-18293 18318 0
-5814 -18293 18319 0
-18294 18319 0
-5814 -18294 18320 0
-18295 18320 0
-5814 -18295 18321 0
-18296 18321 0
-5814 -18296 18322 0
-18297 18322 0
-5814 -18297 18323 0
-18298 18323 0
-5814 -18298 18324 0
-18299 18324 0
-5814 -18299 18325 0
-18300 18325 0
-5814 -18300 18326 0
-18301 18326 0
-5814 -18301 18327 0
-18302 18327 0
-5814 -18302 18328 0
-18303 18328 0
-5814 -18303 18329 0
-18304 18329 0
-5814 -18304 18330 0
-18305 18330 0
-5814 -18305 18331 0
-18306 18331 0
-5814 -18306 18332 0
-18307 18332 0
-5814 -18307 18333 0
-18308 18333 0
-5814 -18308 18334 0
-18309 18334 0
-5814 -18309 0
-5815 18335 0
-18310 18335 0
-5815 -18310 18336 0
-18311 18336 0
-5815 -18311 18337 0
-18312 18337 0
-5815 -18312 18338 0
-18313 18338 0
-5815 -18313 18339 0
-18314 18339 0
-5815 -18314 18340 0
-18315 18340 0
-5815 -18315 18341 0
-18316 18341 0
-5815 -18316 18342 0
-18317 18342 0
-5815 -18317 18343 0
-18318 18343 0
-5815 -18318 18344 0
-18319 18344 0
-5815 -18319 18345 0
-18320 18345 0
-5815 -18320 18346 0
-18321 18346 0
-5815 -18321 18347 0
-18322 18347 0
-5815 -18322 18348 0
-18323 18348 0
-5815 -18323 18349 0
-18324 18349 0
-5815 -18324 18350 0
-18325 18350 0
-5815 -18325 18351 0
-18326 18351 0
-5815 -18326 18352 0
-18327 18352 0
-5815 -18327 18353 0
-18328 18353 0
-5815 -18328 18354 0
-18329 18354 0
-5815 -18329 18355 0
-18330 18355 0
-5815 -18330 18356 0
-18331 18356 0
-5815 -18331 18357 0
-18332 18357 0
-5815 -18332 18358 0
-18333 18358 0
-5815 -18333 18359 0
-18334 18359 0
-5815 -18334 0
-5815 18360 0
-18335 18360 0
-5815 -18335 18361 0
-18336 18361 0
-5815 -18336 18362 0
-18337 18362 0
-5815 -18337 18363 0
-18338 18363 0
-5815 -18338 18364 0
-18339 18364 0
-5815 -18339 18365 0
-18340 18365 0
-5815 -18340 18366 0
-18341 18366 0
-5815 -18341 18367 0
-18342 18367 0
-5815 -18342 18368 0
-18343 18368 0
-5815 -18343 18369 0
-18344 18369 0
-5815 -18344 18370 0
-18345 18370 0
-5815 -18345 18371 0
-18346 18371 0
-5815 -18346 18372 0
-18347 18372 0
-5815 -18347 18373 0
-18348 18373 0
-5815 -18348 18374 0
-18349 18374 0
-5815 -18349 18375 0
-18350 18375 0
-5815 -18350 18376 0
-18351 18376 0
-5815 -18351 18377 0
-18352 18377 0
-5815 -18352 18378 0
-18353 18378 0
-5815 -18353 18379 0
-18354 18379 0
-5815 -18354 18380 0
-18355 18380 0
-5815 -18355 18381 0
-18356 18381 0
-5815 -18356 18382 0
-18357 18382 0
-5815 -18357 18383 0
-18358 18383 0
-5815 -18358 18384 0
-18359 18384 0
-5815 -18359 0
-5825 18385 0
-18360 18385 0
-5825 -18360 18386 0
-18361 18386 0
-5825 -18361 18387 0
-18362 18387 0
-5825 -18362 18388 0
-18363 18388 0
-5825 -18363 18389 0
-18364 18389 0
-5825 -18364 18390 0
-18365 18390 0
-5825 -18365 18391 0
-18366 18391 0
-5825 -18366 18392 0
-18367 18392 0
-5825 -18367 18393 0
-18368 18393 0
-5825 -18368 18394 0
-18369 18394 0
-5825 -18369 18395 0
-18370 18395 0
-5825 -18370 18396 0
-18371 18396 0
-5825 -18371 18397 0
-18372 18397 0
-5825 -18372 18398 0
-18373 18398 0
-5825 -18373 18399 0
-18374 18399 0
-5825 -18374 18400 0
-18375 18400 0
-5825 -18375 18401 0
-18376 18401 0
-5825 -18376 18402 0
-18377 18402 0
-5825 -18377 18403 0
-18378 18403 0
-5825 -18378 18404 0
-18379 18404 0
-5825 -18379 18405 0
-18380 18405 0
-5825 -18380 18406 0
-18381 18406 0
-5825 -18381 18407 0
-18382 18407 0
-5825 -18382 18408 0
-18383 18408 0
-5825 -18383 18409 0
-18384 18409 0
-5825 -18384 0
-5825 18410 0
-18385 18410 0
-5825 -18385 18411 0
-18386 18411 0
-5825 -18386 18412 0
-18387 18412 0
-5825 -18387 18413 0
-18388 18413 0
-5825 -18388 18414 0
-18389 18414 0
-5825 -18389 18415 0
-18390 18415 0
-5825 -18390 18416 0
-18391 18416 0
-5825 -18391 18417 0
-18392 18417 0
-5825 -18392 18418 0
-18393 18418 0
-5825 -18393 18419 0
-18394 18419 0
-5825 -18394 18420 0
-18395 18420 0
-5825 -18395 18421 0
-18396 18421 0
-5825 -18396 18422 0
-18397 18422 0
-5825 -18397 18423 0
-18398 18423 0
-5825 -18398 18424 0
-18399 18424 0
-5825 -18399 18425 0
-18400 18425 0
-5825 -18400 18426 0
-18401 18426 0
-5825 -18401 18427 0
-18402 18427 0
-5825 -18402 18428 0
-18403 18428 0
-5825 -18403 18429 0
-18404 18429 0
-5825 -18404 18430 0
-18405 18430 0
-5825 -18405 18431 0
-18406 18431 0
-5825 -18406 18432 0
-18407 18432 0
-5825 -18407 18433 0
-18408 18433 0
-5825 -18408 18434 0
-18409 18434 0
-5825 -18409 0
-5825 18435 0
-18410 18435 0
-5825 -18410 18436 0
-18411 18436 0
-5825 -18411 18437 0
-18412 18437 0
-5825 -18412 18438 0
-18413 18438 0
-5825 -18413 18439 0
-18414 18439 0
-5825 -18414 18440 0
-18415 18440 0
-5825 -18415 18441 0
-18416 18441 0
-5825 -18416 18442 0
-18417 18442 0
-5825 -18417 18443 0
-18418 18443 0
-5825 -18418 18444 0
-18419 18444 0
-5825 -18419 18445 0
-18420 18445 0
-5825 -18420 18446 0
-18421 18446 0
-5825 -18421 18447 0
-18422 18447 0
-5825 -18422 18448 0
-18423 18448 0
-5825 -18423 18449 0
-18424 18449 0
-5825 -18424 18450 0
-18425 18450 0
-5825 -18425 18451 0
-18426 18451 0
-5825 -18426 18452 0
-18427 18452 0
-5825 -18427 18453 0
-18428 18453 0
-5825 -18428 18454 0
-18429 18454 0
-5825 -18429 18455 0
-18430 18455 0
-5825 -18430 18456 0
-18431 18456 0
-5825 -18431 18457 0
-18432 18457 0
-5825 -18432 18458 0
-18433 18458 0
-5825 -18433 18459 0
-18434 18459 0
-5825 -18434 0
-5826 18460 0
-18435 18460 0
-5826 -18435 18461 0
-18436 18461 0
-5826 -18436 18462 0
-18437 18462 0
-5826 -18437 18463 0
-18438 18463 0
-5826 -18438 18464 0
-18439 18464 0
-5826 -18439 18465 0
-18440 18465 0
-5826 -18440 18466 0
-18441 18466 0
-5826 -18441 18467 0
-18442 18467 0
-5826 -18442 18468 0
-18443 18468 0
-5826 -18443 18469 0
-18444 18469 0
-5826 -18444 18470 0
-18445 18470 0
-5826 -18445 18471 0
-18446 18471 0
-5826 -18446 18472 0
-18447 18472 0
-5826 -18447 18473 0
-18448 18473 0
-5826 -18448 18474 0
-18449 18474 0
-5826 -18449 18475 0
-18450 18475 0
-5826 -18450 18476 0
-18451 18476 0
-5826 -18451 18477 0
-18452 18477 0
-5826 -18452 18478 0
-18453 18478 0
-5826 -18453 18479 0
-18454 18479 0
-5826 -18454 18480 0
-18455 18480 0
-5826 -18455 18481 0
-18456 18481 0
-5826 -18456 18482 0
-18457 18482 0
-5826 -18457 18483 0
-18458 18483 0
-5826 -18458 18484 0
-18459 18484 0
-5826 -18459 0
-5826 18485 0
-18460 18485 0
-5826 -18460 18486 0
-18461 18486 0
-5826 -18461 18487 0
-18462 18487 0
-5826 -18462 18488 0
-18463 18488 0
-5826 -18463 18489 0
-18464 18489 0
-5826 -18464 18490 0
-18465 18490 0
-5826 -18465 18491 0
-18466 18491 0
-5826 -18466 18492 0
-18467 18492 0
-5826 -18467 18493 0
-18468 18493 0
-5826 -18468 18494 0
-18469 18494 0
-5826 -18469 18495 0
-18470 18495 0
-5826 -18470 18496 0
-18471 18496 0
-5826 -18471 18497 0
-18472 18497 0
-5826 -18472 18498 0
-18473 18498 0
-5826 -18473 18499 0
-18474 18499 0
-5826 -18474 18500 0
-18475 18500 0
-5826 -18475 18501 0
-18476 18501 0
-5826 -18476 18502 0
-18477 18502 0
-5826 -18477 18503 0
-18478 18503 0
-5826 -18478 18504 0
-18479 18504 0
-5826 -18479 18505 0
-18480 18505 0
-5826 -18480 18506 0
-18481 18506 0
-5826 -18481 18507 0
-18482 18507 0
-5826 -18482 18508 0
-18483 18508 0
-5826 -18483 18509 0
-18484 18509 0
-5826 -18484 0
-5836 18510 0
-18485 18510 0
-5836 -18485 18511 0
-18486 18511 0
-5836 -18486 18512 0
-18487 18512 0
-5836 -18487 18513 0
-18488 18513 0
-5836 -18488 18514 0
-18489 18514 0
-5836 -18489 18515 0
-18490 18515 0
-5836 -18490 18516 0
-18491 18516 0
-5836 -18491 18517 0
-18492 18517 0
-5836 -18492 18518 0
-18493 18518 0
-5836 -18493 18519 0
-18494 18519 0
-5836 -18494 18520 0
-18495 18520 0
-5836 -18495 18521 0
-18496 18521 0
-5836 -18496 18522 0
-18497 18522 0
-5836 -18497 18523 0
-18498 18523 0
-5836 -18498 18524 0
-18499 18524 0
-5836 -18499 18525 0
-18500 18525 0
-5836 -18500 18526 0
-18501 18526 0
-5836 -18501 18527 0
-18502 18527 0
-5836 -18502 18528 0
-18503 18528 0
-5836 -18503 18529 0
-18504 18529 0
-5836 -18504 18530 0
-18505 18530 0
-5836 -18505 18531 0
-18506 18531 0
-5836 -18506 18532 0
-18507 18532 0
-5836 -18507 18533 0
-18508 18533 0
-5836 -18508 18534 0
-18509 18534 0
-5836 -18509 0
-5836 18535 0
-18510 18535 0
-5836 -18510 18536 0
-18511 18536 0
-5836 -18511 18537 0
-18512 18537 0
-5836 -18512 18538 0
-18513 18538 0
-5836 -18513 18539 0
-18514 18539 0
-5836 -18514 18540 0
-18515 18540 0
-5836 -18515 18541 0
-18516 18541 0
-5836 -18516 18542 0
-18517 18542 0
-5836 -18517 18543 0
-18518 18543 0
-5836 -18518 18544 0
-18519 18544 0
-5836 -18519 18545 0
-18520 18545 0
-5836 -18520 18546 0
-18521 18546 0
-5836 -18521 18547 0
-18522 18547 0
-5836 -18522 18548 0
-18523 18548 0
-5836 -18523 18549 0
-18524 18549 0
-5836 -18524 18550 0
-18525 18550 0
-5836 -18525 18551 0
-18526 18551 0
-5836 -18526 18552 0
-18527 18552 0
-5836 -18527 18553 0
-18528 18553 0
-5836 -18528 18554 0
-18529 18554 0
-5836 -18529 18555 0
-18530 18555 0
-5836 -18530 18556 0
-18531 18556 0
-5836 -18531 18557 0
-18532 18557 0
-5836 -18532 18558 0
-18533 18558 0
-5836 -18533 18559 0
-18534 18559 0
-5836 -18534 0
-5836 18560 0
-18535 18560 0
-5836 -18535 18561 0
-18536 18561 0
-5836 -18536 18562 0
-18537 18562 0
-5836 -18537 18563 0
-18538 18563 0
-5836 -18538 18564 0
-18539 18564 0
-5836 -18539 18565 0
-18540 18565 0
-5836 -18540 18566 0
-18541 18566 0
-5836 -18541 18567 0
-18542 18567 0
-5836 -18542 18568 0
-18543 18568 0
-5836 -18543 18569 0
-18544 18569 0
-5836 -18544 18570 0
-18545 18570 0
-5836 -18545 18571 0
-18546 18571 0
-5836 -18546 18572 0
-18547 18572 0
-5836 -18547 18573 0
-18548 18573 0
-5836 -18548 18574 0
-18549 18574 0
-5836 -18549 18575 0
-18550 18575 0
-5836 -18550 18576 0
-18551 18576 0
-5836 -18551 18577 0
-18552 18577 0
-5836 -18552 18578 0
-18553 18578 0
-5836 -18553 18579 0
-18554 18579 0
-5836 -18554 18580 0
-18555 18580 0
-5836 -18555 18581 0
-18556 18581 0
-5836 -18556 18582 0
-18557 18582 0
-5836 -18557 18583 0
-18558 18583 0
-5836 -18558 18584 0
-18559 18584 0
-5836 -18559 0
-5837 18585 0
-18560 18585 0
-5837 -18560 18586 0
-18561 18586 0
-5837 -18561 18587 0
-18562 18587 0
-5837 -18562 18588 0
-18563 18588 0
-5837 -18563 18589 0
-18564 18589 0
-5837 -18564 18590 0
-18565 18590 0
-5837 -18565 18591 0
-18566 18591 0
-5837 -18566 18592 0
-18567 18592 0
-5837 -18567 18593 0
-18568 18593 0
-5837 -18568 18594 0
-18569 18594 0
-5837 -18569 18595 0
-18570 18595 0
-5837 -18570 18596 0
-18571 18596 0
-5837 -18571 18597 0
-18572 18597 0
-5837 -18572 18598 0
-18573 18598 0
-5837 -18573 18599 0
-18574 18599 0
-5837 -18574 18600 0
-18575 18600 0
-5837 -18575 18601 0
-18576 18601 0
-5837 -18576 18602 0
-18577 18602 0
-5837 -18577 18603 0
-18578 18603 0
-5837 -18578 18604 0
-18579 18604 0
-5837 -18579 18605 0
-18580 18605 0
-5837 -18580 18606 0
-18581 18606 0
-5837 -18581 18607 0
-18582 18607 0
-5837 -18582 18608 0
-18583 18608 0
-5837 -18583 18609 0
-18584 18609 0
-5837 -18584 0
-5837 18610 0
-18585 18610 0
-5837 -18585 18611 0
-18586 18611 0
-5837 -18586 18612 0
-18587 18612 0
-5837 -18587 18613 0
-18588 18613 0
-5837 -18588 18614 0
-18589 18614 0
-5837 -18589 18615 0
-18590 18615 0
-5837 -18590 18616 0
-18591 18616 0
-5837 -18591 18617 0
-18592 18617 0
-5837 -18592 18618 0
-18593 18618 0
-5837 -18593 18619 0
-18594 18619 0
-5837 -18594 18620 0
-18595 18620 0
-5837 -18595 18621 0
-18596 18621 0
-5837 -18596 18622 0
-18597 18622 0
-5837 -18597 18623 0
-18598 18623 0
-5837 -18598 18624 0
-18599 18624 0
-5837 -18599 18625 0
-18600 18625 0
-5837 -18600 18626 0
-18601 18626 0
-5837 -18601 18627 0
-18602 18627 0
-5837 -18602 18628 0
-18603 18628 0
-5837 -18603 18629 0
-18604 18629 0
-5837 -18604 18630 0
-18605 18630 0
-5837 -18605 18631 0
-18606 18631 0
-5837 -18606 18632 0
-18607 18632 0
-5837 -18607 18633 0
-18608 18633 0
-5837 -18608 18634 0
-18609 18634 0
-5837 -18609 0
-5847 18635 0
-18610 18635 0
-5847 -18610 18636 0
-18611 18636 0
-5847 -18611 18637 0
-18612 18637 0
-5847 -18612 18638 0
-18613 18638 0
-5847 -18613 18639 0
-18614 18639 0
-5847 -18614 18640 0
-18615 18640 0
-5847 -18615 18641 0
-18616 18641 0
-5847 -18616 18642 0
-18617 18642 0
-5847 -18617 18643 0
-18618 18643 0
-5847 -18618 18644 0
-18619 18644 0
-5847 -18619 18645 0
-18620 18645 0
-5847 -18620 18646 0
-18621 18646 0
-5847 -18621 18647 0
-18622 18647 0
-5847 -18622 18648 0
-18623 18648 0
-5847 -18623 18649 0
-18624 18649 0
-5847 -18624 18650 0
-18625 18650 0
-5847 -18625 18651 0
-18626 18651 0
-5847 -18626 18652 0
-18627 18652 0
-5847 -18627 18653 0
-18628 18653 0
-5847 -18628 18654 0
-18629 18654 0
-5847 -18629 18655 0
-18630 18655 0
-5847 -18630 18656 0
-18631 18656 0
-5847 -18631 18657 0
-18632 18657 0
-5847 -18632 18658 0
-18633 18658 0
-5847 -18633 18659 0
-18634 18659 0
-5847 -18634 0
-5847 18660 0
-18635 18660 0
-5847 -18635 18661 0
-18636 18661 0
-5847 -18636 18662 0
-18637 18662 0
-5847 -18637 18663 0
-18638 18663 0
-5847 -18638 18664 0
-18639 18664 0
-5847 -18639 18665 0
-18640 18665 0
-5847 -18640 18666 0
-18641 18666 0
-5847 -18641 18667 0
-18642 18667 0
-5847 -18642 18668 0
-18643 18668 0
-5847 -18643 18669 0
-18644 18669 0
-5847 -18644 18670 0
-18645 18670 0
-5847 -18645 18671 0
-18646 18671 0
-5847 -18646 18672 0
-18647 18672 0
-5847 -18647 18673 0
-18648 18673 0
-5847 -18648 18674 0
-18649 18674 0
-5847 -18649 18675 0
-18650 18675 0
-5847 -18650 18676 0
-18651 18676 0
-5847 -18651 18677 0
-18652 18677 0
-5847 -18652 18678 0
-18653 18678 0
-5847 -18653 18679 0
-18654 18679 0
-5847 -18654 18680 0
-18655 18680 0
-5847 -18655 18681 0
-18656 18681 0
-5847 -18656 18682 0
-18657 18682 0
-5847 -18657 18683 0
-18658 18683 0
-5847 -18658 18684 0
-18659 18684 0
-5847 -18659 0
-5847 18685 0
-18660 18685 0
-5847 -18660 18686 0
-18661 18686 0
-5847 -18661 18687 0
-18662 18687 0
-5847 -18662 18688 0
-18663 18688 0
-5847 -18663 18689 0
-18664 18689 0
-5847 -18664 18690 0
-18665 18690 0
-5847 -18665 18691 0
-18666 18691 0
-5847 -18666 18692 0
-18667 18692 0
-5847 -18667 18693 0
-18668 18693 0
-5847 -18668 18694 0
-18669 18694 0
-5847 -18669 18695 0
-18670 18695 0
-5847 -18670 18696 0
-18671 18696 0
-5847 -18671 18697 0
-18672 18697 0
-5847 -18672 18698 0
-18673 18698 0
-5847 -18673 18699 0
-18674 18699 0
-5847 -18674 18700 0
-18675 18700 0
-5847 -18675 18701 0
-18676 18701 0
-5847 -18676 18702 0
-18677 18702 0
-5847 -18677 18703 0
-18678 18703 0
-5847 -18678 18704 0
-18679 18704 0
-5847 -18679 18705 0
-18680 18705 0
-5847 -18680 18706 0
-18681 18706 0
-5847 -18681 18707 0
-18682 18707 0
-5847 -18682 18708 0
-18683 18708 0
-5847 -18683 18709 0
-18684 18709 0
-5847 -18684 0
-5848 18710 0
-18685 18710 0
-5848 -18685 18711 0
-18686 18711 0
-5848 -18686 18712 0
-18687 18712 0
-5848 -18687 18713 0
-18688 18713 0
-5848 -18688 18714 0
-18689 18714 0
-5848 -18689 18715 0
-18690 18715 0
-5848 -18690 18716 0
-18691 18716 0
-5848 -18691 18717 0
-18692 18717 0
-5848 -18692 18718 0
-18693 18718 0
-5848 -18693 18719 0
-18694 18719 0
-5848 -18694 18720 0
-18695 18720 0
-5848 -18695 18721 0
-18696 18721 0
-5848 -18696 18722 0
-18697 18722 0
-5848 -18697 18723 0
-18698 18723 0
-5848 -18698 18724 0
-18699 18724 0
-5848 -18699 18725 0
-18700 18725 0
-5848 -18700 18726 0
-18701 18726 0
-5848 -18701 18727 0
-18702 18727 0
-5848 -18702 18728 0
-18703 18728 0
-5848 -18703 18729 0
-18704 18729 0
-5848 -18704 18730 0
-18705 18730 0
-5848 -18705 18731 0
-18706 18731 0
-5848 -18706 18732 0
-18707 18732 0
-5848 -18707 18733 0
-18708 18733 0
-5848 -18708 18734 0
-18709 18734 0
-5848 -18709 0
-5848 18735 0
-18710 18735 0
-5848 -18710 18736 0
-18711 18736 0
-5848 -18711 18737 0
-18712 18737 0
-5848 -18712 18738 0
-18713 18738 0
-5848 -18713 18739 0
-18714 18739 0
-5848 -18714 18740 0
-18715 18740 0
-5848 -18715 18741 0
-18716 18741 0
-5848 -18716 18742 0
-18717 18742 0
-5848 -18717 18743 0
-18718 18743 0
-5848 -18718 18744 0
-18719 18744 0
-5848 -18719 18745 0
-18720 18745 0
-5848 -18720 18746 0
-18721 18746 0
-5848 -18721 18747 0
-18722 18747 0
-5848 -18722 18748 0
-18723 18748 0
-5848 -18723 18749 0
-18724 18749 0
-5848 -18724 18750 0
-18725 18750 0
-5848 -18725 18751 0
-18726 18751 0
-5848 -18726 18752 0
-18727 18752 0
-5848 -18727 18753 0
-18728 18753 0
-5848 -18728 18754 0
-18729 18754 0
-5848 -18729 18755 0
-18730 18755 0
-5848 -18730 18756 0
-18731 18756 0
-5848 -18731 18757 0
-18732 18757 0
-5848 -18732 18758 0
-18733 18758 0
-5848 -18733 18759 0
-18734 18759 0
-5848 -18734 0
-5858 18760 0
-18735 18760 0
-5858 -18735 18761 0
-18736 18761 0
-5858 -18736 18762 0
-18737 18762 0
-5858 -18737 18763 0
-18738 18763 0
-5858 -18738 18764 0
-18739 18764 0
-5858 -18739 18765 0
-18740 18765 0
-5858 -18740 18766 0
-18741 18766 0
-5858 -18741 18767 0
-18742 18767 0
-5858 -18742 18768 0
-18743 18768 0
-5858 -18743 18769 0
-18744 18769 0
-5858 -18744 18770 0
-18745 18770 0
-5858 -18745 18771 0
-18746 18771 0
-5858 -18746 18772 0
-18747 18772 0
-5858 -18747 18773 0
-18748 18773 0
-5858 -18748 18774 0
-18749 18774 0
-5858 -18749 18775 0
-18750 18775 0
-5858 -18750 18776 0
-18751 18776 0
-5858 -18751 18777 0
-18752 18777 0
-5858 -18752 18778 0
-18753 18778 0
-5858 -18753 18779 0
-18754 18779 0
-5858 -18754 18780 0
-18755 18780 0
-5858 -18755 18781 0
-18756 18781 0
-5858 -18756 18782 0
-18757 18782 0
-5858 -18757 18783 0
-18758 18783 0
-5858 -18758 18784 0
-18759 18784 0
-5858 -18759 0
-5858 18785 0
-18760 18785 0
-5858 -18760 18786 0
-18761 18786 0
-5858 -18761 18787 0
-18762 18787 0
-5858 -18762 18788 0
-18763 18788 0
-5858 -18763 18789 0
-18764 18789 0
-5858 -18764 18790 0
-18765 18790 0
-5858 -18765 18791 0
-18766 18791 0
-5858 -18766 18792 0
-18767 18792 0
-5858 -18767 18793 0
-18768 18793 0
-5858 -18768 18794 0
-18769 18794 0
-5858 -18769 18795 0
-18770 18795 0
-5858 -18770 18796 0
-18771 18796 0
-5858 -18771 18797 0
-18772 18797 0
-5858 -18772 18798 0
-18773 18798 0
-5858 -18773 18799 0
-18774 18799 0
-5858 -18774 18800 0
-18775 18800 0
-5858 -18775 18801 0
-18776 18801 0
-5858 -18776 18802 0
-18777 18802 0
-5858 -18777 18803 0
-18778 18803 0
-5858 -18778 18804 0
-18779 18804 0
-5858 -18779 18805 0
-18780 18805 0
-5858 -18780 18806 0
-18781 18806 0
-5858 -18781 18807 0
-18782 18807 0
-5858 -18782 18808 0
-18783 18808 0
-5858 -18783 18809 0
-18784 18809 0
-5858 -18784 0
-5858 18810 0
-18785 18810 0
-5858 -18785 18811 0
-18786 18811 0
-5858 -18786 18812 0
-18787 18812 0
-5858 -18787 18813 0
-18788 18813 0
-5858 -18788 18814 0
-18789 18814 0
-5858 -18789 18815 0
-18790 18815 0
-5858 -18790 18816 0
-18791 18816 0
-5858 -18791 18817 0
-18792 18817 0
-5858 -18792 18818 0
-18793 18818 0
-5858 -18793 18819 0
-18794 18819 0
-5858 -18794 18820 0
-18795 18820 0
-5858 -18795 18821 0
-18796 18821 0
-5858 -18796 18822 0
-18797 18822 0
-5858 -18797 18823 0
-18798 18823 0
-5858 -18798 18824 0
-18799 18824 0
-5858 -18799 18825 0
-18800 18825 0
-5858 -18800 18826 0
-18801 18826 0
-5858 -18801 18827 0
-18802 18827 0
-5858 -18802 18828 0
-18803 18828 0
-5858 -18803 18829 0
-18804 18829 0
-5858 -18804 18830 0
-18805 18830 0
-5858 -18805 18831 0
-18806 18831 0
-5858 -18806 18832 0
-18807 18832 0
-5858 -18807 18833 0
-18808 18833 0
-5858 -18808 18834 0
-18809 18834 0
-5858 -18809 0
-5859 18835 0
-18810 18835 0
-5859 -18810 18836 0
-18811 18836 0
-5859 -18811 18837 0
-18812 18837 0
-5859 -18812 18838 0
-18813 18838 0
-5859 -18813 18839 0
-18814 18839 0
-5859 -18814 18840 0
-18815 18840 0
-5859 -18815 18841 0
-18816 18841 0
-5859 -18816 18842 0
-18817 18842 0
-5859 -18817 18843 0
-18818 18843 0
-5859 -18818 18844 0
-18819 18844 0
-5859 -18819 18845 0
-18820 18845 0
-5859 -18820 18846 0
-18821 18846 0
-5859 -18821 18847 0
-18822 18847 0
-5859 -18822 18848 0
-18823 18848 0
-5859 -18823 18849 0
-18824 18849 0
-5859 -18824 18850 0
-18825 18850 0
-5859 -18825 18851 0
-18826 18851 0
-5859 -18826 18852 0
-18827 18852 0
-5859 -18827 18853 0
-18828 18853 0
-5859 -18828 18854 0
-18829 18854 0
-5859 -18829 18855 0
-18830 18855 0
-5859 -18830 18856 0
-18831 18856 0
-5859 -18831 18857 0
-18832 18857 0
-5859 -18832 18858 0
-18833 18858 0
-5859 -18833 18859 0
-18834 18859 0
-5859 -18834 0
-5859 -18859 0
